TITLE="results for TO code"
VARIABLES = "x", "y", "z", "density", "sigmaxx", "sigmayy", "sigmazz", "sigmaxy", "sigmaxz", "sigmayz"
ZONE T="load step 1", NODES= 12221, ELEMENTS= 10000, DATAPACKING=POINT, ZONETYPE=FEBRICK
               0.00000000                0.00000000                0.00000000                1.00000000               -0.00000000                0.00000000                0.09770914               -0.00000000                0.04247304                0.04487140
               1.00000000                0.00000000                0.00000000                1.00000000                0.00000000               -0.00000000                0.07963717                0.00000000                0.01379876                0.04134830
               2.00000000                0.00000000                0.00000000                1.00000000                0.00000000                0.00000000                0.04652035               -0.00000000               -0.00645997                0.02822414
               3.00000000                0.00000000                0.00000000                1.00000000                0.00000000               -0.00000000               -0.00231911                0.00000000               -0.00304403                0.00183999
               4.00000000                0.00000000                0.00000000                1.00000000               -0.00000000                0.00000000                0.00015129               -0.00000000                0.00115116               -0.00059463
               5.00000000                0.00000000                0.00000000                1.00000000               -0.00000000               -0.00000000               -0.00134924                0.00000000                0.00720203                0.00158935
               6.00000000                0.00000000                0.00000000                1.00000000                0.00000000                0.00000000                0.02974833               -0.00000000                0.02128030                0.02493214
               7.00000000                0.00000000                0.00000000                1.00000000               -0.00000000               -0.00000000                0.08501962               -0.00000000                0.01769525                0.05382564
               8.00000000                0.00000000                0.00000000                1.00000000                0.00000000               -0.00000000                0.10497519               -0.00000000               -0.00079462                0.06268739
               9.00000000                0.00000000                0.00000000                1.00000000                0.00000000                0.00000000                0.10978487                0.00000000               -0.02452356                0.06435046
              10.00000000                0.00000000                0.00000000                1.00000000                0.00000000               -0.00000000                0.13044576               -0.00000000               -0.06133233                0.06760152
               0.00000000                1.00000000                0.00000000                1.00000000               -0.00000000               -0.00000000                0.08062601               -0.00000000                0.04172085                0.01584095
               1.00000000                1.00000000                0.00000000                1.00000000               -0.00000000               -0.00000000                0.04917658               -0.00000000                0.01534150                0.01464566
               2.00000000                1.00000000                0.00000000                1.00000000               -0.00000000               -0.00000000                0.01555697                0.00000000                0.00302753                0.00611828
               3.00000000                1.00000000                0.00000000                1.00000000                0.00000000                0.00000000               -0.00108980               -0.00000000                0.00228985                0.00160538
               4.00000000                1.00000000                0.00000000                1.00000000                0.00000000               -0.00000000                0.00015628                0.00000000                0.00107088               -0.00093000
               5.00000000                1.00000000                0.00000000                1.00000000                0.00000000               -0.00000000               -0.00075473               -0.00000000                0.00119782                0.00024494
               6.00000000                1.00000000                0.00000000                1.00000000               -0.00000000               -0.00000000                0.00841446               -0.00000000                0.00568863                0.00416019
               7.00000000                1.00000000                0.00000000                1.00000000                0.00000000                0.00000000                0.04459011               -0.00000000                0.00748950                0.01541229
               8.00000000                1.00000000                0.00000000                1.00000000               -0.00000000                0.00000000                0.07983643               -0.00000000               -0.00638276                0.02555332
               9.00000000                1.00000000                0.00000000                1.00000000               -0.00000000               -0.00000000                0.09069227               -0.00000000               -0.02933274                0.02768033
              10.00000000                1.00000000                0.00000000                1.00000000                0.00000000               -0.00000000                0.10669330               -0.00000000               -0.06276712                0.02982833
               0.00000000                2.00000000                0.00000000                1.00000000                0.00000000               -0.00000000                0.04876472                0.00000000                0.03008003               -0.00512153
               1.00000000                2.00000000                0.00000000                1.00000000                0.00000000               -0.00000000                0.01577461                0.00000000                0.00774700                0.00296372
               2.00000000                2.00000000                0.00000000                1.00000000               -0.00000000               -0.00000000               -0.00286948               -0.00000000                0.00350364                0.00319405
               3.00000000                2.00000000                0.00000000                1.00000000               -0.00000000                0.00000000                0.00075355                0.00000000                0.00152151                0.00079932
               4.00000000                2.00000000                0.00000000                1.00000000               -0.00000000               -0.00000000               -0.00012511               -0.00000000                0.00065928                0.00002876
               5.00000000                2.00000000                0.00000000                1.00000000               -0.00000000                0.00000000                0.00031681                0.00000000                0.00016575               -0.00019506
               6.00000000                2.00000000                0.00000000                1.00000000                0.00000000                0.00000000               -0.00115686                0.00000000               -0.00038443                0.00102810
               7.00000000                2.00000000                0.00000000                1.00000000               -0.00000000                0.00000000                0.00513429                0.00000000                0.00111404                0.00148197
               8.00000000                2.00000000                0.00000000                1.00000000               -0.00000000                0.00000000                0.03692971                0.00000000               -0.00656255               -0.00091395
               9.00000000                2.00000000                0.00000000                1.00000000                0.00000000                0.00000000                0.06935185               -0.00000000               -0.02753412                0.00382300
              10.00000000                2.00000000                0.00000000                1.00000000               -0.00000000               -0.00000000                0.10408442               -0.00000000               -0.06146624                0.00343361
               0.00000000                3.00000000                0.00000000                1.00000000               -0.00000000                0.00000000               -0.00233048               -0.00000000                0.00225686               -0.00288769
               1.00000000                3.00000000                0.00000000                1.00000000               -0.00000000                0.00000000               -0.00109866                0.00000000                0.00181074                0.00259303
               2.00000000                3.00000000                0.00000000                1.00000000               -0.00000000                0.00000000                0.00077019                0.00000000                0.00093403                0.00159632
               3.00000000                3.00000000                0.00000000                1.00000000               -0.00000000               -0.00000000               -0.00013184               -0.00000000                0.00069945                0.00068221
               4.00000000                3.00000000                0.00000000                1.00000000               -0.00000000                0.00000000                0.00008122                0.00000000                0.00027442                0.00013563
               5.00000000                3.00000000                0.00000000                1.00000000               -0.00000000               -0.00000000               -0.00004900               -0.00000000               -0.00008466                0.00010857
               6.00000000                3.00000000                0.00000000                1.00000000               -0.00000000                0.00000000                0.00018122               -0.00000000               -0.00023819                0.00024980
               7.00000000                3.00000000                0.00000000                1.00000000                0.00000000                0.00000000                0.00050603                0.00000000               -0.00134849                0.00036452
               8.00000000                3.00000000                0.00000000                1.00000000                0.00000000               -0.00000000               -0.00596244               -0.00000000               -0.00373777                0.00141750
               9.00000000                3.00000000                0.00000000                1.00000000                0.00000000               -0.00000000                0.02267873               -0.00000000               -0.01182898               -0.00426334
              10.00000000                3.00000000                0.00000000                1.00000000                0.00000000                0.00000000                0.07110330                0.00000000               -0.04485299               -0.01839049
               0.00000000                4.00000000                0.00000000                1.00000000               -0.00000000                0.00000000                0.00043413                0.00000000               -0.00062119                0.00197004
               1.00000000                4.00000000                0.00000000                1.00000000                0.00000000                0.00000000                0.00025102                0.00000000               -0.00098823                0.00128472
               2.00000000                4.00000000                0.00000000                1.00000000               -0.00000000                0.00000000               -0.00022753               -0.00000000                0.00008668                0.00077118
               3.00000000                4.00000000                0.00000000                1.00000000                0.00000000                0.00000000                0.00011608                0.00000000                0.00011615                0.00034550
               4.00000000                4.00000000                0.00000000                1.00000000                0.00000000                0.00000000               -0.00001285               -0.00000000                0.00009068                0.00012369
               5.00000000                4.00000000                0.00000000                1.00000000               -0.00000000               -0.00000000                0.00002812               -0.00000000               -0.00003944                0.00006910
               6.00000000                4.00000000                0.00000000                1.00000000                0.00000000               -0.00000000                0.00003740                0.00000000               -0.00025597                0.00014272
               7.00000000                4.00000000                0.00000000                1.00000000                0.00000000               -0.00000000               -0.00017056                0.00000000               -0.00056233                0.00051201
               8.00000000                4.00000000                0.00000000                1.00000000               -0.00000000               -0.00000000                0.00120221               -0.00000000               -0.00089251                0.00088400
               9.00000000                4.00000000                0.00000000                1.00000000               -0.00000000               -0.00000000               -0.00180555               -0.00000000               -0.00238543                0.00039476
              10.00000000                4.00000000                0.00000000                1.00000000                0.00000000               -0.00000000               -0.00305501                0.00000000               -0.00461091               -0.00902576
               0.00000000                5.00000000                0.00000000                1.00000000                0.00000000                0.00000000               -0.00308139                0.00000000                0.00406037                0.01004336
               1.00000000                5.00000000                0.00000000                1.00000000                0.00000000               -0.00000000               -0.00200173               -0.00000000                0.00123829                0.00200385
               2.00000000                5.00000000                0.00000000                1.00000000                0.00000000                0.00000000                0.00094802                0.00000000               -0.00025871                0.00051566
               3.00000000                5.00000000                0.00000000                1.00000000               -0.00000000               -0.00000000               -0.00024438               -0.00000000                0.00007638                0.00003760
               4.00000000                5.00000000                0.00000000                1.00000000                0.00000000               -0.00000000                0.00006684                0.00000000               -0.00000471                0.00004226
               5.00000000                5.00000000                0.00000000                1.00000000                0.00000000                0.00000000                0.00000352                0.00000000               -0.00004312               -0.00000625
               6.00000000                5.00000000                0.00000000                1.00000000                0.00000000                0.00000000                0.00000976                0.00000000               -0.00012682                0.00004134
               7.00000000                5.00000000                0.00000000                1.00000000                0.00000000               -0.00000000                0.00008295               -0.00000000               -0.00015898                0.00012457
               8.00000000                5.00000000                0.00000000                1.00000000                0.00000000                0.00000000               -0.00013976                0.00000000               -0.00007685                0.00028548
               9.00000000                5.00000000                0.00000000                1.00000000               -0.00000000                0.00000000                0.00016585                0.00000000                0.00066877               -0.00026018
              10.00000000                5.00000000                0.00000000                1.00000000                0.00000000               -0.00000000                0.00024643               -0.00000000                0.00054641               -0.00242880
               0.00000000                6.00000000                0.00000000                1.00000000               -0.00000000               -0.00000000                0.06223198               -0.00000000                0.03635197                0.02534835
               1.00000000                6.00000000                0.00000000                1.00000000               -0.00000000                0.00000000                0.02210165                0.00000000                0.00554578                0.00948167
               2.00000000                6.00000000                0.00000000                1.00000000                0.00000000               -0.00000000               -0.00447745               -0.00000000                0.00114419                0.00031719
               3.00000000                6.00000000                0.00000000                1.00000000                0.00000000               -0.00000000                0.00089947                0.00000000               -0.00007553                0.00016833
               4.00000000                6.00000000                0.00000000                1.00000000               -0.00000000                0.00000000               -0.00011029               -0.00000000                0.00001870               -0.00021288
               5.00000000                6.00000000                0.00000000                1.00000000                0.00000000                0.00000000                0.00003130               -0.00000000               -0.00001000               -0.00010032
               6.00000000                6.00000000                0.00000000                1.00000000                0.00000000                0.00000000                0.00002370               -0.00000000               -0.00012657               -0.00011917
               7.00000000                6.00000000                0.00000000                1.00000000               -0.00000000               -0.00000000                0.00001240                0.00000000               -0.00019570               -0.00026532
               8.00000000                6.00000000                0.00000000                1.00000000               -0.00000000                0.00000000                0.00007825                0.00000000                0.00007700               -0.00049499
               9.00000000                6.00000000                0.00000000                1.00000000                0.00000000                0.00000000                0.00001165               -0.00000000                0.00042006               -0.00069561
              10.00000000                6.00000000                0.00000000                1.00000000                0.00000000                0.00000000               -0.00036969                0.00000000                0.00052472               -0.00088573
               0.00000000                7.00000000                0.00000000                1.00000000                0.00000000                0.00000000                0.09124495               -0.00000000                0.05013837                0.01292295
               1.00000000                7.00000000                0.00000000                1.00000000               -0.00000000               -0.00000000                0.05755752                0.00000000                0.01592390                0.00671836
               2.00000000                7.00000000                0.00000000                1.00000000                0.00000000                0.00000000                0.02003209               -0.00000000               -0.00063696                0.00338295
               3.00000000                7.00000000                0.00000000                1.00000000                0.00000000                0.00000000               -0.00151507               -0.00000000               -0.00033333               -0.00142408
               4.00000000                7.00000000                0.00000000                1.00000000                0.00000000               -0.00000000                0.00012382                0.00000000                0.00032265               -0.00047203
               5.00000000                7.00000000                0.00000000                1.00000000               -0.00000000               -0.00000000                0.00002985               -0.00000000                0.00007831               -0.00019204
               6.00000000                7.00000000                0.00000000                1.00000000               -0.00000000               -0.00000000                0.00002049                0.00000000               -0.00026841               -0.00021087
               7.00000000                7.00000000                0.00000000                1.00000000                0.00000000                0.00000000                0.00009944                0.00000000               -0.00067007               -0.00068534
               8.00000000                7.00000000                0.00000000                1.00000000                0.00000000               -0.00000000               -0.00002260               -0.00000000               -0.00086769               -0.00180956
               9.00000000                7.00000000                0.00000000                1.00000000               -0.00000000               -0.00000000                0.00032454                0.00000000                0.00033764               -0.00224384
              10.00000000                7.00000000                0.00000000                1.00000000                0.00000000                0.00000000                0.00034020               -0.00000000                0.00111753               -0.00052076
               0.00000000                8.00000000                0.00000000                1.00000000               -0.00000000               -0.00000000                0.09847870               -0.00000000                0.05749174               -0.00137060
               1.00000000                8.00000000                0.00000000                1.00000000                0.00000000                0.00000000                0.07484186               -0.00000000                0.02277666               -0.00669792
               2.00000000                8.00000000                0.00000000                1.00000000               -0.00000000               -0.00000000                0.03961966                0.00000000                0.00064471               -0.00741835
               3.00000000                8.00000000                0.00000000                1.00000000               -0.00000000               -0.00000000               -0.00455358               -0.00000000                0.00121498               -0.00304801
               4.00000000                8.00000000                0.00000000                1.00000000               -0.00000000                0.00000000                0.00073691               -0.00000000                0.00090675               -0.00098243
               5.00000000                8.00000000                0.00000000                1.00000000               -0.00000000                0.00000000               -0.00005469                0.00000000                0.00030438               -0.00012734
               6.00000000                8.00000000                0.00000000                1.00000000                0.00000000                0.00000000                0.00006945                0.00000000               -0.00046237                0.00001365
               7.00000000                8.00000000                0.00000000                1.00000000               -0.00000000                0.00000000               -0.00001979                0.00000000               -0.00177637               -0.00088885
               8.00000000                8.00000000                0.00000000                1.00000000                0.00000000                0.00000000                0.00103662                0.00000000               -0.00356174               -0.00356376
               9.00000000                8.00000000                0.00000000                1.00000000                0.00000000               -0.00000000               -0.00166877               -0.00000000               -0.00520723               -0.00797502
              10.00000000                8.00000000                0.00000000                1.00000000               -0.00000000               -0.00000000               -0.00428345               -0.00000000               -0.00361221                0.00040023
               0.00000000                9.00000000                0.00000000                1.00000000                0.00000000                0.00000000                0.10853079               -0.00000000                0.06414359               -0.02223253
               1.00000000                9.00000000                0.00000000                1.00000000                0.00000000               -0.00000000                0.08178390                0.00000000                0.02909934               -0.02569276
               2.00000000                9.00000000                0.00000000                1.00000000               -0.00000000                0.00000000                0.05166535               -0.00000000                0.00770246               -0.02191444
               3.00000000                9.00000000                0.00000000                1.00000000                0.00000000                0.00000000                0.00906758                0.00000000                0.00088594               -0.00799861
               4.00000000                9.00000000                0.00000000                1.00000000                0.00000000               -0.00000000               -0.00052671                0.00000000                0.00147096               -0.00160039
               5.00000000                9.00000000                0.00000000                1.00000000                0.00000000               -0.00000000                0.00007709               -0.00000000                0.00000541                0.00047884
               6.00000000                9.00000000                0.00000000                1.00000000               -0.00000000               -0.00000000                0.00002941                0.00000000               -0.00053100                0.00031990
               7.00000000                9.00000000                0.00000000                1.00000000               -0.00000000                0.00000000                0.00032704               -0.00000000               -0.00217662                0.00032110
               8.00000000                9.00000000                0.00000000                1.00000000                0.00000000                0.00000000               -0.00166639                0.00000000               -0.00794041               -0.00515116
               9.00000000                9.00000000                0.00000000                1.00000000               -0.00000000                0.00000000                0.03102363                0.00000000               -0.01746502               -0.01727649
              10.00000000                9.00000000                0.00000000                1.00000000                0.00000000                0.00000000                0.09327786                0.00000000               -0.05275782               -0.01159074
               0.00000000               10.00000000                0.00000000                1.00000000                0.00000000                0.00000000                0.12892017                0.00000000                0.06789655               -0.05833830
               1.00000000               10.00000000                0.00000000                1.00000000               -0.00000000               -0.00000000                0.10181940                0.00000000                0.03184359               -0.05701532
               2.00000000               10.00000000                0.00000000                1.00000000               -0.00000000                0.00000000                0.08325502                0.00000000                0.00760959               -0.05292858
               3.00000000               10.00000000                0.00000000                1.00000000               -0.00000000               -0.00000000                0.03938583                0.00000000               -0.01089304               -0.03052904
               4.00000000               10.00000000                0.00000000                1.00000000                0.00000000               -0.00000000               -0.00163991               -0.00000000               -0.00481555               -0.00177999
               5.00000000               10.00000000                0.00000000                1.00000000                0.00000000               -0.00000000                0.00004393                0.00000000               -0.00125523                0.00048033
               6.00000000               10.00000000                0.00000000                1.00000000                0.00000000                0.00000000               -0.00031341               -0.00000000               -0.00059932                0.00051865
               7.00000000               10.00000000                0.00000000                1.00000000                0.00000000               -0.00000000                0.00033786                0.00000000               -0.00045331                0.00112244
               8.00000000               10.00000000                0.00000000                1.00000000                0.00000000               -0.00000000               -0.00431385               -0.00000000                0.00043698               -0.00353311
               9.00000000               10.00000000                0.00000000                1.00000000                0.00000000               -0.00000000                0.09303827                0.00000000               -0.01122928               -0.05239303
              10.00000000               10.00000000                0.00000000                1.00000000               -0.00000000                0.00000000                0.19191573               -0.00000000               -0.06742548               -0.06803554
               0.00042473                0.00044871                1.00097709                1.00000000               -0.02867429               -0.02903045                0.09126935               -0.00427529                0.01225855                0.01781134
               1.00013799                0.00041348                1.00079637                0.92277781               -0.02446651               -0.02670264                0.08252452               -0.00678088               -0.00748797                0.00236981
               1.99993540                0.00028224                1.00046520                0.01000000               -0.00842139               -0.02210587                0.07350999               -0.01026665               -0.03706335               -0.00065595
               2.99996956                0.00001840                0.99997681                0.01000000                0.00380557               -0.00023460                0.08299410               -0.00907551               -0.02301040                0.02364476
               4.00001151               -0.00000595                1.00000151                0.01000004                0.00512303               -0.00033536                0.04807065               -0.00020559                0.01024169                0.03991083
               5.00007202                0.00001589                0.99998651                0.01000001                0.01006457               -0.00134440                0.05465518                0.00675918                0.03105622                0.04008466
               6.00021280                0.00024932                1.00029748                0.66659518                0.00524661               -0.02077195                0.08622357                0.01052648                0.07439450                0.00314517
               7.00017695                0.00053826                1.00085020                1.00000000               -0.01103746               -0.03841335                0.09104133                0.00867188                0.05178785               -0.00593766
               7.99999205                0.00062687                1.00104975                0.99999999               -0.02110941               -0.03713408                0.10103148               -0.00032573                0.00945846                0.01443411
               8.99975476                0.00064350                1.00109785                1.00000000               -0.03026886               -0.03667012                0.11215770               -0.00235212               -0.00702795                0.02407781
               9.99938668                0.00067602                1.00130446                1.00000000               -0.03680877               -0.03777319                0.11924290                0.00181628               -0.01512873                0.02314462
               0.00041721                1.00015841                1.00080626                0.95826571               -0.02637935               -0.02499646                0.08105259               -0.00739179                0.00177438               -0.00172260
               1.00015342                1.00014646                1.00049177                0.01000001               -0.01934666               -0.01919229                0.07077460               -0.00788721               -0.01133353               -0.01134133
               2.00003028                1.00006118                1.00015557                0.01000001               -0.00652583               -0.01251505                0.06345596               -0.00153833               -0.01740492               -0.01049361
               3.00002290                1.00001605                0.99998910                0.01000001               -0.00097832               -0.00052033                0.06690250               -0.00124137               -0.00551443                0.02069715
               4.00001071                0.99999070                1.00000156                0.01000000               -0.00054601                0.00031170                0.03960125               -0.00092616                0.00965679                0.01471424
               5.00001198                1.00000245                0.99999245                0.01000000                0.00230887               -0.00089220                0.04509079               -0.00097305                0.02082789                0.01405502
               6.00005689                1.00004160                1.00008414                0.01000007                0.00314584               -0.01195202                0.08053062               -0.00324869                0.04815903               -0.00645552
               7.00007490                1.00015412                1.00044590                0.58495443               -0.00603570               -0.02617184                0.09970541                0.00240596                0.04311924               -0.02196077
               7.99993617                1.00025553                1.00079836                0.99999998               -0.01841112               -0.03180067                0.10004918                0.00325006                0.01378047               -0.01017418
               8.99970667                1.00027680                1.00090692                0.99999999               -0.02819218               -0.03026373                0.10110977                0.00063223               -0.01169665                0.00658326
               9.99937233                1.00029828                1.00106693                0.99999999               -0.03343438               -0.03208395                0.10941764                0.00208104               -0.02512648                0.01748959
               0.00030080                1.99994878                1.00048765                0.01000001               -0.02233303               -0.00936432                0.07150365               -0.01164675                0.00270369               -0.03259636
               1.00007747                2.00002964                1.00015775                0.01000001               -0.01328820               -0.00602631                0.05813829               -0.00260760               -0.00542988               -0.01810316
               2.00003504                2.00003194                0.99997131                0.01000001               -0.00311275               -0.00226098                0.08542513               -0.00212895                0.01269376                0.00202174
               3.00001522                2.00000799                1.00000754                0.01000001               -0.00142218               -0.00046159                0.03021901               -0.00237784                0.01626936                0.01005795
               4.00000659                2.00000029                0.99999875                0.01000001               -0.00067788                0.00053282                0.04213922               -0.00089543                0.01103661                0.00440216
               5.00000166                1.99999805                1.00000317                0.01000000               -0.00052186               -0.00006819                0.04500676               -0.00014157                0.01042835                0.00080377
               5.99999616                2.00001028                0.99998843                0.01000000                0.00047415               -0.00195520                0.04476457               -0.00212490                0.01007960               -0.00390392
               7.00001114                2.00001482                1.00005134                0.01000000               -0.00308906               -0.00752388                0.12981574               -0.00539001                0.01673634               -0.01744482
               7.99993437                1.99999086                1.00036930                0.01000000               -0.01432408               -0.01206791                0.10025127                0.00249301                0.01766323               -0.03933773
               8.99972466                2.00003823                1.00069352                1.00000000               -0.02745184               -0.01597184                0.08820556                0.01092566                0.00277112               -0.02386184
               9.99938534                2.00003434                1.00104084                1.00000000               -0.03393212               -0.02410941                0.10093756                0.00856767               -0.01097393               -0.00332483
               0.00002257                2.99997112                0.99997670                0.01000001               -0.00044612                0.00354578                0.08790009               -0.00986988                0.02989442               -0.01870798
               1.00001811                3.00002593                0.99998901                0.01000001               -0.00066142               -0.00083950                0.07472038               -0.00212561                0.03554023               -0.00572421
               2.00000934                3.00001596                1.00000770                0.01000001               -0.00055564               -0.00121143                0.02739117               -0.00266389                0.02007906                0.01029761
               3.00000699                3.00000682                0.99999868                0.01000001               -0.00032981               -0.00022691                0.04119383               -0.00143302                0.01227422                0.00370049
               4.00000274                3.00000136                1.00000081                0.01000001               -0.00039205                0.00004747                0.03813763               -0.00057112                0.00967306               -0.00044011
               4.99999915                3.00000109                0.99999951                0.01000001               -0.00025630                0.00013208                0.04024694               -0.00004551                0.00631501               -0.00439296
               5.99999762                3.00000250                1.00000181                0.01000001               -0.00063191               -0.00044269                0.04891196                0.00019221                0.00190805               -0.00594544
               6.99998652                3.00000365                1.00000506                0.01000001               -0.00174979               -0.00048498                0.04034923               -0.00025433               -0.01135578               -0.00996800
               7.99996262                3.00001417                0.99994038                0.01000000               -0.00524025                0.00089897                0.09362237                0.00052109               -0.01300874               -0.02852788
               8.99988171                2.99995737                1.00022679                0.01000000               -0.02055761               -0.00171412                0.07417660                0.00267035                0.00762040               -0.04224107
               9.99955147                2.99981610                1.00071103                0.09887439               -0.03302401               -0.00622968                0.09303850                0.01430052               -0.00211912               -0.05611437
              -0.00000621                4.00001970                1.00000434                0.01000001               -0.00036704                0.00646553                0.05099773                0.00021643                0.04856981                0.00947368
               0.99999012                4.00001285                1.00000251                0.01000000                0.00035393               -0.00029459                0.03721837               -0.00088565                0.02247254                0.00780656
               2.00000087                4.00000771                0.99999772                0.01000001                0.00055219               -0.00054033                0.04169838               -0.00106598                0.01421773                0.00618330
               3.00000116                4.00000345                1.00000116                0.01000001                0.00000200               -0.00032230                0.03718684               -0.00063528                0.00994235                0.00077531
               4.00000091                4.00000124                0.99999987                0.01000002               -0.00007779               -0.00004669                0.03748875               -0.00027776                0.00668243               -0.00421189
               4.99999961                4.00000069                1.00000028                0.01000001               -0.00017333               -0.00005741                0.03844450                0.00003028                0.00366350               -0.00749172
               5.99999744                4.00000143                1.00000037                0.01000001               -0.00026144               -0.00010423                0.03953503                0.00027714               -0.00106322               -0.00928667
               6.99999438                4.00000512                0.99999829                0.01000000               -0.00031827               -0.00011998                0.04466142                0.00096539               -0.00655553               -0.00923862
               7.99999107                4.00000884                1.00001202                0.01000000               -0.00091155               -0.00056601                0.03999924                0.00177183               -0.01605155               -0.00521057
               8.99997615                4.00000395                0.99998194                0.01000000               -0.00185920                0.00200158                0.05147334                0.00129400               -0.03262073               -0.01949018
               9.99995389                3.99990974                0.99996945                0.01000000               -0.00222548                0.00798085                0.06663463                0.01327918               -0.05554054               -0.04152655
               0.00004060                5.00010043                0.99996919                0.01000003               -0.00282207                0.01168916                0.06306582                0.01044708                0.04748561                0.04370995
               1.00001238                5.00002004                0.99997998                0.01000000               -0.00215954                0.00409847                0.04797234               -0.00149684                0.02374965                0.02363100
               1.99999741                5.00000516                1.00000948                0.01000000               -0.00058096               -0.00022700                0.04211146               -0.00045437                0.01076834                0.00194557
               3.00000076                5.00000038                0.99999756                0.01000001                0.00012700               -0.00008858                0.03819556               -0.00033254                0.00639292               -0.00284133
               3.99999995                5.00000042                1.00000067                0.01000001               -0.00005975               -0.00016829                0.03678386               -0.00005792                0.00479790               -0.00786876
               4.99999957                4.99999994                1.00000004                0.01000000               -0.00006106               -0.00008471                0.03675029                0.00001426                0.00229646               -0.01068993
               5.99999873                5.00000041                1.00000010                0.01000000               -0.00005793               -0.00013095                0.03815857                0.00013011               -0.00134333               -0.01165595
               6.99999841                5.00000125                1.00000083                0.01000000                0.00002498               -0.00038866                0.03966328                0.00030538               -0.00687077               -0.01106897
               7.99999923                5.00000285                0.99999860                0.01000001                0.00041388               -0.00068949                0.04367436                0.00029238               -0.01463476               -0.01033966
               9.00000669                4.99999740                1.00000166                0.01000001                0.00031163               -0.00054519                0.04591808                0.00004560               -0.02650890               -0.00744409
              10.00000546                4.99997571                1.00000246                0.01000000               -0.00012236                0.00407002                0.06126123                0.00039920               -0.04922980               -0.00752392
               0.00036352                6.00025348                1.00062232                0.96436863               -0.03080619                0.00143980                0.08733344                0.00717232               -0.00637588                0.06893502
               1.00005546                6.00009482                1.00022102                0.01000000               -0.01760389                0.00235725                0.07474870               -0.00517278               -0.01833246                0.04600139
               2.00001144                6.00000317                0.99995523                0.01000000               -0.00281066                0.00143364                0.04596531               -0.00484579               -0.00141017                0.00836246
               2.99999924                6.00000168                1.00000899                0.01000001               -0.00056275               -0.00073084                0.04056672               -0.00046989                0.00677112               -0.00844366
               4.00000019                5.99999787                0.99999890                0.01000001                0.00003276               -0.00025715                0.03630884                0.00002935                0.00386772               -0.01282439
               4.99999990                5.99999900                1.00000031                0.01000000               -0.00007263               -0.00009289                0.03633716                0.00010756                0.00238507               -0.01438273
               5.99999873                5.99999881                1.00000024                0.01000004               -0.00009285               -0.00012611                0.03750252               -0.00015329               -0.00108870               -0.01495855
               6.99999804                5.99999735                1.00000012                0.01000000                0.00010179               -0.00040495                0.04002298               -0.00044345               -0.00623328               -0.01431536
               8.00000077                5.99999505                1.00000078                0.01000000                0.00030788               -0.00104752                0.04320209               -0.00061057               -0.01382073               -0.01257957
               9.00000420                5.99999304                1.00000012                0.01000001                0.00022386               -0.00099183                0.04742467               -0.00036094               -0.02588623               -0.01024553
              10.00000525                5.99999114                0.99999630                0.01000049                0.00010466                0.00095402                0.06327021                0.00009545               -0.04881975               -0.00825673
               0.00050138                7.00012923                1.00091245                1.00000000               -0.03421448               -0.01335947                0.09165377                0.00436530                0.00436286                0.02511473
               1.00015924                7.00006718                1.00057558                0.99747979               -0.02538767               -0.00808979                0.07640011                0.00384544               -0.01257845                0.02788505
               1.99999363                7.00003383                1.00020032                0.01000000               -0.00812861               -0.00386777                0.05926289               -0.00432096               -0.02239915                0.02161415
               2.99999667                6.99998576                0.99998485                0.01000001                0.00047981               -0.00160817                0.03464259               -0.00128223               -0.00311691               -0.02173997
               4.00000323                6.99999528                1.00000124                0.01000000                0.00020582               -0.00038478                0.03813309                0.00106004                0.00627556               -0.01742066
               5.00000078                6.99999808                1.00000030                0.01000000               -0.00029553               -0.00001351                0.03615768                0.00028777                0.00323997               -0.01900757
               5.99999732                6.99999789                1.00000020                0.01000000               -0.00037419                0.00006641                0.03825464               -0.00041455               -0.00031372               -0.01935396
               6.99999330                6.99999315                1.00000099                0.01000001               -0.00029964               -0.00031177                0.04163455               -0.00158968               -0.00594979               -0.01901814
               7.99999132                6.99998190                0.99999977                0.01000000                0.00050385               -0.00153438                0.04666920               -0.00259862               -0.01419181               -0.01716471
               9.00000338                6.99997756                1.00000325                0.01000001                0.00099261               -0.00363970                0.05239292               -0.00216924               -0.02715308               -0.01568937
              10.00001118                6.99999479                1.00000340                0.01000001                0.00077989                0.00064298                0.06991761               -0.00034538               -0.05173921               -0.01166838
               0.00057492                7.99998629                1.00098479                1.00000000               -0.03471508               -0.01757774                0.10016066                0.00167528                0.01999849                0.00349185
               1.00022777                7.99993302                1.00074842                1.00000000               -0.02842352               -0.01620556                0.08301925                0.00356384               -0.00125320                0.00150021
               2.00000645                7.99992582                1.00039620                0.01234352               -0.01078084               -0.01264869                0.06589793                0.00599466               -0.02766845               -0.00004378
               3.00001215                7.99996952                0.99995446                0.01000000                0.00013102               -0.00328727                0.08125468                0.00382760               -0.01341716               -0.02390292
               4.00000907                7.99999018                1.00000737                0.01000000               -0.00045530               -0.00056418                0.03185167                0.00203449                0.00990498               -0.02331802
               5.00000304                7.99999873                0.99999945                0.01000001               -0.00068456                0.00033544                0.03861071                0.00046159                0.00413667               -0.02472152
               5.99999538                8.00000014                1.00000069                0.01000000               -0.00104038                0.00026539                0.03989827               -0.00051204                0.00069133               -0.02531261
               6.99998224                7.99999111                0.99999980                0.01000000               -0.00154969                0.00050322                0.04503885               -0.00254198               -0.00542881               -0.02560453
               7.99996438                7.99996436                1.00001037                0.01000000               -0.00171543               -0.00167080                0.05399966               -0.00707944               -0.01709316               -0.02656352
               8.99994793                7.99992025                0.99998331                0.01000003               -0.00002523               -0.00751632                0.06535377               -0.00691933               -0.03569858               -0.00904138
               9.99996388                8.00000400                0.99995717                0.01000002                0.00159503               -0.00553499                0.08812745               -0.01856242               -0.06439659                0.02621752
               0.00064144                8.99977767                1.00108531                1.00000000               -0.03504424               -0.02848385                0.11010394                0.00174217                0.02242505               -0.00469496
               1.00029099                8.99974307                1.00081784                1.00000000               -0.02822057               -0.02515870                0.09161973                0.00469251                0.00545562               -0.01085170
               2.00007702                8.99978086                1.00051665                0.77237001               -0.01410670               -0.02275511                0.07777008                0.01232952               -0.01703866               -0.00680133
               3.00000886                8.99992001                1.00009068                0.01000001               -0.00311575               -0.01374052                0.06908793                0.00410301               -0.01822324               -0.00676608
               4.00001471                8.99998400                0.99999473                0.01000000               -0.00044027               -0.00039878                0.04109775                0.00137758                0.00172936               -0.03463565
               5.00000005                9.00000479                1.00000077                0.01000001               -0.00100098                0.00030384                0.04030909                0.00018034                0.00616896               -0.03366304
               5.99999469                9.00000320                1.00000029                0.01000001               -0.00109102                0.00025250                0.04342223               -0.00014735                0.00213503               -0.03473804
               6.99997823                9.00000321                1.00000327                0.01000001               -0.00370471                0.00100564                0.04976686               -0.00207400               -0.00620694               -0.03588145
               7.99992060                8.99994849                0.99998334                0.01000001               -0.00764420                0.00001532                0.06368990               -0.00679943               -0.00352550               -0.04188796
               8.99982535                8.99982724                1.00031024                0.99385977               -0.02240871               -0.02220900                0.10210149               -0.00623081                0.00489595                0.00631324
               9.99947242                8.99988409                1.00093278                0.99999999               -0.03529280               -0.03421789                0.13869551               -0.02622089               -0.00939134                0.05337569
               0.00067897                9.99941662                1.00128920                0.99999999               -0.03605296               -0.03610577                0.11970574                0.00507594                0.02578216               -0.01525132
               1.00031844                9.99942985                1.00101819                0.99999999               -0.03014348               -0.03132256                0.10157771                0.00544910                0.01505398               -0.01933356
               2.00007610                9.99947071                1.00083255                1.00000000               -0.02136832               -0.03101414                0.09387310                0.01315027               -0.00754644               -0.01103768
               2.99989107                9.99969471                1.00039386                0.01000001               -0.00621257               -0.02253043                0.08666796                0.01379531               -0.03271662               -0.01416292
               3.99995184                9.99998220                0.99998360                0.01000001                0.00481891               -0.00017960                0.05834980                0.00921817               -0.01005274               -0.05460207
               4.99998745               10.00000480                1.00000044                0.01000000                0.00210811                0.00000149                0.05821926               -0.00011132                0.00770874               -0.05302737
               5.99999401               10.00000519                0.99999687                0.01000000                0.00040096                0.00019875                0.06235513                0.00025273                0.00415339               -0.05470763
               6.99999547               10.00001122                1.00000338                0.01000000                0.00051815                0.00080135                0.06977684               -0.00030257               -0.00433734               -0.05767780
               8.00000437                9.99996467                0.99995686                0.01000000               -0.00538799                0.00161805                0.08776916               -0.01838035                0.02825797               -0.06678484
               8.99988771                9.99947607                1.00093038                0.99999999               -0.03393123               -0.03511653                0.13827481               -0.02601548                0.05447284               -0.00805800
               9.99932575                9.99931964                1.00191916                1.00000000               -0.05619620               -0.05644480                0.17324825               -0.03031017                0.03067334                0.02932094
               0.00060661                0.00069789                2.00182539                1.00000000               -0.02444819               -0.02428974                0.08264187                0.00165844               -0.00114516                0.00427299
               1.00036213                0.00065661                2.00165049                1.00000000               -0.02641573               -0.02448090                0.08347133                0.00160209                0.00050718               -0.00191561
               2.00007830                0.00060615                2.00147020                0.02529385               -0.01793229               -0.03221225                0.09181272               -0.00278800                0.01668640                0.00289813
               3.00000348                0.00044831                2.00165988                0.01000003                0.00584196               -0.00650926                0.07944706                0.01362198               -0.01184196               -0.00073326
               4.00019514                0.00079812                2.00096141                0.01000001                0.01608357               -0.05010681                0.09862330                0.01653969               -0.01127633                0.02876899
               5.00032515                0.00078980                2.00109310                0.01000001                0.02145332               -0.05253629                0.10896029               -0.01454462                0.05225837                0.01968668
               6.00062420                0.00048958                2.00172447                0.81704657               -0.00208329               -0.03096393                0.09892371               -0.01644523                0.04736036               -0.00321065
               7.00028349                0.00068984                2.00182083                0.99999999               -0.03413423               -0.03301991                0.10003295                0.00156154                0.01763767                0.02044429
               7.99994152                0.00079146                2.00202063                1.00000000               -0.03393765               -0.03144862                0.10557921               -0.00401432                0.01752959                0.00754128
               8.99960474                0.00086341                2.00224315                1.00000000               -0.03286546               -0.03274129                0.11232603               -0.00339950                0.00944901               -0.00319682
               9.99928421                0.00093794                2.00238486                1.00000000               -0.03205277               -0.03245364                0.10878208               -0.00322248                0.00675884                0.00630845
               0.00066448                1.00045499                2.00162105                1.00000000               -0.02404564               -0.02601260                0.08212234                0.00104397                0.00137923                0.00693004
               1.00042402                1.00041180                2.00141549                0.41345078               -0.02549554               -0.02579594                0.08867632               -0.00626751                0.00496449               -0.00180305
               2.00015457                1.00028403                2.00126912                0.01000000               -0.01901508               -0.02089230                0.09775547                0.01486036                0.01239581                0.03402294
               3.00004372                1.00038322                2.00133805                0.01000000                0.00176098               -0.01283648                0.07416040                0.01537418               -0.01167784               -0.02433332
               4.00018979                1.00029705                2.00079203                0.01000000                0.01451288               -0.03546616                0.09296513               -0.00444059               -0.00431427                0.01860161
               5.00033398                1.00026444                2.00090182                0.01000000                0.01599736               -0.03903924                0.10293104               -0.01116885                0.05904929                0.00864829
               6.00050973                1.00017994                2.00161061                0.01000000               -0.00929054               -0.02426633                0.11058785               -0.01877932                0.06417998               -0.03430791
               7.00014817                1.00035964                2.00199411                0.99999998               -0.03475721               -0.02989463                0.12575595               -0.00162986                0.01828823                0.04372605
               7.99981459                1.00047697                2.00200098                0.99999999               -0.03253334               -0.03601117                0.11535287               -0.00270351               -0.00780666                0.01001649
               8.99949750                1.00053600                2.00202220                0.99999999               -0.03185691               -0.03302549                0.11309203               -0.00422131               -0.00548389               -0.00359988
               9.99917745                1.00061341                2.00218835                0.99999999               -0.03200486               -0.03242690                0.11057692               -0.00217591                0.00109702                0.00987121
               0.00071388                2.00017764                2.00143007                0.08778291               -0.03061317               -0.01729229                0.08967244               -0.00825605                0.00584353                0.03144483
               1.00040774                2.00014069                2.00116277                0.01000000               -0.01548952               -0.01855237                0.09350741                0.01332215                0.04501301                0.01982653
               2.00040409                2.00018830                2.00170850                0.01000001               -0.00549004               -0.00522467                0.05662014                0.01441188               -0.00136045               -0.01418436
               3.00029794                2.00019158                2.00060438                0.01000000               -0.00894930               -0.01514159                0.09388192                0.00545734               -0.01881681               -0.01016982
               4.00022510                2.00008879                2.00084278                0.01000001               -0.00395295               -0.01534868                0.08450329               -0.00898568                0.03166779                0.00717170
               5.00021888                2.00000902                2.00090014                0.01000000               -0.00358412               -0.01747062                0.09213366               -0.01466077                0.01510821               -0.00166099
               6.00015342                2.00000425                2.00089529                0.01000001               -0.01325117               -0.01553963                0.11347747               -0.01970976                0.08560202               -0.03104167
               6.99995386                2.00009194                2.00259631                0.01000000               -0.02211641               -0.02529747                0.15296539               -0.01234320                0.04956745               -0.06067600
               7.99971109                2.00007123                2.00200503                0.02318006               -0.02849929               -0.03451269                0.13414835               -0.00927678               -0.05748481                0.00273191
               8.99938388                2.00020290                2.00176411                1.00000000               -0.03126095               -0.03346214                0.11296077                0.00512109               -0.02368513               -0.01157695
               9.99908587                2.00028940                2.00201875                1.00000000               -0.02980053               -0.03321491                0.10281360               -0.00076569                0.00010918                0.00831040
               0.00057325                3.00010915                2.00175800                0.01000000                0.01065458                0.00096726                0.07561909                0.00621965                0.01494360               -0.00219634
               1.00067980                3.00004075                2.00149441                0.01000000               -0.00906696                0.00122363                0.06201405                0.00593547               -0.01456458               -0.00867779
               2.00039191                3.00017953                2.00054782                0.01000000               -0.02137120               -0.00332074                0.09430615               -0.00393743               -0.00023943               -0.02878718
               3.00025237                3.00008038                2.00082388                0.01000001               -0.00996401               -0.00874740                0.07879813               -0.01453505                0.03255224                0.01265296
               4.00019263                2.99999008                2.00076275                0.01000001               -0.00635368               -0.00864438                0.08235328               -0.01279642                0.01417808               -0.00541798
               5.00012530                2.99991503                2.00080494                0.01000000               -0.00800110               -0.00796888                0.08623778               -0.01335216                0.01840657               -0.01228842
               6.00003261                2.99986915                2.00097824                0.01000001               -0.01454897               -0.00941364                0.09510415               -0.01170170               -0.00125048               -0.01308551
               6.99983432                2.99985369                2.00080698                0.01000000               -0.02572563               -0.01362430                0.11301433               -0.00895255                0.02704946               -0.08829856
               7.99951810                2.99978672                2.00187245                0.01000000               -0.02262851               -0.01168362                0.09598392               -0.00013529                0.00432712               -0.05304980
               8.99938175                2.99986675                2.00148353                0.01000000               -0.02644860               -0.01837867                0.12190395                0.00843358               -0.04404822               -0.03465027
               9.99898913                2.99994911                2.00186077                0.24631434               -0.03926245               -0.02056829                0.11088892               -0.00034916               -0.00511966               -0.01480615
               0.00097506                4.00019698                2.00101995                0.01000001               -0.05189909                0.00735371                0.10565985                0.01456125                0.03498635               -0.00937904
               1.00045607                4.00016516                2.00074437                0.01000000               -0.03446772                0.01066810                0.09504324               -0.01600970                0.03278270               -0.01360488
               2.00028570                4.00012189                2.00083397                0.01000000               -0.01296837               -0.00490611                0.08174372               -0.01713250                0.02755466                0.02154313
               3.00019670                4.00001663                2.00074374                0.01000001               -0.00755879               -0.00725226                0.08059383               -0.01608427                0.01467816               -0.00381538
               4.00013453                3.99991591                2.00074978                0.01000000               -0.00619662               -0.00732379                0.07883849               -0.01330723                0.01328748               -0.00952094
               5.00007277                3.99984964                2.00076889                0.01000002               -0.00769029               -0.00644289                0.08096475               -0.00893626                0.00724625               -0.01622335
               5.99998072                3.99981598                2.00079070                0.01000002               -0.01077632               -0.00510654                0.08573014               -0.00452267                0.00217984               -0.02466059
               6.99985724                3.99981946                2.00089323                0.01000001               -0.01427017               -0.00384487                0.08969607                0.00256697               -0.01513347               -0.01273414
               7.99969532                3.99983756                2.00079998                0.01000001               -0.02335418                0.00088645                0.10192574                0.01021222               -0.02256084               -0.05498501
               8.99939016                3.99983533                2.00102947                0.01000002               -0.03905703               -0.00169033                0.10957771                0.00623426               -0.01976022               -0.03330741
               9.99891418                3.99987804                2.00133269                0.01000000               -0.04759793               -0.00632193                0.12287202                0.00550454               -0.03507533               -0.03114000
               0.00092812                5.00025622                2.00126132                0.01000002               -0.04934201                0.01192271                0.11537397               -0.01520917                0.02503218                0.04538014
               1.00043470                5.00025411                2.00095945                0.01000000               -0.03651629                0.00796367                0.10097011               -0.01652163                0.01553018                0.04916264
               2.00019779                5.00008141                2.00084223                0.01000000               -0.01490144               -0.00727397                0.08872453               -0.02103298                0.01284139                0.00583165
               3.00013667                4.99993534                2.00076391                0.01000000               -0.00521571               -0.00863989                0.08079780               -0.01713802                0.01027270               -0.00509774
               4.00009348                4.99984360                2.00073568                0.01000002               -0.00450851               -0.00864818                0.07755951               -0.00988309                0.00876830               -0.01668654
               5.00004650                4.99978617                2.00073501                0.01000000               -0.00605699               -0.00687792                0.07805550               -0.00514938                0.00553522               -0.02171474
               5.99997234                4.99976702                2.00076317                0.01000000               -0.00912101               -0.00576298                0.08103439               -0.00058430               -0.00082411               -0.02270252
               6.99986408                4.99977679                2.00079327                0.01000000               -0.01329317               -0.00529653                0.08645406                0.00274882               -0.00869400               -0.02359528
               7.99970648                4.99980445                2.00087349                0.01000001               -0.01990599               -0.00451624                0.09207369                0.00422145               -0.02134550               -0.01293978
               8.99946596                4.99983295                2.00091836                0.01000000               -0.03463417               -0.00209114                0.10168783                0.00574095               -0.02827305               -0.01626226
               9.99901379                4.99982267                2.00122522                0.01000001               -0.04521678               -0.00220550                0.11316080                0.00482490               -0.03427804               -0.01364420
               0.00067509                6.00043544                2.00174667                0.99871024               -0.03746438               -0.00581965                0.10500711               -0.01945582               -0.00297870                0.03756486
               1.00030045                6.00032444                2.00149497                0.01000002               -0.02456351               -0.01119074                0.11413519               -0.02165839               -0.01790394                0.03514030
               2.00018382                5.99997641                2.00091931                0.01000001               -0.01043471               -0.00450492                0.09770970               -0.02678260               -0.01348944                0.00994432
               3.00009175                5.99984383                2.00081133                0.01000001               -0.00488912               -0.01578042                0.08195236               -0.01166958                0.00503374               -0.02090232
               4.00008604                5.99974294                2.00072618                0.01000001               -0.00226947               -0.01002422                0.07789908               -0.00575844                0.00626930               -0.02314748
               5.00004636                5.99971208                2.00072674                0.01000000               -0.00538106               -0.00827306                0.07714550               -0.00114441                0.00613620               -0.02811700
               5.99997841                5.99970072                2.00075005                0.01000001               -0.00857862               -0.00772773                0.08060861                0.00110682                0.00091390               -0.02826692
               6.99987479                5.99971353                2.00080046                0.01000001               -0.01274111               -0.00784160                0.08646137                0.00319354               -0.00733377               -0.02524775
               7.99972359                5.99974724                2.00086404                0.01000001               -0.01940171               -0.00786622                0.09441828                0.00437059               -0.01924042               -0.02128844
               8.99948675                5.99979350                2.00094849                0.01000001               -0.03461805               -0.00649646                0.10468574                0.00370205               -0.02461518               -0.01374942
               9.99903123                5.99983393                2.00126540                0.01000005               -0.04555231               -0.00084492                0.11723139                0.00159804               -0.03282343               -0.00811038
               0.00076101                7.00013983                2.00183308                0.99999999               -0.03004462               -0.02692291                0.09658307               -0.00107196               -0.00474091                0.01316278
               1.00046056                7.00003030                2.00152800                1.00000000               -0.03091314               -0.02683474                0.09773515                0.00572829               -0.00515809                0.00174332
               2.00014274                6.99999131                2.00118526                0.01000000               -0.01619076               -0.01468083                0.09679328               -0.01769005               -0.02085017                0.00469248
               3.00013674                6.99961973                2.00069285                0.01000000               -0.00163405               -0.02138593                0.09305434               -0.01597318               -0.00371748                0.00815071
               4.00011006                6.99964311                2.00076266                0.01000002               -0.00354559               -0.01013988                0.07657700                0.00340259                0.01500907               -0.03905549
               5.00006583                6.99962071                2.00072315                0.01000000               -0.00585161               -0.01034924                0.07854566                0.00061975                0.00729712               -0.03443179
               5.99999303                6.99961246                2.00076509                0.01000001               -0.00921988               -0.01035315                0.08264898                0.00171566                0.00406624               -0.03519738
               6.99988144                6.99961996                2.00083269                0.01000000               -0.01395585               -0.01139472                0.09097374                0.00208110               -0.00439176               -0.03216101
               7.99971391                6.99964712                2.00093338                0.01000002               -0.02140624               -0.01310347                0.10226011                0.00170457               -0.01699607               -0.02419922
               8.99945331                6.99970302                2.00104786                0.01000000               -0.03745051               -0.01406604                0.11661111                0.00055609               -0.02459129               -0.01290023
               9.99896490                6.99980577                2.00139835                0.01000003               -0.04884077               -0.01194769                0.13187631               -0.00306820               -0.03426000                0.00010650
               0.00087271                7.99989698                2.00200321                1.00000000               -0.03091803               -0.02690707                0.10303868                0.00019785               -0.00262356                0.01035696
               1.00056353                7.99978774                2.00166039                0.99999999               -0.03160606               -0.02585542                0.09596412                0.00015103               -0.00108763                0.00029366
               2.00024059                7.99968279                2.00131796                0.35699637               -0.02215210               -0.02818461                0.09444295               -0.00639892                0.02784180               -0.00553178
               3.00012048                7.99941612                2.00162509                0.01000000               -0.00437373               -0.00972234                0.05455135               -0.00609677               -0.00816580               -0.01058400
               4.00015311                7.99954014                2.00063703                0.01000001               -0.00155382               -0.01560298                0.08631778                0.00517062               -0.02258790               -0.04162931
               5.00008941                7.99950510                2.00077221                0.01000001               -0.00698165               -0.01474777                0.08047439                0.00027495                0.01783023               -0.04343337
               6.00001348                7.99949366                2.00079797                0.01000001               -0.01038279               -0.01516977                0.08742353                0.00138537                0.00668590               -0.04374786
               6.99988175                7.99948563                2.00090078                0.01000002               -0.01694255               -0.01705823                0.09890980                0.00014466                0.00084337               -0.04140961
               7.99967463                7.99948517                2.00107999                0.01000000               -0.02712616               -0.02156883                0.11756315               -0.00324201               -0.01148051               -0.03243430
               8.99933923                7.99951218                2.00130708                0.01000007               -0.04551324               -0.02619113                0.14266807               -0.00975138               -0.02079852                0.00394545
               9.99876436                7.99959497                2.00176255                0.01000002               -0.05748672               -0.03501239                0.16743253               -0.01161148               -0.03341674                0.02738061
               0.00098344                8.99960169                2.00220208                1.00000000               -0.03056720               -0.03048963                0.10984929                0.00039807                0.00009400                0.00603749
               1.00067777                8.99951319                2.00183239                0.99999999               -0.02985245               -0.02875609                0.10216665                0.00100693                0.00597309               -0.00187356
               2.00038639                8.99942762                2.00155540                1.00000000               -0.02601555               -0.02676694                0.09725840                0.00724577                0.01158955               -0.00316782
               3.00015746                8.99942528                2.00138176                0.01000000               -0.01309489               -0.01528692                0.09749499               -0.00112160               -0.01157233               -0.04218321
               4.00012449                8.99933106                2.00082195                0.01000002               -0.00198190               -0.03049611                0.08940714               -0.00301388               -0.00726872               -0.03126477
               5.00011782                8.99932575                2.00080618                0.01000000               -0.00421455               -0.02824907                0.08887551                0.00147572                0.01594596               -0.04234848
               6.00004020                8.99930907                2.00086844                0.01000001               -0.01124993               -0.02904774                0.09652607                0.00098462                0.01189859               -0.04113916
               6.99989282                8.99927879                2.00099534                0.01000003               -0.02088384               -0.03197029                0.11162789               -0.00109085                0.00695776               -0.04105033
               7.99962252                8.99921575                2.00127380                0.01000001               -0.03721714               -0.03839576                0.14003488               -0.00680357                0.01657650               -0.03330966
               8.99914848                8.99917919                2.00204203                1.00000000               -0.05277178               -0.04568173                0.18019842               -0.01611457                0.00665530                0.00767971
               9.99856709                8.99910552                2.00277391                1.00000000               -0.05813878               -0.04906562                0.17879598               -0.01378942               -0.00414059                0.01397795
               0.00105766                9.99928719                2.00239411                1.00000000               -0.02999276               -0.03145000                0.10884012               -0.00003475                0.00656437                0.00749842
               1.00075773                9.99921262                2.00203155                0.99999999               -0.02921258               -0.03005719                0.10135801                0.00100977                0.01859718                0.00023850
               2.00047341                9.99914745                2.00187746                1.00000000               -0.02815570               -0.02801669                0.09536946                0.00358961                0.02623339                0.00372773
               3.00019462                9.99911038                2.00173336                0.01000000               -0.01405214               -0.03149076                0.09962188               -0.00714540                0.00316380               -0.00997149
               4.00019236                9.99893022                2.00116700                0.01000000               -0.00268536               -0.04008326                0.10594868               -0.00172584                0.00145502               -0.03800284
               5.00014091                9.99894012                2.00116439                0.01000000               -0.00561179               -0.03856373                0.10427629                0.00143324                0.02144645               -0.04087619
               6.00008013                9.99891270                2.00124710                0.01000005               -0.00938261               -0.03963640                0.11329008               -0.00070167                0.01679103               -0.04116003
               6.99995326                9.99884623                2.00139554                0.01000002               -0.02209866               -0.04325669                0.13007558               -0.00372876                0.01391813               -0.04272651
               7.99963816                9.99871725                2.00175538                0.01000000               -0.04130483               -0.04984932                0.16621333               -0.01082091                0.03060206               -0.03643691
               8.99912716                9.99859855                2.00276550                1.00000000               -0.05011188               -0.05806472                0.17824821               -0.00731110                0.01579219               -0.00192066
               9.99863592                9.99861366                2.00346497                0.99999999               -0.04912432               -0.04918606                0.15850240                0.00839435                0.00319362                0.00097906
               0.00075162                0.00094284                3.00262993                1.00000000               -0.02483022               -0.02505200                0.08038650                0.00066159               -0.00269648                0.00455841
               1.00050332                0.00084517                3.00246580                0.99999999               -0.02459419               -0.02470477                0.08128267                0.00010795               -0.00251252               -0.00233773
               2.00025974                0.00074237                3.00230146                0.01000000               -0.01309055               -0.02390262                0.08215815               -0.00029876               -0.02914284               -0.00515865
               3.00024151                0.00064740                3.00156575                0.01000000                0.00465133               -0.00625097                0.05292389                0.01078507                0.00327447                0.02045043
               4.00035276                0.00090821                3.00197398                0.01000001                0.00563110               -0.04268486                0.09352911                0.00802963                0.03620169               -0.00709601
               5.00035413                0.00079220                3.00216571                0.01000001                0.00397619               -0.04238192                0.10086220               -0.02274441                0.01702824               -0.01301245
               6.00043229                0.00041283                3.00227596                0.55132273               -0.00602908               -0.02282028                0.10563787               -0.02799053                0.03236934               -0.00345607
               7.00023355                0.00060058                3.00285086                1.00000000               -0.02559845               -0.03474236                0.11426394                0.00188230                0.04135061                0.00851721
               7.99992032                0.00081699                3.00316134                1.00000000               -0.03270159               -0.03455244                0.11367035                0.00420871                0.02160454                0.00037631
               8.99957952                0.00102149                3.00334437                1.00000000               -0.03409363               -0.03376371                0.11234678                0.00192110                0.01289406               -0.00128567
               9.99923845                0.00119519                3.00348010                1.00000000               -0.03410706               -0.03333802                0.11167236               -0.00027823                0.00920712                0.00508733
               0.00085591                1.00069232                3.00244871                1.00000000               -0.02512755               -0.02510564                0.08272286                0.00061281                0.00009414                0.00522583
               1.00060464                1.00059812                3.00226529                0.01000000               -0.02501397               -0.02489578                0.08499901                0.00034984                0.00098782               -0.00440983
               2.00035563                1.00050334                3.00211068                0.01000000               -0.01691008               -0.01364079                0.08606843                0.01466226               -0.02138073               -0.04276485
               3.00026644                1.00058489                3.00147231                0.01000000                0.00025120               -0.01643143                0.06453194                0.01205558                0.00759834                0.02466712
               4.00036066                1.00048136                3.00186087                0.01000000                0.00539704               -0.03676077                0.09983837               -0.01125375                0.03844729               -0.00352933
               5.00037438                1.00036838                3.00205107                0.01000000               -0.00562320               -0.03652481                0.10640314               -0.01997758                0.02438794               -0.01285663
               6.00024819                1.00018462                3.00229590                0.01000001               -0.01620442               -0.01955030                0.11061083               -0.02677494                0.03494462               -0.00873096
               7.00005029                1.00025316                3.00296102                0.99999999               -0.02481208               -0.03060780                0.10209073               -0.00269746                0.03084657                0.00995020
               7.99975195                1.00047147                3.00310542                0.99999999               -0.03203315               -0.03214782                0.10868049                0.00636284                0.00112769               -0.00053008
               8.99940963                1.00068385                3.00316876                0.99999998               -0.03449989               -0.03380657                0.11382114                0.00240309               -0.00126435               -0.00396985
               9.99906195                1.00086181                3.00327847                0.99999997               -0.03476712               -0.03335338                0.11107203               -0.00021363               -0.00003908                0.00527258
               0.00095229                2.00044073                3.00228110                0.01000001               -0.02529846               -0.01775049                0.08476985               -0.00971214               -0.00131010               -0.02403656
               1.00069930                2.00034725                3.00202789                0.01000000               -0.01930362               -0.01636735                0.08804023                0.01805873               -0.03273855               -0.03394384
               2.00056621                2.00046955                3.00110371                0.01000001               -0.00973518               -0.00942922                0.04136019                0.01454837                0.00836048                0.00028611
               3.00050460                2.00031877                3.00188517                0.01000000               -0.01110096               -0.02321821                0.10007275               -0.00599404                0.03819678                0.00941407
               4.00034419                2.00017299                3.00168881                0.01000000               -0.01266412               -0.02476774                0.09223498               -0.01562389                0.00703669               -0.00603614
               5.00025131                2.00006171                3.00184584                0.01000000               -0.01660887               -0.02409105                0.09985081               -0.01868760                0.02913950               -0.01490574
               6.00001202                2.00002182                3.00225798                0.01000000               -0.01792797               -0.01696226                0.11562608               -0.01754570                0.05376582               -0.02104055
               6.99989276                1.99998842                3.00311065                0.01000000               -0.01975671               -0.01561975                0.06848614               -0.01323888                0.02637012               -0.03960149
               7.99961688                2.00017403                3.00305226                0.01000001               -0.03277624               -0.01566237                0.10311408               -0.00112020               -0.02420221               -0.05283446
               8.99923723                2.00034535                3.00295273                0.99999999               -0.03693205               -0.03424215                0.11554819               -0.00215552               -0.01426556               -0.00942276
               9.99887824                2.00052813                3.00309712                0.99999997               -0.03589893               -0.03278919                0.10973314               -0.00009038               -0.00404763                0.00662362
               0.00084863                3.00033731                3.00148908                0.01000001                0.00883654               -0.00559632                0.05685972                0.00796607                0.01848008                0.00901503
               1.00093699                3.00027077                3.00122929                0.01000000               -0.00867730               -0.00357708                0.05738823                0.00549490                0.03704280                0.00871296
               2.00067508                3.00031475                3.00189382                0.01000000               -0.02469421               -0.01626903                0.10044840               -0.00819353                0.03403439                0.02734121
               3.00044311                3.00012052                3.00157464                0.01000000               -0.01849197               -0.01658288                0.08641889               -0.02272141                0.00318417               -0.01247723
               4.00030524                2.99998601                3.00164788                0.01000000               -0.01456560               -0.01675502                0.09007054               -0.01683264                0.01574124               -0.00801671
               5.00015180                2.99988656                3.00172427                0.01000001               -0.01673403               -0.01577747                0.09401156               -0.01441686                0.01404183               -0.01474014
               5.99997056                2.99984538                3.00190390                0.01000003               -0.02592509               -0.01492687                0.09927372               -0.00205598                0.01989151               -0.02924988
               6.99963330                2.99994076                3.00226535                0.01000000               -0.02989729               -0.01121334                0.11974853                0.00512545               -0.01290193               -0.06354654
               7.99937262                3.00015822                3.00186005                0.01000001               -0.03104367               -0.01329675                0.07353715               -0.00775086                0.00489514               -0.03704885
               8.99901242                2.99999901                3.00266487                0.01000001               -0.03390080               -0.02211921                0.11477677               -0.00705929                0.02352371               -0.02285189
               9.99869460                3.00020603                3.00292881                0.13387269               -0.03178219               -0.03028196                0.10701664                0.00908707               -0.00014382               -0.00858182
               0.00124469                4.00032881                3.00211754                0.01000000               -0.04129310               -0.00279962                0.09449107                0.00950842               -0.00098971                0.04446552
               1.00083176                4.00027571                3.00190338                0.01000000               -0.03460496               -0.00090442                0.10009343               -0.01897785                0.00530726                0.04195788
               2.00055259                4.00014417                3.00163260                0.01000000               -0.02264207               -0.01391517                0.08938243               -0.02569522                0.00824715               -0.00616897
               3.00037892                3.99998711                3.00161304                0.01000000               -0.01555436               -0.01448507                0.08799982               -0.02183076                0.01299909               -0.00371364
               4.00024150                3.99983789                3.00157664                0.01000098               -0.01376561               -0.01478580                0.08646419               -0.01709872                0.01003136               -0.01315450
               5.00010361                3.99974616                3.00161958                0.01000000               -0.01624023               -0.01393866                0.08888397               -0.00918148                0.00928827               -0.01784174
               5.99991670                3.99972328                3.00171498                0.01000000               -0.02105910               -0.01291826                0.09465283               -0.00142870                0.00324788               -0.02269939
               6.99968242                3.99976416                3.00179222                0.01000001               -0.02565395               -0.01593259                0.09877814                0.01328673                0.00231601               -0.03125277
               7.99940362                3.99990810                3.00205054                0.01000001               -0.03170948               -0.02391087                0.11369261                0.01067111               -0.00460998               -0.00218568
               8.99904823                3.99990297                3.00217350                0.01000001               -0.03788436               -0.01229396                0.11293479                0.00457272               -0.00865476               -0.02490525
               9.99864593                3.99992249                3.00242689                0.01000000               -0.04023010               -0.02179571                0.10746477                0.00253057                0.00426150               -0.02612763
               0.00114499                5.00028132                3.00227667                0.01000000               -0.04029127                0.00521083                0.10267035               -0.02473148               -0.00779428                0.03015601
               1.00074207                5.00025268                3.00199938                0.01000000               -0.03476050               -0.00233217                0.10412863               -0.02759442               -0.00094811                0.02739640
               2.00044978                5.00003645                3.00178397                0.01000000               -0.02146519               -0.01425693                0.09427026               -0.02745795                0.00334697                0.00667492
               3.00031277                4.99983082                3.00161351                0.01000001               -0.01227760               -0.01662081                0.08754572               -0.02160145                0.00603869               -0.00998672
               4.00020422                4.99969029                3.00155186                0.01000000               -0.01149955               -0.01649782                0.08524254               -0.01271867                0.00869583               -0.01631724
               5.00008278                4.99960779                3.00156115                0.01000000               -0.01401173               -0.01488241                0.08653713               -0.00540657                0.00754240               -0.02061845
               5.99992399                4.99958701                3.00162079                0.01000001               -0.01842823               -0.01458674                0.09060118                0.00204584                0.00447746               -0.02147290
               6.99971421                4.99962211                3.00172991                0.01000000               -0.02383821               -0.01555949                0.09741776                0.00739710               -0.00158739               -0.01727023
               7.99944723                4.99968000                3.00184008                0.01000001               -0.03123625               -0.01993577                0.10403242                0.00976628               -0.00580858               -0.01809047
               8.99908949                4.99975313                3.00203542                0.01000001               -0.03705242               -0.01572057                0.11195263                0.00762076               -0.00556959               -0.01033579
               9.99870618                4.99977012                3.00226568                0.01000000               -0.03833123               -0.01333402                0.10389850                0.00515022                0.00091630               -0.00868890
               0.00080734                6.00043302                3.00272246                0.99004171               -0.02825937               -0.00726908                0.09959628               -0.02680916               -0.00559718                0.02671962
               1.00052474                6.00022907                3.00250372                0.01000000               -0.01910212               -0.01580228                0.09924623               -0.03060853               -0.02068762                0.01453824
               2.00042529                5.99985903                3.00190942                0.01000000               -0.01158462               -0.01537122                0.09762258               -0.03061848               -0.01939957                0.00370397
               3.00029305                5.99965470                3.00164804                0.01000003               -0.01075643               -0.02479046                0.08880467               -0.01594748                0.00316511               -0.00761550
               4.00021016                5.99950794                3.00155688                0.01000000               -0.00971494               -0.01934884                0.08570318               -0.00686529                0.00831899               -0.02311472
               5.00009875                5.99944851                3.00154322                0.01000001               -0.01334341               -0.01719082                0.08619966               -0.00074366                0.00908767               -0.02427910
               5.99994330                5.99943155                3.00161241                0.01000000               -0.01806870               -0.01704923                0.09103915                0.00247855                0.00709647               -0.02338689
               6.99973738                5.99945297                3.00172935                0.01000001               -0.02376841               -0.01862499                0.09839383                0.00503973                0.00242505               -0.01943069
               7.99946793                5.99950938                3.00188915                0.01000001               -0.03134209               -0.01990168                0.10739182                0.00623006               -0.00211793               -0.01160534
               8.99911053                5.99958856                3.00209383                0.01000000               -0.03764854               -0.01960757                0.11580993                0.00517580               -0.00377901               -0.00374770
               9.99871496                5.99965581                3.00234093                0.01000000               -0.03955776               -0.01351694                0.10822594                0.00266540                0.00229310                0.00248218
               0.00101671                7.00013594                3.00284411                1.00000000               -0.03128173               -0.03042958                0.10321852                0.00010822               -0.00399474                0.01357382
               1.00070389                6.99993664                3.00253028                1.00000000               -0.03024673               -0.02972828                0.09994208               -0.00201935               -0.00833004               -0.00405105
               2.00041178                6.99972903                3.00213619                0.01000001               -0.01794908               -0.02069965                0.09396242               -0.02141715               -0.00570862               -0.00689462
               3.00034491                6.99933501                3.00184594                0.01000004               -0.00693356               -0.02928817                0.09622797               -0.00945016               -0.00652486               -0.04906500
               4.00027311                6.99930331                3.00153278                0.01000001               -0.01003094               -0.02048204                0.08495136                0.00644917                0.00365930               -0.02196828
               5.00014429                6.99926397                3.00157121                0.01000004               -0.01520014               -0.02007391                0.08832332                0.00213407                0.01491699               -0.02966697
               5.99996910                6.99924603                3.00165318                0.01000001               -0.02035607               -0.02048605                0.09418506                0.00214358                0.01156211               -0.02704886
               6.99973717                6.99924961                3.00182047                0.01000000               -0.02664345               -0.02263467                0.10430918                0.00078197                0.00744336               -0.02185179
               7.99943623                6.99928197                3.00204498                0.01000001               -0.03452952               -0.02670611                0.11680960               -0.00140439                0.00291230               -0.01055795
               8.99904658                6.99936097                3.00233547                0.01000001               -0.04056234               -0.02917857                0.12942011               -0.00216620                0.00022621                0.00501573
               9.99862499                6.99949978                3.00264093                0.01000003               -0.04215948               -0.02398754                0.12376007               -0.00263778                0.00545169                0.02064194
               0.00120810                7.99982443                3.00304556                1.00000000               -0.03168341               -0.03142089                0.10594388               -0.00069424               -0.00158155                0.01541673
               1.00089127                7.99963450                3.00266770                1.00000000               -0.03047641               -0.03011035                0.10066798               -0.00130779               -0.00187416                0.00123992
               2.00059857                7.99944504                3.00228506                0.01000001               -0.01807546               -0.02855153                0.09560621               -0.01089471               -0.04313905               -0.00798727
               3.00052976                7.99906893                3.00104549                0.01000001               -0.00941927               -0.01834651                0.04708622               -0.00903971                0.00575601               -0.01547666
               4.00041019                7.99909830                3.00173372                0.01000001               -0.01655215               -0.02372876                0.09344252                0.00749517                0.04740990               -0.02725352
               5.00019872                7.99904703                3.00160894                0.01000001               -0.02048288               -0.02491626                0.09127716                0.00258603                0.01385378               -0.03066329
               6.00000053                7.99902183                3.00174917                0.01000001               -0.02408202               -0.02573751                0.09987242                0.00138227                0.01855656               -0.02807828
               6.99971708                7.99900027                3.00197800                0.01000001               -0.03360286               -0.02810821                0.11352408               -0.00358513                0.01597514               -0.02262470
               7.99932847                7.99897526                3.00236163                0.01000001               -0.04338373               -0.03375317                0.13319236               -0.01130434                0.01263470               -0.00942127
               8.99884940                7.99900499                3.00283667                0.01000000               -0.04719391               -0.04192832                0.15148600               -0.01937222                0.00793925                0.03217564
               9.99838460                7.99917606                3.00330582                0.01000001               -0.04648054               -0.05192710                0.15095089               -0.01784997                0.01422131                0.05559774
               0.00138268                8.99950752                3.00328229                1.00000000               -0.03255520               -0.03209584                0.10888486               -0.00094550                0.00176271                0.01288566
               1.00105713                8.99933443                3.00286117                0.99999997               -0.03116163               -0.02991020                0.10198516               -0.00168814                0.00223711                0.00214064
               2.00075945                8.99915800                3.00246182                1.00000000               -0.02731364               -0.02719444                0.09034897               -0.00329818                0.00221791               -0.00290892
               3.00051086                8.99896808                3.00204058                0.01000005               -0.01572699               -0.01384273                0.07014138               -0.00971028                0.00766895                0.02765885
               4.00044491                8.99882874                3.00178288                0.01000001               -0.01191879               -0.02831174                0.09244081               -0.00313533                0.01870294               -0.02486516
               5.00027248                8.99876565                3.00177828                0.01000001               -0.02007027               -0.02880791                0.09750530                0.00200471                0.02445353               -0.02192042
               6.00004351                8.99873128                3.00193082                0.01000000               -0.02802241               -0.02985788                0.10721216                0.00099708                0.02435045               -0.02097955
               6.99971204                8.99868744                3.00223583                0.01000001               -0.04190365               -0.03219889                0.12476182               -0.00379503                0.02604390               -0.01650418
               7.99920543                8.99860691                3.00278403                0.01000001               -0.06268459               -0.03512511                0.14968052               -0.01235294                0.04578526               -0.00489736
               8.99845834                8.99852241                3.00391420                0.99999999               -0.06397919               -0.05071317                0.18572385               -0.02505508                0.02445703                0.02473044
               9.99792585                8.99846124                3.00450870                1.00000000               -0.05324942               -0.06094704                0.17351129               -0.02581310               -0.00023716                0.03017322
               0.00153537                9.99918251                3.00346600                0.99999999               -0.03283416               -0.03250095                0.10842109                0.00064741                0.01018058                0.00950548
               1.00120703                9.99903630                3.00304535                1.00000000               -0.03182077               -0.02981346                0.10090822                0.00092176                0.01499121                0.00174186
               2.00089896                9.99890115                3.00273994                1.00000000               -0.02711104               -0.02568478                0.08663658                0.00173976                0.01816515                0.00268057
               3.00066481                9.99879208                3.00238630                0.01000001               -0.01745200               -0.01760057                0.06850624               -0.00305912                0.02073586               -0.00053436
               4.00054992                9.99853206                3.00210257                0.01000000               -0.01642708               -0.02966766                0.08775449               -0.00555960                0.02125852               -0.00265618
               5.00033627                9.99847087                3.00208597                0.01000000               -0.02256214               -0.02947752                0.09109849                0.00100906                0.02836066               -0.00804266
               6.00009868                9.99842467                3.00226267                0.01000000               -0.02853606               -0.03066086                0.10081422               -0.00021190                0.02851816               -0.00661942
               6.99976555                9.99835630                3.00260489                0.01000002               -0.04261122               -0.03311494                0.11967957               -0.00224416                0.03425462               -0.00309802
               7.99924645                9.99827276                3.00328113                0.01000002               -0.06357898               -0.03341450                0.14895476               -0.01417676                0.05881619                0.01084854
               8.99849397                9.99799072                3.00449535                1.00000000               -0.06278858               -0.05316847                0.17304547               -0.01221966                0.03229370                0.00199721
               9.99799068                9.99795712                3.00508921                1.00000000               -0.05032894               -0.05041196                0.16249084                0.00312224                0.00074538               -0.00147827
               0.00088094                0.00115150                4.00343312                1.00000000               -0.02405928               -0.02431602                0.07991245                0.00116101               -0.00358003                0.00349345
               1.00064035                0.00101087                4.00327614                0.99999999               -0.02427274               -0.02493590                0.08118191                0.00079704               -0.00350713               -0.00130579
               2.00039549                0.00088453                4.00311336                0.01000001               -0.01219491               -0.02580541                0.08215285                0.01411120               -0.01554242               -0.00118290
               3.00039645                0.00104420                4.00271836                0.01000000               -0.00381407               -0.04870628                0.10808769                0.00479929               -0.00288905                0.00636000
               4.00031921                0.00088242                4.00283200                0.01000003               -0.00163555               -0.03707971                0.09130002               -0.00819206                0.02107564               -0.00763171
               5.00036374                0.00075883                4.00311035                0.01000001                0.01336203               -0.04316538                0.10264515               -0.02279677                0.04876400               -0.01353685
               6.00058645                0.00038057                4.00383723                0.64267590               -0.00693091               -0.03572723                0.11848286               -0.03472592                0.04924150               -0.00348950
               7.00022512                0.00063985                4.00410611                1.00000000               -0.03531764               -0.03410051                0.11836039               -0.00044249                0.01867053                0.00015155
               7.99988009                0.00091081                4.00429404                0.99999999               -0.03406342               -0.03353705                0.11489124                0.00238328                0.01397652                0.00103255
               8.99954385                0.00118891                4.00449009                1.00000000               -0.03416015               -0.03406732                0.11495920                0.00213741                0.01088694               -0.00010637
               9.99919689                0.00144294                4.00461831                0.99999969               -0.03469629               -0.03411043                0.11533117                0.00143981                0.00713445                0.00506218
               0.00103319                1.00090834                4.00327551                1.00000000               -0.02513844               -0.02474829                0.08271863                0.00097328                0.00072670                0.00423295
               1.00078180                1.00076151                4.00311547                0.01000000               -0.02566277               -0.02565277                0.08504691                0.00040748                0.00243373               -0.00302365
               2.00051993                1.00062648                4.00299049                0.01000000               -0.01681526               -0.02368270                0.08759082                0.00570785               -0.00814133               -0.01856486
               3.00044550                1.00055714                4.00262869                0.01000000               -0.00699829               -0.03833356                0.11008084               -0.00172656                0.00433958               -0.00518880
               4.00037997                1.00051163                4.00278879                0.01000000               -0.00294001               -0.03506824                0.09552789               -0.00719975                0.02438996               -0.00827375
               5.00038670                1.00032718                4.00302988                0.01000000               -0.00406446               -0.03605612                0.10414243               -0.03097796                0.04939443               -0.01508021
               6.00029868                1.00002330                4.00382283                0.01000000               -0.02155610               -0.02025608                0.11371519               -0.03254276                0.04201090               -0.03571597
               6.99995558                1.00029885                4.00403592                1.00000000               -0.03346398               -0.03221319                0.10683270                0.00070006                0.00611154                0.00059856
               7.99962940                1.00057544                4.00417459                1.00000000               -0.03282073               -0.03254497                0.10844322                0.00271279                0.00033947                0.00181115
               8.99929916                1.00084823                4.00429862                0.99999996               -0.03360733               -0.03352834                0.11227546                0.00181281               -0.00049384               -0.00189597
               9.99895725                1.00110184                4.00440979                0.99999996               -0.03419098               -0.03357039                0.11341371                0.00132365               -0.00063982                0.00511199
               0.00119408                2.00065654                4.00312547                0.01283393               -0.02637164               -0.02276685                0.08519407                0.00558894                0.00191034                0.00054996
               1.00093036                2.00049781                4.00292357                0.01000000               -0.02400311               -0.02109883                0.08905517               -0.00057775               -0.00779535               -0.00954211
               2.00071402                2.00041088                4.00253571                0.01000001               -0.02267945               -0.02145065                0.12423726               -0.00064827               -0.00027626               -0.02133993
               3.00047677                2.00027753                4.00260584                0.01000000               -0.01544247               -0.02270793                0.08341310               -0.00566574                0.01405358               -0.00547601
               4.00040517                2.00018106                4.00268748                0.01000000               -0.01221321               -0.02848561                0.09832737               -0.01309735                0.01877874               -0.01286757
               5.00023251                2.00003771                4.00289715                0.01000000               -0.02206210               -0.02403448                0.10267353               -0.02210941                0.02387012               -0.01972767
               5.99996392                1.99997545                4.00320781                0.01000003               -0.02727641               -0.00980718                0.10234863               -0.02257209                0.04715184               -0.04477741
               6.99968698                1.99999559                4.00396604                0.01000042               -0.02894812               -0.01988269                0.09330241               -0.00254948                0.02291154               -0.03681450
               7.99938496                2.00025991                4.00406731                0.01000000               -0.03166342               -0.02639870                0.10225759                0.00549178               -0.01640619               -0.02965829
               8.99905371                2.00051834                4.00407507                0.99999999               -0.03344047               -0.03296420                0.11049251               -0.00020356               -0.01155597               -0.00662466
               9.99871615                2.00077154                4.00421341                0.99999999               -0.03375596               -0.03270715                0.11124743                0.00037494               -0.00354740                0.00504738
               0.00146242                3.00045300                4.00289520                0.01000001               -0.04465129               -0.01789157                0.10628176               -0.00187181                0.00713809                0.00132005
               1.00101591                3.00033953                4.00264217                0.01000000               -0.03675840               -0.01317907                0.11610107               -0.00693741               -0.00192430               -0.00041715
               2.00072725                3.00019747                4.00255679                0.01000000               -0.02269507               -0.01512582                0.08132137               -0.01047922                0.00745785                0.00079576
               3.00056200                3.00010298                4.00255225                0.01000000               -0.01847075               -0.01870181                0.09465153               -0.01098423                0.01059622               -0.00883162
               4.00035784                2.99994191                4.00256416                0.01000001               -0.02059426               -0.02161117                0.09369643               -0.01665181                0.01199846               -0.01525641
               5.00015012                2.99984649                4.00268517                0.01000000               -0.02342382               -0.01908925                0.09774318               -0.01135349                0.01942977               -0.02191296
               5.99988936                2.99982716                4.00296371                0.01000000               -0.02649979               -0.01651732                0.10222602               -0.00180905                0.01872378               -0.02809922
               6.99962012                2.99990119                4.00320196                0.01000003               -0.03364390               -0.01328742                0.09901824                0.00506668                0.01049401               -0.05572716
               7.99921648                3.00004747                4.00334319                0.01000000               -0.04183280               -0.02230435                0.13358599                0.00623159                0.01181895               -0.05023704
               8.99878347                3.00018895                4.00377907                0.01000000               -0.03790610               -0.02758344                0.10935461                0.00936129                0.00983024               -0.01864210
               9.99845836                3.00044770                4.00400110                0.15515722               -0.03251079               -0.03764599                0.10741013                0.01469829               -0.00096288               -0.01116365
               0.00138359                4.00029870                4.00290978                0.01000001               -0.03364387               -0.00992937                0.08857453               -0.01322881               -0.00172173                0.02200864
               1.00104715                4.00023423                4.00274624                0.01000000               -0.03213029               -0.00689168                0.09100230               -0.01489083                0.00309636                0.01969998
               2.00074098                4.00010836                4.00262162                0.01000000               -0.02672562               -0.01296887                0.09569805               -0.02036921                0.00463725                0.00328165
               3.00051264                3.99990349                4.00250373                0.01000001               -0.02061841               -0.02011879                0.09118177               -0.02159880                0.00629498               -0.01038850
               4.00032862                3.99974884                4.00247906                0.01000000               -0.01962210               -0.02024485                0.09211348               -0.01428188                0.01056478               -0.01559887
               5.00012020                3.99965593                4.00254657                0.01000000               -0.02277881               -0.01981681                0.09465191               -0.00627150                0.01237084               -0.01976782
               5.99987304                3.99964510                4.00268376                0.01000000               -0.02760981               -0.01935139                0.09907168                0.00388383                0.01228232               -0.02613540
               6.99956800                3.99972984                4.00286879                0.01000001               -0.03256021               -0.02034709                0.10681803                0.00808202                0.00976424               -0.02641048
               7.99922184                3.99981383                4.00307384                0.01000002               -0.03636462               -0.02217209                0.10634660                0.01525752                0.00557643               -0.02103569
               8.99884071                3.99996667                4.00328816                0.01000001               -0.03646056               -0.02415261                0.11128518                0.01751434                0.00375409               -0.02206587
               9.99849263                4.00001862                4.00348199                0.01000001               -0.03480839               -0.03564233                0.10575922                0.01085585                0.00770983               -0.02507113
               0.00132679                5.00025442                4.00331472                0.01000000               -0.04183631                0.00518395                0.10722931               -0.02442020               -0.01480512                0.04126034
               1.00090843                5.00020170                4.00304202                0.01000000               -0.03380947               -0.00749611                0.10282331               -0.03318728               -0.01232945                0.03140649
               2.00065061                4.99993809                4.00272763                0.01000000               -0.02094378               -0.02050454                0.09403269               -0.02952875               -0.00598808                0.00137398
               3.00048956                4.99970060                4.00251483                0.01000000               -0.01654213               -0.02221954                0.09175115               -0.02030585                0.00314717               -0.00964246
               4.00031976                4.99953702                4.00244053                0.01000000               -0.01805674               -0.02245533                0.09098420               -0.01109142                0.00977422               -0.01713505
               5.00012842                4.99945015                4.00246575                0.01000000               -0.02133199               -0.02197464                0.09321705               -0.00222516                0.01243238               -0.01974798
               5.99989312                4.99944013                4.00257520                0.01000001               -0.02576901               -0.02222592                0.09808872                0.00526364                0.01260933               -0.01896623
               6.99961304                4.99949425                4.00274162                0.01000000               -0.03041616               -0.02477419                0.10404787                0.01212243                0.01152936               -0.01562413
               7.99928480                4.99960403                4.00295414                0.01000001               -0.03420385               -0.02517978                0.11102797                0.01532825                0.00915837               -0.00949848
               8.99892896                4.99970590                4.00315741                0.01000001               -0.03566061               -0.02740878                0.11223539                0.01247533                0.00665102               -0.00388437
               9.99857159                4.99973485                4.00330319                0.01000000               -0.03573765               -0.02551463                0.10566191                0.00740868                0.00667875               -0.00488082
               0.00100063                6.00040238                4.00373859                0.99216024               -0.03008932               -0.00831060                0.10253754               -0.03270862               -0.00362123                0.02495992
               1.00069974                6.00008431                4.00347990                0.01000000               -0.01745614               -0.02081996                0.09668232               -0.03053303               -0.02172224                0.00862581
               2.00065151                5.99969827                4.00287176                0.01000003               -0.00960707               -0.02301525                0.09488950               -0.02814498               -0.02058842               -0.00019788
               3.00050759                5.99945910                4.00258743                0.01000000               -0.01471353               -0.02298094                0.09231540               -0.01392218                0.00113574               -0.01428994
               4.00035723                5.99929973                4.00244024                0.01000000               -0.01675049               -0.02550570                0.09070648               -0.00522285                0.00985059               -0.01977481
               5.00017258                5.99921643                4.00245074                0.01000001               -0.02115094               -0.02442513                0.09360203                0.00081004                0.01588548               -0.02047555
               5.99993422                5.99920058                4.00257083                0.01000000               -0.02630164               -0.02526985                0.09909999                0.00499069                0.01747384               -0.01723673
               6.99964655                5.99923436                4.00276834                0.01000001               -0.03087309               -0.02799871                0.10682597                0.00675576                0.01657297               -0.01047143
               7.99931675                5.99931023                4.00301188                0.01000001               -0.03435798               -0.03202720                0.11451750                0.00782505                0.01501547               -0.00136082
               8.99895939                5.99941850                4.00326469                0.01000000               -0.03669299               -0.03227043                0.11788471                0.00655060                0.01170843                0.00952321
               9.99858289                5.99950832                4.00342992                0.01000000               -0.03764972               -0.02405632                0.11096820                0.00355416                0.00963754                0.01617656
               0.00130878                7.00008821                4.00389745                1.00000000               -0.03068935               -0.03176267                0.10539809               -0.00048249               -0.00412058                0.01414064
               1.00100188                6.99978530                4.00352684                0.99999999               -0.02979319               -0.03013309                0.09893161               -0.00118045               -0.00825001               -0.00590619
               2.00071291                6.99947778                4.00306451                0.01000005               -0.01961137               -0.02504301                0.09208967               -0.00979035               -0.01160704               -0.00795400
               3.00060966                6.99924098                4.00261741                0.01000003               -0.01274703               -0.02735787                0.08504545               -0.00857693               -0.00109384               -0.02086183
               4.00045797                6.99902690                4.00246169                0.01000001               -0.01829448               -0.02773757                0.09333138               -0.00493534                0.01482929               -0.02308172
               5.00024377                6.99896165                4.00248962                0.01000000               -0.02414788               -0.02658356                0.09487301                0.00431433                0.02246420               -0.02060767
               5.99997501                6.99893473                4.00264879                0.01000001               -0.03026277               -0.02730613                0.10258131                0.00269805                0.02499620               -0.01651414
               6.99963851                6.99893428                4.00291887                0.01000001               -0.03589271               -0.03082876                0.11289266               -0.00145045                0.02503002               -0.00771845
               7.99925716                6.99896348                4.00326958                0.01000001               -0.03883140               -0.03762727                0.12405035               -0.00609486                0.02347113                0.00847168
               8.99886188                6.99906049                4.00363626                0.01000000               -0.03970724               -0.04207692                0.13029489               -0.00576617                0.01764825                0.02722674
               9.99846302                6.99925372                4.00387355                0.01000001               -0.03988672               -0.03345825                0.12446485               -0.00429613                0.01360918                0.04674113
               0.00159679                7.99976713                4.00412209                1.00000000               -0.03102466               -0.03246248                0.10779479               -0.00094055               -0.00165085                0.01849886
               1.00128655                7.99948165                4.00367374                0.99999999               -0.02983903               -0.03034735                0.10017742               -0.00143103               -0.00102781                0.00174562
               2.00100001                7.99919741                4.00323008                0.01000000               -0.02498063               -0.02816128                0.09317689               -0.00156355               -0.01129714               -0.01044146
               3.00078694                7.99891194                4.00256682                0.01000000               -0.02310776               -0.03016627                0.12827595               -0.00361548               -0.00234739               -0.01512476
               4.00053786                7.99874498                4.00250588                0.01000002               -0.02179461               -0.02810005                0.08561585                0.00378465                0.02708018               -0.02176107
               5.00035104                7.99868476                4.00259776                0.01000001               -0.02611536               -0.02756654                0.09826341                0.00623338                0.03209227               -0.01855303
               6.00001555                7.99865446                4.00279541                0.01000001               -0.03811262               -0.02793780                0.10705122                0.00138333                0.03342597               -0.01332085
               6.99958879                7.99861778                4.00317126                0.01000001               -0.04734535               -0.03062290                0.12093682               -0.00874043                0.03846242               -0.00420467
               7.99906864                7.99855768                4.00374384                0.01000008               -0.05174819               -0.03825913                0.13847725               -0.02190651                0.03762575                0.01347871
               8.99855383                7.99857696                4.00433680                0.01000000               -0.04790707               -0.05226795                0.14911553               -0.03337282                0.02770806                0.06792686
               9.99811050                7.99883916                4.00478157                0.01000001               -0.04433238               -0.06640630                0.14750274               -0.02826275                0.02256300                0.08949562
               0.00186094                8.99943896                4.00437978                0.99999999               -0.03179550               -0.03286280                0.10969082               -0.00077177                0.00216011                0.01582180
               1.00154298                8.99917835                4.00387210                0.99999995               -0.03047960               -0.03012768                0.10065953               -0.00136630                0.00258542                0.00319000
               2.00125134                8.99891456                4.00336238                1.00000000               -0.02766004               -0.02762916                0.09006665               -0.00224697               -0.00045037               -0.00587486
               3.00098978                8.99863766                4.00278459                0.01000002               -0.02452495               -0.02518468                0.07642102                0.00050540                0.01877583               -0.00709228
               4.00076085                8.99846490                4.00267077                0.01000001               -0.02654159               -0.02536378                0.08957051                0.00763352                0.03584427               -0.01158151
               5.00045895                8.99841032                4.00275629                0.01000001               -0.03455912               -0.02604338                0.09767953                0.00540294                0.03884381               -0.01064794
               6.00006966                8.99837597                4.00301269                0.01000000               -0.04492347               -0.02689252                0.10891677                0.00137566                0.04233263               -0.00614543
               6.99956048                8.99832182                4.00349057                0.01000000               -0.06049050               -0.02858187                0.12557923               -0.00732884                0.05128763                0.00034717
               7.99885985                8.99819830                4.00426741                0.01000001               -0.08237634               -0.03088255                0.14738080               -0.02256554                0.08333456                0.01419120
               8.99791295                8.99801513                4.00575651                0.99999999               -0.07432473               -0.05503755                0.18394275               -0.04307857                0.04916245                0.04882002
               9.99737336                8.99792560                4.00624414                0.99999996               -0.05395942               -0.07080385                0.17360736               -0.04132300               -0.00112334                0.04859570
               0.00210257                9.99910987                4.00456254                1.00000000               -0.03189502               -0.03290811                0.10987895                0.00108508                0.01130419                0.01181003
               1.00178362                9.99887909                4.00404972                1.00000000               -0.03034009               -0.02992586                0.10031997                0.00081155                0.01559007                0.00200123
               2.00149577                9.99864483                4.00361019                1.00000000               -0.02684605               -0.02697293                0.08837412                0.00090025                0.01699004               -0.00093471
               3.00124670                9.99840825                4.00310348                0.01000002               -0.02889515               -0.02294078                0.07552268                0.00533549                0.02877776               -0.00510640
               4.00091787                9.99823770                4.00292209                0.01000001               -0.03493345               -0.02272007                0.08261588                0.00348428                0.03404495               -0.00068529
               5.00054803                9.99816389                4.00298636                0.01000000               -0.03931494               -0.02464259                0.09121598                0.00285362                0.04018019               -0.00186050
               6.00013157                9.99811661                4.00326339                0.01000000               -0.04640704               -0.02593628                0.10180720                0.00030278                0.04619032                0.00069272
               6.99961989                9.99804614                4.00378913                0.01000003               -0.06037720               -0.02756758                0.11935233               -0.00288791                0.06266784                0.00505768
               7.99892402                9.99794003                4.00473448                0.01000002               -0.08274657               -0.02582655                0.14514498               -0.02207985                0.09405988                0.01910362
               8.99796496                9.99747621                4.00622641                0.99999997               -0.07304570               -0.05389235                0.17320147               -0.02064710                0.05140822                0.00110525
               9.99746311                9.99742308                4.00671478                1.00000000               -0.05018492               -0.05025157                0.16289104                0.00366252                0.00120339               -0.00101486
               0.00099397                0.00132793                5.00422818                1.00000000               -0.02410365               -0.02432988                0.07961420                0.00090203               -0.00361305                0.00342934
               1.00075293                0.00114040                5.00408944                0.99999999               -0.02436471               -0.02501748                0.08148149                0.00036668               -0.00399667               -0.00105206
               2.00050667                0.00096446                5.00394451                0.01000000               -0.01439180               -0.02547586                0.08330878                0.00796911               -0.00803154               -0.00180890
               3.00046509                0.00095394                5.00372750                0.01000000               -0.00621919               -0.03603036                0.09746976                0.00285909               -0.00097479               -0.01244238
               4.00038229                0.00084198                5.00379998                0.01000000               -0.00704591               -0.03815836                0.09924918               -0.00707902                0.02941360               -0.00879379
               5.00032418                0.00068240                5.00421862                0.01000000                0.00195353               -0.04024283                0.10659955               -0.02310191                0.04173217               -0.01429359
               6.00042136                0.00037184                5.00464561                0.49075453               -0.00870126               -0.02721159                0.11398814               -0.03082060                0.04245683                0.00019037
               7.00015015                0.00074398                5.00521806                1.00000000               -0.03027474               -0.03387810                0.11568407                0.00229503                0.03285542                0.00126876
               7.99981586                0.00107653                5.00545916                1.00000000               -0.03385823               -0.03421090                0.11575341                0.00093445                0.01344153                0.00028428
               8.99947299                0.00140230                5.00564355                0.99999999               -0.03455806               -0.03413573                0.11587673                0.00100293                0.00827085                0.00070731
               9.99912470                0.00171346                5.00578672                1.00000000               -0.03482830               -0.03445164                0.11700635                0.00132651                0.00605573                0.00492149
               0.00119052                1.00108463                5.00410308                1.00000000               -0.02521878               -0.02479429                0.08283498                0.00057523                0.00103873                0.00373371
               1.00093833                1.00089022                5.00396623                0.01000000               -0.02554652               -0.02553427                0.08493953                0.00026474                0.00268301               -0.00277662
               2.00067959                1.00070970                5.00386250                0.01000000               -0.01917051               -0.02440048                0.08694104                0.00375837                0.00031159               -0.01128016
               3.00055492                1.00059364                5.00367393                0.01000000               -0.01161617               -0.03341284                0.10031705               -0.00402520                0.00553622               -0.00885506
               4.00044727                1.00046040                5.00377142                0.01000000               -0.01133470               -0.03508543                0.09997403               -0.01337490                0.02779504               -0.01283948
               5.00032823                1.00027998                5.00413392                0.01000000               -0.01824499               -0.03352711                0.10506815               -0.02382322                0.03589023               -0.01936116
               6.00008237                1.00009972                5.00457021                0.01000000               -0.02537371               -0.01932242                0.10742264               -0.02049865                0.03444027               -0.01175048
               6.99982075                1.00040519                5.00509767                1.00000000               -0.02931606               -0.03289374                0.10911595               -0.00119796                0.02156399                0.00085035
               7.99949605                1.00073442                5.00527429                0.99999999               -0.03281030               -0.03321281                0.11021145                0.00098030                0.00192468                0.00033912
               8.99916455                1.00106094                5.00541427                0.99999761               -0.03346192               -0.03349448                0.11179491                0.00107719               -0.00037308               -0.00054482
               9.99882681                1.00136895                5.00554675                0.99999997               -0.03377412               -0.03378484                0.11346870                0.00109576               -0.00053459                0.00549782
               0.00139429                2.00083204                5.00398498                0.01000000               -0.02611341               -0.02526105                0.08600597               -0.00488747                0.00147002               -0.00857883
               1.00113316                2.00062971                5.00380900                0.01000000               -0.02579342               -0.02252280                0.08824714               -0.00285083               -0.00062159               -0.00927326
               2.00087842                2.00047645                5.00358845                0.01000001               -0.02496330               -0.02324691                0.10016701               -0.00547290                0.00208751               -0.01264127
               3.00063389                2.00028568                5.00355344                0.01000001               -0.02249851               -0.02738214                0.09612656               -0.01217176                0.01602090               -0.01094929
               4.00042845                2.00014027                5.00365536                0.01000001               -0.02127514               -0.02855469                0.09769982               -0.01543965                0.02045252               -0.01690675
               5.00020839                2.00001186                5.00389931                0.01000000               -0.02711427               -0.02405450                0.10164661               -0.01711349                0.02937422               -0.02516038
               5.99988617                1.99998539                5.00430495                0.01000000               -0.03584481               -0.01461353                0.10418770               -0.00899372                0.04428519               -0.02959781
               6.99949149                2.00008610                5.00497670                0.01000005               -0.03532230               -0.02408654                0.10237837                0.00349150                0.02009638               -0.03078149
               7.99917972                2.00041227                5.00509742                0.01008250               -0.03157440               -0.02937355                0.10430401                0.00910743               -0.01095196               -0.01932580
               8.99886000                2.00073241                5.00516258                1.00000000               -0.03245529               -0.03239340                0.10850746                0.00060296               -0.00843313               -0.00459163
               9.99853062                2.00103777                5.00532206                0.99999997               -0.03293888               -0.03273810                0.11034247                0.00075861               -0.00316629                0.00512157
               0.00149744                3.00057941                5.00361471                0.01000003               -0.02605256               -0.02412963                0.08943234               -0.00681231                0.00287524                0.00335748
               1.00123691                3.00043976                5.00355132                0.01000000               -0.02916404               -0.01799234                0.09631396               -0.01429806                0.01076374                0.00280132
               2.00091416                3.00024476                5.00352025                0.01000001               -0.02946251               -0.02187443                0.09588253               -0.01921771                0.01130229                0.00003283
               3.00064766                3.00004599                5.00346767                0.01000001               -0.02509306               -0.02344566                0.09371537               -0.01709868                0.00987094               -0.01102115
               4.00041230                2.99988930                5.00352181                0.01000000               -0.02534098               -0.02453602                0.09642753               -0.01327994                0.01581906               -0.01755882
               5.00014084                2.99979889                5.00367913                0.01000000               -0.02920217               -0.02208195                0.09941946               -0.00719593                0.02058142               -0.02364053
               5.99982825                2.99980745                5.00394842                0.01000001               -0.03385716               -0.01981470                0.10108966                0.00392673                0.02154146               -0.03051139
               6.99946370                2.99992346                5.00424571                0.01000000               -0.03981849               -0.01949098                0.10505425                0.01678176                0.01497092               -0.04711704
               7.99903188                3.00014695                5.00453177                0.01000000               -0.04562924               -0.02679158                0.11841227                0.02028341                0.01156833               -0.03393893
               8.99855112                3.00041308                5.00485196                0.01000000               -0.04003055               -0.03245527                0.10638362                0.02111977                0.00330651               -0.01406312
               9.99823127                3.00071418                5.00507701                0.12971120               -0.03198424               -0.04593959                0.10692596                0.02420393               -0.00103056               -0.01033311
               0.00153734                4.00034945                5.00388903                0.01000000               -0.03554895               -0.01508495                0.09884956               -0.01311611               -0.00383086                0.04247679
               1.00118185                4.00026986                5.00372342                0.01000000               -0.03247484               -0.01463063                0.09735009               -0.02324160               -0.00307901                0.02498673
               2.00088784                4.00003896                5.00354656                0.01000001               -0.02672357               -0.02154855                0.09370651               -0.02550207                0.00074238                0.00048502
               3.00064737                3.99981677                5.00343667                0.01000000               -0.02389378               -0.02458575                0.09400117               -0.01871249                0.00698980               -0.01022358
               4.00040996                3.99964955                5.00341891                0.01000001               -0.02505255               -0.02514478                0.09512516               -0.01050298                0.01249835               -0.01736698
               5.00014632                3.99957022                5.00351261                0.01000001               -0.02849197               -0.02451115                0.09782267               -0.00022709                0.01712381               -0.02060490
               5.99984012                3.99958909                5.00369641                0.01000007               -0.03293476               -0.02434184                0.10180731                0.00990546                0.01844956               -0.02265434
               6.99948763                3.99969628                5.00392858                0.01000000               -0.03721732               -0.02566913                0.10678198                0.01947541                0.01686658               -0.02199241
               7.99909578                3.99987644                5.00417747                0.01000001               -0.03862319               -0.02974785                0.11021210                0.02848704                0.01241710               -0.01561641
               8.99871516                4.00008331                5.00439920                0.01000001               -0.03416492               -0.03570832                0.11091852                0.02824341                0.00720495               -0.01486894
               9.99841248                4.00011897                5.00454207                0.01000000               -0.03026859               -0.04948093                0.10672993                0.01941263                0.00777900               -0.02377708
               0.00139429                5.00027771                5.00442125                0.01212303               -0.03117185                0.00000233                0.09136826               -0.02730751               -0.02264326                0.04143985
               1.00108257                5.00014715                5.00405585                0.01000000               -0.02685418               -0.01765521                0.09316544               -0.03443170               -0.01898400                0.02674958
               2.00085721                4.99981379                5.00366462                0.01000000               -0.02098768               -0.02603790                0.09474425               -0.02873577               -0.00944831               -0.00006113
               3.00066282                4.99955428                5.00344854                0.01000000               -0.02042111               -0.02752295                0.09357191               -0.01637371                0.00372941               -0.01208615
               4.00044879                4.99938641                5.00337154                0.01000001               -0.02330303               -0.02791358                0.09444586               -0.00558562                0.01295554               -0.01735352
               5.00019676                4.99930866                5.00342549                0.01000001               -0.02742411               -0.02775481                0.09748521                0.00368745                0.01892706               -0.01807746
               5.99990030                4.99932061                5.00358256                0.01000001               -0.03154490               -0.02879394                0.10227301                0.01182341                0.02188880               -0.01531942
               6.99956586                4.99941008                5.00381087                0.01000002               -0.03428522               -0.03149985                0.10779817                0.01857709                0.02182832               -0.00936862
               7.99921460                4.99955199                5.00406064                0.01000000               -0.03462052               -0.03548566                0.11171013                0.02324664                0.01950597               -0.00191738
               8.99887345                4.99969891                5.00428012                0.01000000               -0.03332042               -0.03915649                0.11276741                0.01920336                0.01357735                0.00435565
               9.99854819                4.99972456                5.00437892                0.01000000               -0.03252597               -0.03549969                0.10883153                0.01080390                0.01060427                0.00131073
               0.00125230                6.00034950                5.00477321                0.99183748               -0.02951691               -0.01212266                0.10317095               -0.02921323               -0.00401252                0.02075631
               1.00095713                5.99991676                5.00443737                0.01000000               -0.01731536               -0.02612413                0.09506080               -0.02710180               -0.01837648                0.00557109
               2.00090600                5.99951820                5.00380721                0.01000000               -0.01049259               -0.03010836                0.09338113               -0.02092927               -0.01917827               -0.00342241
               3.00074728                5.99926631                5.00349435                0.01000001               -0.01810639               -0.03079460                0.09204831               -0.00819435                0.00422090               -0.01583362
               4.00054387                5.99909128                5.00337101                0.01000007               -0.02307073               -0.03051860                0.09432346               -0.00012445                0.01674781               -0.01908283
               5.00028587                5.99901513                5.00341526                0.01000001               -0.02843471               -0.03019320                0.09815188                0.00658245                0.02498982               -0.01664374
               5.99997517                5.99901321                5.00359441                0.01000001               -0.03290379               -0.03147236                0.10405145                0.00953133                0.02948632               -0.01041253
               6.99962779                5.99906628                5.00386587                0.01000000               -0.03516458               -0.03588819                0.11112955                0.01023214                0.03080123               -0.00065956
               7.99927188                5.99916673                5.00417950                0.01000001               -0.03505664               -0.04162758                0.11731212                0.01037819                0.02871467                0.01177026
               8.99892666                5.99930018                5.00445153                0.01000000               -0.03473178               -0.04327516                0.11916702                0.00821855                0.01991445                0.02409524
               9.99857725                5.99940898                5.00456029                0.01000001               -0.03494124               -0.03208043                0.11444171                0.00460001                0.01421431                0.03010439
               0.00167550                7.00003526                5.00495207                1.00000000               -0.03036703               -0.03187102                0.10521988               -0.00008503               -0.00343453                0.01569135
               1.00137183                6.99962467                5.00450891                0.99999996               -0.02932176               -0.02962994                0.09766936               -0.00090243               -0.00756499               -0.00487323
               2.00108907                6.99921162                5.00397798                0.01000002               -0.02229903               -0.02899338                0.09067836               -0.00563592               -0.00651270               -0.01006459
               3.00092585                6.99893839                5.00354685                0.01000003               -0.01957933               -0.03335246                0.09339833                0.00120714                0.00624291               -0.02247319
               4.00069748                6.99877604                5.00339941                0.01000000               -0.02596903               -0.03186437                0.09483653                0.00716984                0.02384534               -0.02123678
               5.00040647                6.99870480                5.00346867                0.01000002               -0.03288551               -0.03029120                0.09934822                0.00901474                0.03480032               -0.01555362
               6.00003977                6.99869117                5.00370481                0.01000000               -0.03947408               -0.03108491                0.10713334                0.00539477                0.04049639               -0.00666451
               6.99961699                6.99869232                5.00407832                0.01000001               -0.04257508               -0.03609017                0.11700685               -0.00308095                0.04291674                0.00584833
               7.99918827                6.99871944                5.00452598                0.01000001               -0.04107108               -0.04598618                0.12613546               -0.01076702                0.04065834                0.02691213
               8.99879557                6.99883341                5.00494137                0.01000001               -0.03828431               -0.05284491                0.13069167               -0.00986528                0.02803894                0.04930126
               9.99842258                6.99908296                5.00513023                0.01000000               -0.03729849               -0.04067964                0.12653991               -0.00659162                0.01899423                0.07119970
               0.00207178                7.99971208                5.00520146                0.99999999               -0.03090574               -0.03258722                0.10775738               -0.00050479               -0.00117435                0.02045487
               1.00176272                7.99932416                5.00467125                1.00000000               -0.02961097               -0.03012056                0.09943711               -0.00096714               -0.00067358                0.00202556
               2.00147956                7.99893833                5.00414859                0.01000000               -0.02778549               -0.02756168                0.09132988                0.00119947               -0.00086040               -0.01238251
               3.00120701                7.99859926                5.00361101                0.01000000               -0.02793526               -0.03244075                0.09845775                0.00838960                0.01005236               -0.02940562
               4.00092085                7.99845399                5.00344604                0.01000001               -0.03279894               -0.02975648                0.09459127                0.01513259                0.03798669               -0.01967222
               5.00055103                7.99840930                5.00357421                0.01000000               -0.04126517               -0.02703536                0.09947256                0.01192473                0.04692072               -0.01167375
               6.00009555                7.99839152                5.00389019                0.01000001               -0.05065669               -0.02753843                0.11018248                0.00256394                0.05283596               -0.00248946
               6.99953790                7.99834448                5.00439673                0.01000001               -0.05900487               -0.03078994                0.12311346               -0.01392183                0.06117838                0.01021122
               7.99891545                7.99824700                5.00513117                0.01000001               -0.05860308               -0.04096744                0.13864207               -0.03416410                0.06031328                0.03348924
               8.99836584                7.99824328                5.00581898                0.01000001               -0.04845695               -0.06121037                0.14798633               -0.04911609                0.04199357                0.10353211
               9.99794631                7.99859539                5.00625587                0.01000000               -0.04195229               -0.07915109                0.14762705               -0.03951215                0.03140022                0.12240438
               0.00244124                8.99938351                5.00547611                0.99999999               -0.03150071               -0.03294423                0.10936977               -0.00035967                0.00250025                0.01740753
               1.00212624                8.99902226                5.00487436                1.00000000               -0.03016434               -0.03015398                0.10015937               -0.00073341                0.00224286                0.00290706
               2.00183796                8.99866039                5.00426315                1.00000000               -0.02741248               -0.02757520                0.09034495               -0.00136248               -0.00219970               -0.00831673
               3.00157799                8.99828957                5.00356900                0.01000000               -0.03239303               -0.02735541                0.07945776                0.01209911                0.02863802               -0.02154961
               4.00119010                8.99818091                5.00357429                0.01000001               -0.04352713               -0.02191329                0.09089253                0.01508063                0.05513401               -0.01172733
               5.00070744                8.99816409                5.00373187                0.01000000               -0.05171111               -0.02178869                0.09851764                0.01035161                0.05555802               -0.00481241
               6.00015587                8.99814040                5.00410915                0.01000000               -0.06121878               -0.02271952                0.11023469                0.00182936                0.06311578                0.00088970
               6.99948307                8.99807652                5.00474741                0.01000001               -0.07748409               -0.02420701                0.12588734               -0.01151948                0.07743339                0.00954369
               7.99860619                8.99790009                5.00573165                0.01000000               -0.10091012               -0.02631557                0.14616363               -0.03462003                0.12133397                0.02729886
               8.99746487                8.99760920                5.00759306                1.00000000               -0.08390333               -0.05851235                0.18326005               -0.06120813                0.07252391                0.07147111
               9.99692812                8.99749993                5.00798085                0.99999999               -0.05367406               -0.07999300                0.17363457               -0.05634233               -0.00096152                0.06695783
               0.00278709                9.99905319                5.00566358                0.99999999               -0.03159170               -0.03303204                0.11011836                0.00137391                0.01224967                0.01301605
               1.00247118                9.99872108                5.00505175                0.99999997               -0.03010498               -0.03011776                0.10058603                0.00117594                0.01573102                0.00145790
               2.00218499                9.99838683                5.00450742                1.00000000               -0.02713510               -0.02735592                0.09069768                0.00125754                0.01571258               -0.00217009
               3.00192847                9.99805215                5.00389675                0.01000000               -0.04185237               -0.02374178                0.08098892                0.01649377                0.03512259               -0.00389049
               4.00134795                9.99801573                5.00375489                0.01000000               -0.05649510               -0.01651792                0.08528596                0.01185382                0.04718018               -0.00246638
               5.00079857                9.99797353                5.00391028                0.01000000               -0.05641186               -0.01905630                0.09400541                0.00518294                0.05531726                0.00185009
               6.00021971                9.99793713                5.00429881                0.01000000               -0.06253793               -0.02032705                0.10505711                0.00072424                0.06616776                0.00491221
               6.99954781                9.99786034                5.00499194                0.01000000               -0.07646690               -0.02161782                0.12121838               -0.00434704                0.09089370                0.00997872
               7.99869037                9.99772069                5.00618403                0.01000002               -0.10029919               -0.01793985                0.14516310               -0.03094746                0.12923230                0.02748501
               8.99754183                9.99707303                5.00795938                0.99999999               -0.08261881               -0.05361676                0.17329217               -0.02856180                0.07063285                0.00126873
               9.99703800                9.99699553                5.00834703                0.99999998               -0.05038349               -0.05044077                0.16362983                0.00323662                0.00108876               -0.00113091
               0.00108616                0.00147029                6.00502540                1.00000000               -0.02420852               -0.02440693                0.07992064                0.00074477               -0.00365742                0.00340210
               1.00084408                0.00123624                6.00490577                0.99999999               -0.02446876               -0.02498234                0.08174455                0.00030234               -0.00409406               -0.00106320
               2.00059679                0.00101239                6.00477954                0.01000000               -0.01612940               -0.02554563                0.08355690                0.00548134               -0.00378264               -0.00171244
               3.00052149                0.00090250                6.00466776                0.01000000               -0.00902119               -0.03484025                0.09370830                0.00014378                0.00672191               -0.00939874
               4.00041637                0.00076366                6.00481698                0.01000000               -0.00843714               -0.03642059                0.10088191               -0.00705694                0.03177232               -0.01079552
               5.00035275                0.00064235                6.00524234                0.01000005                0.00098855               -0.03830892                0.10711472               -0.01612584                0.06511411               -0.01370603
               6.00043614                0.00053520                6.00611699                0.52194430               -0.01420319               -0.04062467                0.12582300               -0.02805775                0.05301592               -0.00067568
               7.00006868                0.00090600                6.00641979                1.00000000               -0.03563511               -0.03487870                0.11798654               -0.00103837                0.01595258               -0.00195779
               7.99972343                0.00128625                6.00660910                1.00000000               -0.03434877               -0.03422782                0.11582882                0.00056653                0.01007721                0.00021618
               8.99938171                0.00166162                6.00680762                0.99999999               -0.03458837               -0.03433083                0.11645145                0.00050723                0.00786480                0.00073943
               9.99903167                0.00202133                6.00695843                0.99999999               -0.03500423               -0.03448741                0.11719847                0.00096601                0.00537859                0.00496514
               0.00132766                1.00122622                6.00493221                1.00000000               -0.02516128               -0.02484794                0.08295131                0.00048335                0.00102750                0.00365051
               1.00107605                1.00098641                6.00481426                0.01000000               -0.02545963               -0.02544885                0.08475064                0.00005480                0.00270768               -0.00276579
               2.00081847                1.00075694                6.00472931                0.01000000               -0.02143763               -0.02560484                0.08655265               -0.00088863                0.00398652               -0.00872869
               3.00064730                1.00055410                6.00463503                0.01000000               -0.01712977               -0.03188556                0.09549397               -0.00743464                0.01099840               -0.01172030
               4.00047587                1.00039945                6.00478827                0.01000000               -0.01707874               -0.03355597                0.10061564               -0.01214328                0.02682650               -0.01487931
               5.00030572                1.00025926                6.00513124                0.01000000               -0.02260707               -0.03265268                0.10436250               -0.02264250                0.05384020               -0.01676703
               6.00002373                1.00012895                6.00597128                0.01000000               -0.03114728               -0.02649571                0.12004818               -0.01829691                0.04309865               -0.02936534
               6.99968278                1.00055722                6.00621824                1.00000000               -0.03362187               -0.03370421                0.11165472                0.00213901                0.00631890               -0.00232396
               7.99935129                1.00094397                6.00637882                0.99999995               -0.03317672               -0.03351690                0.11116809                0.00088464                0.00125648                0.00035917
               8.99901924                1.00131831                6.00653452                0.99999999               -0.03348399               -0.03363968                0.11217418                0.00055880                0.00022732               -0.00019060
               9.99868161                1.00167645                6.00667917                1.00000000               -0.03376269               -0.03388145                0.11315844                0.00092459               -0.00032990                0.00594530
               0.00157544                2.00097333                6.00484559                0.01000000               -0.02609840               -0.03050568                0.08597058               -0.00865395                0.00153509                0.00021149
               1.00131445                2.00072726                6.00468851                0.01000000               -0.02820551               -0.02526401                0.08775426               -0.01117187                0.00197322               -0.00407943
               2.00101133                2.00050030                6.00453905                0.01000066               -0.02920861               -0.02584609                0.09401665               -0.01219984                0.00443903               -0.01207628
               3.00073028                2.00026479                6.00452837                0.01000000               -0.02714935               -0.02773926                0.09668555               -0.01485913                0.01386792               -0.01385407
               4.00046834                2.00009254                6.00464148                0.01000001               -0.02799400               -0.02861324                0.09905998               -0.01443035                0.02292032               -0.01963257
               5.00017040                1.99998930                6.00493008                0.01000000               -0.03480497               -0.02494420                0.10263480               -0.01289199                0.02792954               -0.02369309
               5.99977224                2.00000528                6.00529157                0.01000000               -0.04369780               -0.01517399                0.10370958               -0.00137504                0.04310571               -0.04278571
               6.99929645                2.00023192                6.00601361                0.01000002               -0.03961018               -0.02751216                0.10511239                0.01320173                0.02360853               -0.02829295
               7.99898004                2.00061591                6.00615339                0.01161754               -0.03180226               -0.03276666                0.10626787                0.01236042               -0.00835310               -0.01062500
               8.99866040                2.00098882                6.00624522                1.00000000               -0.03230863               -0.03236187                0.10837598                0.00064530               -0.00671000               -0.00358269
               9.99833386                2.00134370                6.00642026                0.99999997               -0.03265354               -0.03277146                0.10952392                0.00078889               -0.00239351                0.00577763
               0.00164672                3.00061610                6.00468384                0.01000000               -0.03210757               -0.03158128                0.10296833               -0.01035942                0.00033107                0.00623816
               1.00132564                3.00048113                6.00456845                0.01000000               -0.03048892               -0.02489157                0.09934469               -0.01812501                0.00099116                0.00328198
               2.00103694                3.00024002                6.00447444                0.01000000               -0.02838857               -0.02633030                0.09507535               -0.02252816                0.00565094               -0.00407911
               3.00075787                2.99999932                6.00442656                0.01000001               -0.02870877               -0.02733173                0.09612082               -0.01815117                0.01123755               -0.01286136
               4.00046276                2.99982719                6.00449271                0.01000000               -0.03113654               -0.02703906                0.09767563               -0.01023192                0.01737958               -0.01912196
               5.00013514                2.99976038                6.00467356                0.01000000               -0.03545782               -0.02459126                0.10013739                0.00065272                0.02379865               -0.02419504
               5.99975361                2.99982547                6.00498551                0.01000005               -0.03994774               -0.02237055                0.10324124                0.01502131                0.02429837               -0.02504000
               6.99933618                3.00000697                6.00530304                0.01000001               -0.04560026               -0.02535428                0.10693396                0.02954971                0.02388482               -0.03985490
               7.99884160                3.00028864                6.00571144                0.01000000               -0.05159131               -0.03216368                0.11567495                0.03418049                0.00978477               -0.02569231
               8.99830436                3.00067107                6.00590674                0.01000000               -0.04269819               -0.03738466                0.10525079                0.03460953               -0.00356688               -0.00910211
               9.99798764                3.00102102                6.00613962                0.12440901               -0.03167201               -0.05512645                0.10577913                0.03642528               -0.00145337               -0.00733640
               0.00163819                4.00034170                6.00488677                0.01000000               -0.03101484               -0.02085361                0.09641672               -0.01332659               -0.00739475                0.02423599
               1.00132804                4.00022943                6.00469324                0.01000000               -0.02978042               -0.02291953                0.09566751               -0.02041362               -0.00490419                0.01297058
               2.00104258                3.99997369                6.00449575                0.01000001               -0.02739779               -0.02818995                0.09530478               -0.02396263                0.00032996               -0.00033162
               3.00078008                3.99971816                6.00438376                0.01000000               -0.02699694               -0.02990580                0.09521532               -0.01612875                0.00821798               -0.01225164
               4.00050264                3.99955176                6.00438156                0.01000003               -0.02974552               -0.02946698                0.09691238               -0.00407639                0.01581755               -0.01783025
               5.00018517                3.99949747                6.00450302                0.01000000               -0.03382861               -0.02872108                0.09962874                0.00834600                0.02153805               -0.01927829
               5.99982607                3.99955787                6.00471990                0.01000001               -0.03804500               -0.02948652                0.10315440                0.02096371                0.02453004               -0.01944677
               6.99942427                3.99972483                6.00500443                0.01000000               -0.04132587               -0.03186952                0.10793405                0.03250558                0.02265896               -0.01506082
               7.99899955                3.99997264                6.00527808                0.01000000               -0.04020360               -0.03624933                0.11089724                0.04401783                0.01689995               -0.01402093
               8.99862020                4.00024113                6.00550653                0.01000000               -0.03185460               -0.04651911                0.11085564                0.04232024                0.00822089               -0.00692659
               9.99836246                4.00024117                6.00561659                0.01000005               -0.02577420               -0.06390902                0.10786717                0.02992635                0.00670757               -0.01936045
               0.00160473                5.00019903                6.00514209                0.01000004               -0.03193518               -0.00275060                0.09516335               -0.01993476               -0.00130236                0.04353812
               1.00128538                5.00002274                6.00490533                0.01000000               -0.02678878               -0.02433794                0.09353522               -0.02763228               -0.00351570                0.02245739
               2.00106896                4.99967622                6.00462252                0.01000000               -0.02140764               -0.03286114                0.09417551               -0.02265827               -0.00301207               -0.00258101
               3.00085723                4.99940120                6.00438626                0.01000078               -0.02335163               -0.03370205                0.09459723               -0.00951195                0.00622689               -0.01355062
               4.00060192                4.99923785                6.00432945                0.01000008               -0.02806403               -0.03307751                0.09646675                0.00266952                0.01825802               -0.01733053
               5.00029595                4.99918596                6.00441545                0.01000007               -0.03282027               -0.03285491                0.09985058                0.01308481                0.02609084               -0.01566882
               5.99994552                4.99923574                6.00462066                0.01000000               -0.03622069               -0.03438945                0.10444982                0.02154473                0.03045769               -0.01002394
               6.99957153                4.99936958                6.00489758                0.01000000               -0.03699264               -0.03855625                0.10919721                0.02905608                0.03098172               -0.00222436
               7.99920566                4.99956365                6.00518834                0.01000000               -0.03446517               -0.04461739                0.11300094                0.03384719                0.02699909                0.00747553
               8.99888223                4.99974069                6.00541276                0.01000000               -0.03097914               -0.05009851                0.11361373                0.02679382                0.01762529                0.01354214
               9.99858608                4.99974284                6.00547983                0.01000000               -0.02961468               -0.04410324                0.11084929                0.01457478                0.01257504                0.00856460
               0.00159207                6.00028669                6.00580201                0.98629226               -0.02938611               -0.01126209                0.10266434               -0.02831797               -0.00379100                0.03608966
               1.00129821                5.99974267                6.00538111                0.01000000               -0.01905564               -0.02843962                0.09425585               -0.02154619               -0.01480673                0.01080013
               2.00121096                5.99931647                6.00473938                0.01000000               -0.01349980               -0.03705545                0.09323148               -0.01113915               -0.01407527               -0.00804005
               3.00102821                5.99904412                6.00442839                0.01000002               -0.02198398               -0.03631714                0.09374183                0.00148015                0.01005215               -0.01726999
               4.00077128                5.99889021                6.00432671                0.01000001               -0.02896166               -0.03553577                0.09632529                0.01036925                0.02448459               -0.01820581
               5.00044898                5.99884037                6.00441377                0.01000000               -0.03489710               -0.03471611                0.10069767                0.01591481                0.03507855               -0.01311330
               6.00007334                5.99887008                6.00465186                0.01000000               -0.03857463               -0.03650401                0.10655815                0.01715559                0.04141997               -0.00366971
               6.99967749                5.99895371                6.00499093                0.01000000               -0.03839714               -0.04246024                0.11300721                0.01571731                0.04330094                0.00949554
               7.99930539                5.99908029                6.00535812                0.01000001               -0.03503016               -0.05068005                0.11814820                0.01435341                0.03938327                0.02460777
               8.99897688                5.99923916                6.00564803                0.01000000               -0.03278753               -0.05308160                0.11997537                0.01075044                0.02613915                0.03859699
               9.99864964                5.99935911                6.00571876                0.01000000               -0.03272417               -0.03803515                0.11666896                0.00594966                0.01728963                0.04356622
               0.00212641                6.99997379                6.00600184                1.00000000               -0.03017346               -0.03172492                0.10482567                0.00009873               -0.00281370                0.01695985
               1.00182468                6.99945395                6.00548023                1.00000000               -0.02908434               -0.02929826                0.09694706               -0.00054753               -0.00674989               -0.00366195
               2.00154472                6.99893511                6.00487807                0.01000002               -0.02557939               -0.03259406                0.08973362                0.00264980               -0.00013444               -0.01254101
               3.00131309                6.99867486                6.00448538                0.01000001               -0.02658360               -0.03712192                0.09349810                0.01271741                0.01606058               -0.02089733
               4.00101305                6.99852713                6.00435842                0.01000000               -0.03393603               -0.03567783                0.09635437                0.01899457                0.03411993               -0.02053899
               5.00063437                6.99849163                6.00447658                0.01000000               -0.04188802               -0.03261428                0.10160962                0.01874282                0.04768810               -0.01116115
               6.00017529                6.99850566                6.00479146                0.01000000               -0.04793473               -0.03348752                0.10937105                0.01025782                0.05610762                0.00122354
               6.99967567                6.99852038                6.00525901                0.01000000               -0.04840038               -0.04003977                0.11850122               -0.00308626                0.05955031                0.01794114
               7.99920728                6.99855005                6.00579229                0.01000000               -0.04286266               -0.05292422                0.12676764               -0.01470282                0.05520974                0.04431262
               8.99881842                6.99867906                6.00625009                0.01000000               -0.03710517               -0.06216264                0.13104409               -0.01378946                0.03654431                0.07036084
               9.99846518                6.99898214                6.00640435                0.01000001               -0.03532391               -0.04612396                0.12800877               -0.00893681                0.02314071                0.09380494
               0.00263372                7.99965219                6.00627724                0.99999999               -0.03077823               -0.03244047                0.10733893               -0.00014738               -0.00101739                0.02164604
               1.00232594                7.99915670                6.00566249                0.99999999               -0.02953382               -0.02989814                0.09899068               -0.00057428               -0.00049425                0.00226779
               2.00204305                7.99866459                6.00505668                0.01000001               -0.03177025               -0.02728564                0.09075160                0.00564840                0.00418015               -0.01367850
               3.00169053                7.99830168                6.00453597                0.01000000               -0.03543259               -0.03769664                0.09180485                0.02251933                0.01905042               -0.03568802
               4.00133439                7.99817665                6.00439771                0.01000000               -0.04226121               -0.03028145                0.09510795                0.02870029                0.04742990               -0.02056949
               5.00084531                7.99818809                6.00458721                0.01000000               -0.05423240               -0.02568182                0.10193315                0.02122784                0.06289443               -0.00794495
               6.00024975                7.99820033                6.00499906                0.01000001               -0.06369682               -0.02602569                0.11153247                0.00529864                0.07162920                0.00481815
               6.99957137                7.99815291                6.00563353                0.01000000               -0.06985426               -0.03014447                0.12389924               -0.01837769                0.08317567                0.02155363
               7.99885266                7.99802180                6.00651668                0.01000000               -0.06511860               -0.04293126                0.13851007               -0.04617039                0.08098730                0.05109513
               8.99826900                7.99799591                6.00729652                0.01000002               -0.04939631               -0.06874476                0.14769625               -0.06446812                0.05520861                0.13781994
               9.99786473                7.99843663                6.00773411                0.01000002               -0.04042674               -0.09042712                0.14806390               -0.05025917                0.03935499                0.15356791
               0.00311444                8.99932498                6.00656717                0.99999999               -0.03136421               -0.03284709                0.10891304               -0.00002412                0.00246058                0.01793144
               1.00280079                8.99885599                6.00587529                1.00000000               -0.03008596               -0.03016183                0.10016344               -0.00035610                0.00183735                0.00255506
               2.00251272                8.99838939                6.00516928                1.00000000               -0.02746924               -0.02758476                0.09103423               -0.00065419               -0.00338568               -0.00971409
               3.00225141                8.99792092                6.00437374                0.01000000               -0.04060337               -0.03133738                0.08138385                0.02716283                0.03746890               -0.02887049
               4.00170065                8.99792151                6.00448862                0.01000000               -0.06080826               -0.01747454                0.09197015                0.02853059                0.07257807               -0.01408870
               5.00103524                8.99797800                6.00472664                0.01000000               -0.06921062               -0.01720085                0.10030069                0.01643935                0.07288511               -0.00285128
               6.00031644                8.99798515                6.00521738                0.01000001               -0.07742978               -0.01823990                0.11148367                0.00315086                0.08391456                0.00543029
               6.99948665                8.99791749                6.00600832                0.01000000               -0.09377760               -0.01981227                0.12639949               -0.01562750                0.10294533                0.01637191
               7.99844089                8.99769142                6.00719068                0.01000001               -0.11862068               -0.02184128                0.14588345               -0.04623806                0.15834299                0.03895667
               8.99711423                8.99730416                6.00942171                0.99999999               -0.09311645               -0.06134789                0.18248194               -0.07861048                0.09568193                0.09386006
               9.99657856                8.99717360                6.00971683                0.99999999               -0.05356785               -0.08842619                0.17358552               -0.07081362               -0.00099110                0.08462028
               0.00357122                9.99899525                6.00676490                1.00000000               -0.03168213               -0.03297302                0.11014747                0.00150054                0.01248683                0.01337817
               1.00325440                9.99855347                6.00606144                1.00000000               -0.03030996               -0.03025197                0.10130777                0.00124290                0.01569842                0.00110576
               2.00296502                9.99811289                6.00542415                0.99999998               -0.02763607               -0.02765029                0.09237107                0.00130388                0.01550159               -0.00286992
               3.00270168                9.99767493                6.00472326                0.01000000               -0.05585451               -0.02459932                0.08364512                0.03074059                0.04200380               -0.00398062
               4.00184793                9.99782716                6.00462780                0.01000005               -0.07956124               -0.00943436                0.08872440                0.02318532                0.06047593               -0.00438933
               5.00111046                9.99784407                6.00486646                0.01000000               -0.07373321               -0.01339265                0.09705148                0.00793981                0.07115556                0.00293651
               6.00037327                9.99783553                6.00536453                0.01000000               -0.07789544               -0.01496118                0.10782635                0.00131314                0.08600479                0.00726476
               6.99955255                9.99775667                6.00621350                0.01000000               -0.09160202               -0.01608211                0.12299087               -0.00593799                0.11771480                0.01336125
               7.99854123                9.99758498                6.00763774                0.01000001               -0.11689654               -0.01064453                0.14572240               -0.03935170                0.16289197                0.03481831
               8.99721462                9.99676895                6.00969225                0.99999998               -0.09158223               -0.05352126                0.17330653               -0.03580565                0.08921151                0.00123949
               9.99670958                9.99666810                6.00998738                1.00000000               -0.05050318               -0.05054967                0.16441681                0.00301827                0.00111440               -0.00110556
               0.00116007                0.00158236                7.00582659                1.00000000               -0.02431616               -0.02449039                0.08032168                0.00066859               -0.00365684                0.00340504
               1.00091691                0.00130215                7.00572433                0.99999999               -0.02455176               -0.02499876                0.08197002                0.00026304               -0.00408149               -0.00106808
               2.00066904                0.00103067                7.00561565                0.01000000               -0.01774100               -0.02550512                0.08363134                0.00341480                0.00027607               -0.00170947
               3.00056209                0.00083142                7.00560167                0.01000005               -0.01129434               -0.03327970                0.09311265               -0.00197579                0.01381849               -0.00940944
               4.00044315                0.00068348                7.00581762                0.01000000               -0.01178233               -0.03451726                0.10065560               -0.00560360                0.04025321               -0.01099344
               5.00032645                0.00063048                7.00636091                0.01000005               -0.00694611               -0.03735876                0.10976937               -0.01212908                0.06619584               -0.01435001
               6.00030423                0.00064974                7.00716207                0.46578432               -0.01746779               -0.03119039                0.11515687               -0.02081729                0.05039377               -0.00162851
               6.99997709                0.00110791                7.00757779                0.99999989               -0.03373290               -0.03430130                0.11675185                0.00083402                0.02097172               -0.00203703
               7.99962957                0.00154142                7.00777574                1.00000000               -0.03480674               -0.03440960                0.11659791                0.00030277                0.00986946               -0.00019967
               8.99928095                0.00196331                7.00797258                0.99999999               -0.03494560               -0.03437735                0.11669249                0.00027350                0.00753666                0.00082113
               9.99893066                0.00237129                7.00813069                1.00000000               -0.03502954               -0.03452742                0.11716850                0.00082379                0.00553626                0.00501339
               0.00144696                1.00133745                7.00576211                1.00000000               -0.02515760               -0.02488588                0.08303268                0.00042488                0.00102306                0.00366367
               1.00119539                1.00105217                7.00566124                0.01000001               -0.02542044               -0.02541102                0.08466304                0.00002080                0.00268304               -0.00279228
               2.00093855                1.00077562                7.00559355                0.01000000               -0.02397300               -0.02704395                0.08630315               -0.00476166                0.00730014               -0.00681149
               3.00071593                1.00049862                7.00558381                0.01000000               -0.02254843               -0.03071731                0.09448549               -0.00952914                0.01563763               -0.01194236
               4.00048759                1.00033831                7.00578374                0.01000000               -0.02469512               -0.03201510                0.10006517               -0.00998700                0.03208355               -0.01514664
               5.00022202                1.00025689                7.00622117                0.01000000               -0.03151227               -0.03173978                0.10692413               -0.01050117                0.05188881               -0.01907238
               5.99985734                1.00033784                7.00697117                0.01000000               -0.03412160               -0.02671468                0.11072831               -0.00657309                0.04063225               -0.02042360
               6.99953959                1.00076490                7.00733077                1.00000000               -0.03262194               -0.03362334                0.11189871               -0.00078823                0.01167941               -0.00217081
               7.99920490                1.00119732                7.00749765                0.99999995               -0.03354209               -0.03371286                0.11208487                0.00030519                0.00146436               -0.00014114
               8.99886875                1.00161953                7.00765776                1.00000000               -0.03369966               -0.03373857                0.11251327                0.00033367                0.00047796                0.00011339
               9.99853091                1.00202602                7.00780991                0.99999999               -0.03378426               -0.03392160                0.11304560                0.00074923                0.00003164                0.00616654
               0.00173915                2.00108464                7.00570439                0.01000001               -0.02599812               -0.03372287                0.08575601               -0.01467658                0.00154075                0.00538448
               1.00147916                2.00079393                7.00556408                0.01000000               -0.03058978               -0.02757428                0.08736706               -0.01620500                0.00388905               -0.00085113
               2.00112735                2.00048979                7.00546879                0.01000001               -0.03351743               -0.02845691                0.09256183               -0.01731744                0.00713032               -0.01071642
               3.00080882                2.00021707                7.00548715                0.01000001               -0.03211041               -0.02826213                0.09568089               -0.01541964                0.01551684               -0.01515402
               4.00048514                2.00004318                7.00563656                0.01000001               -0.03459615               -0.02857634                0.09942744               -0.00980418                0.02431948               -0.02031825
               5.00011689                1.99999568                7.00595201                0.01000000               -0.04101909               -0.02574220                0.10299652               -0.00128661                0.03128311               -0.02535996
               5.99966476                2.00011545                7.00637915                0.01000000               -0.05075251               -0.02297626                0.10686894                0.01335808                0.04494179               -0.03669734
               6.99910184                2.00043544                7.00707895                0.01000002               -0.04418600               -0.03146785                0.10697512                0.02137932                0.02260735               -0.02481575
               7.99878104                2.00086716                7.00722277                0.01294974               -0.03214573               -0.03444551                0.10744592                0.01360345               -0.00737504               -0.00529707
               8.99845893                2.00128853                7.00733010                1.00000000               -0.03241866               -0.03249036                0.10861050                0.00042721               -0.00567806               -0.00292940
               9.99813267                2.00169286                7.00751254                0.99999997               -0.03262612               -0.03274442                0.10914815                0.00070954               -0.00193256                0.00617548
               0.00173484                3.00066299                7.00567408                0.01000001               -0.02687062               -0.03543568                0.09625711               -0.01436387               -0.00364929                0.00969065
               1.00146614                3.00050068                7.00553821                0.01000000               -0.02828885               -0.03007672                0.09532675               -0.02304495                0.00071013                0.00448474
               2.00116907                3.00020648                7.00542176                0.01000001               -0.03059977               -0.03027698                0.09469811               -0.02453665                0.00554208               -0.00531148
               3.00085414                2.99993338                7.00539009                0.01000001               -0.03280879               -0.03025173                0.09632491               -0.01612964                0.01224808               -0.01459101
               4.00051289                2.99976678                7.00547532                0.01000000               -0.03650594               -0.02934821                0.09849935               -0.00347129                0.01941681               -0.01993496
               5.00012402                2.99974205                7.00568188                0.01000003               -0.04140754               -0.02764593                0.10115672                0.01166904                0.02578263               -0.02324104
               5.99968474                2.99987831                7.00601324                0.01000001               -0.04542777               -0.02752192                0.10327700                0.02790252                0.02764294               -0.02371707
               6.99921547                3.00013554                7.00638439                0.01000003               -0.05304304               -0.03174613                0.10791027                0.04554434                0.03044799               -0.03385712
               7.99862388                3.00050841                7.00684527                0.01000000               -0.05819383               -0.03740198                0.11802930                0.04924093                0.00896654               -0.01850043
               8.99805159                3.00096972                7.00695697                0.01000000               -0.04437190               -0.04248911                0.10502801                0.04724345               -0.00789441               -0.00369284
               9.99773644                3.00137113                7.00719260                0.01002046               -0.03151498               -0.06506508                0.10515009                0.04983355               -0.00161343               -0.00356223
               0.00177650                4.00037593                7.00581736                0.01000001               -0.03017165               -0.02148842                0.09691837               -0.01300661               -0.00347958                0.03396125
               1.00147478                4.00019240                7.00563677                0.01000000               -0.02862901               -0.02961283                0.09564245               -0.02129928               -0.00219650                0.01400877
               2.00120392                3.99988425                7.00545266                0.01000001               -0.02744320               -0.03439716                0.09535584               -0.02166985                0.00226493               -0.00355642
               3.00092592                3.99961204                7.00534098                0.01000000               -0.02984356               -0.03473739                0.09603633               -0.01008713                0.01049420               -0.01368473
               4.00060705                3.99945622                7.00535716                0.01000004               -0.03435878               -0.03360666                0.09792125                0.00512968                0.01934143               -0.01809919
               5.00023874                3.99944276                7.00550519                0.01000006               -0.03888657               -0.03287554                0.10062705                0.02060686                0.02606352               -0.01739841
               5.99982932                3.99956501                7.00575950                0.01000003               -0.04280554               -0.03450689                0.10405967                0.03501720                0.02994076               -0.01455650
               6.99938263                3.99980052                7.00608726                0.01000000               -0.04488212               -0.03782212                0.10858103                0.04782273                0.02784223               -0.00908233
               7.99893167                4.00011912                7.00639541                0.01000000               -0.04207785               -0.04434747                0.11179266                0.06268776                0.01940883               -0.01064259
               8.99854107                4.00043875                7.00661631                0.01000000               -0.03025755               -0.05707359                0.11148689                0.05776600                0.00750960                0.00151301
               9.99832652                4.00039156                7.00669942                0.01000000               -0.02145520               -0.07887229                0.10825053                0.04173717                0.00537204               -0.01315680
               0.00184177                5.00023323                7.00632452                0.01160380               -0.03099373               -0.00821947                0.09892030               -0.02039129               -0.01407416                0.04861037
               1.00153183                4.99990842                7.00592656                0.01000000               -0.02628672               -0.03172699                0.09527690               -0.02329214               -0.01108991                0.02097732
               2.00131603                4.99951853                7.00554813                0.01000000               -0.02256980               -0.03912014                0.09433234               -0.01482508               -0.00221450               -0.00544882
               3.00108043                4.99923863                7.00534048                0.01000003               -0.02656368               -0.03951189                0.09544144                0.00055958                0.01164133               -0.01522625
               4.00078476                4.99909465                7.00530088                0.01000006               -0.03265333               -0.03790132                0.09761972                0.01435184                0.02399209               -0.01702352
               5.00042737                4.99908453                7.00542250                0.01000000               -0.03787157               -0.03755174                0.10112379                0.02585341                0.03324590               -0.01285935
               6.00002733                4.99918818                7.00567156                0.01000000               -0.04047765               -0.03979974                0.10549982                0.03458329                0.03835322               -0.00447526
               6.99961781                4.99937910                7.00599481                0.01000000               -0.03939616               -0.04528767                0.10983912                0.04191030                0.03883877                0.00546947
               7.99923940                4.99962146                7.00632065                0.01000000               -0.03416717               -0.05320919                0.11287503                0.04599615                0.03319692                0.01625789
               8.99893447                4.99982825                7.00655240                0.01000001               -0.02869185               -0.06019837                0.11397026                0.03599775                0.02074842                0.02283306
               9.99866557                4.99979369                7.00659590                0.01000000               -0.02689033               -0.05178921                0.11194434                0.01929663                0.01399401                0.01647708
               0.00201828                6.00021154                7.00682650                0.97559963               -0.02946488               -0.01669985                0.10258661               -0.02433327               -0.00370254                0.02798056
               1.00172363                5.99955786                7.00632248                0.01000000               -0.02205350               -0.03191825                0.09448092               -0.01404559               -0.01116057                0.00688474
               2.00157721                5.99910185                7.00567184                0.01000000               -0.01813180               -0.04375164                0.09336903                0.00145715               -0.00786362               -0.01087437
               3.00136100                5.99882180                7.00536919                0.01000001               -0.02645155               -0.04128839                0.09431104                0.01413150                0.01729475               -0.01868053
               4.00104818                5.99869819                7.00529751                0.01000003               -0.03493552               -0.04001965                0.09745999                0.02369236                0.03317219               -0.01751723
               5.00066228                5.99869173                7.00542922                0.01000000               -0.04108800               -0.03881970                0.10201155                0.02853271                0.04518782               -0.00978079
               6.00022642                5.99876902                7.00572557                0.01000000               -0.04373665               -0.04098698                0.10773957                0.02776054                0.05268533                0.00286897
               6.99978755                5.99889477                7.00612601                0.01000000               -0.04119888               -0.04852791                0.11372792                0.02376406                0.05447890                0.01935694
               7.99940244                5.99905494                7.00654246                0.01000000               -0.03493738               -0.05871650                0.11862359                0.02009988                0.04864406                0.03727611
               8.99908880                5.99923478                7.00685103                0.01000001               -0.03104264               -0.06180597                0.12048075                0.01403804                0.03144927                0.05278303
               9.99878159                5.99935578                7.00689367                0.01000001               -0.03072156               -0.04249909                0.11791758                0.00766510                0.02001204                0.05660982
               0.00266246                6.99989923                7.00704859                0.99999998               -0.03018488               -0.03159329                0.10472333                0.00021549               -0.00240585                0.01788828
               1.00236061                6.99927006                7.00644785                1.00000000               -0.02906106               -0.02916984                0.09686167               -0.00029830               -0.00617755               -0.00273244
               2.00208123                6.99864350                7.00577265                0.01000001               -0.02969437               -0.03641448                0.08948662                0.01276346                0.00605153               -0.01541587
               3.00176672                6.99841286                7.00541681                0.01000002               -0.03462796               -0.04123297                0.09323870                0.02683745                0.02648013               -0.02253123
               4.00138867                6.99829426                7.00532649                0.01000000               -0.04197625               -0.03928944                0.09707016                0.03326576                0.04491575               -0.02032597
               5.00092719                6.99830814                7.00550086                0.01000000               -0.05045884               -0.03456907                0.10284214                0.03097302                0.06068178               -0.00794410
               6.00037950                6.99836844                7.00589223                0.01000000               -0.05600103               -0.03535281                0.11045183                0.01778969                0.07100050                0.00802948
               6.99980717                6.99840854                7.00644835                0.01000000               -0.05390573               -0.04342615                0.11913686               -0.00125319                0.07491560                0.02887077
               7.99930138                6.99844713                7.00706134                0.01000000               -0.04463921               -0.05922125                0.12696873               -0.01733216                0.06844047                0.06068052
               8.99891439                6.99859213                7.00756225                0.01000000               -0.03622502               -0.07033608                0.13134534               -0.01698242                0.04427800                0.09049670
               9.99857688                6.99894370                7.00769040                0.01000001               -0.03375060               -0.05007537                0.12898790               -0.01101028                0.02704725                0.11516027
               0.00328093                7.99957967                7.00734823                0.99999999               -0.03075399               -0.03223766                0.10692457                0.00006773               -0.00093049                0.02226265
               1.00297339                7.99897446                7.00665106                1.00000000               -0.02956288               -0.02978255                0.09887015               -0.00029232               -0.00044675                0.00242898
               2.00268968                7.99837356                7.00596363                0.01000001               -0.03632015               -0.02724311                0.09087242                0.01066149                0.00847294               -0.01446800
               3.00224699                7.99799714                7.00544711                0.01000000               -0.04357300               -0.04439944                0.09128668                0.03900736                0.02862649               -0.04204720
               4.00181822                7.99791240                7.00534820                0.01000000               -0.05197120               -0.03126100                0.09536012                0.04516452                0.06024301               -0.02182089
               5.00120757                7.99800035                7.00561287                0.01000000               -0.06682006               -0.02401649                0.10298210                0.03293752                0.07838219               -0.00571534
               6.00048181                7.99806196                7.00612084                0.01000000               -0.07618867               -0.02424493                0.11255700                0.00994419                0.08983661                0.01051841
               6.99968379                7.99802624                7.00687472                0.01000000               -0.08048050               -0.02922752                0.12431935               -0.02149733                0.10394733                0.03137590
               7.99887220                7.99787051                7.00790138                0.01000000               -0.07156052               -0.04444825                0.13846056               -0.05699506                0.10061479                0.06749647
               8.99825258                7.99782806                7.00877291                0.01000005               -0.05069815               -0.07507304                0.14762829               -0.07891363                0.06782511                0.17083856
               9.99785824                7.99835427                7.00921715                0.01000000               -0.03943411               -0.10023175                0.14848894               -0.06032029                0.04718338                0.18332338
               0.00387423                8.99925448                7.00765437                0.99999999               -0.03133526               -0.03271895                0.10860208                0.00013438                0.00238663                0.01806594
               1.00356087                8.99867441                7.00687763                0.99999996               -0.03012200               -0.03017869                0.10036202               -0.00016641                0.00154152                0.00231515
               2.00327179                8.99809864                7.00608384                0.99999999               -0.02764259               -0.02769301                0.09188908               -0.00030031               -0.00410039               -0.01050740
               3.00300802                8.99752487                7.00519667                0.01000000               -0.04915146               -0.03618195                0.08310682                0.04441499                0.04617240               -0.03469677
               4.00228876                8.99766904                7.00541369                0.01000000               -0.07858182               -0.01314133                0.09315080                0.04494935                0.08967457               -0.01610502
               5.00143639                8.99782781                7.00573789                0.01000003               -0.08681363               -0.01238666                0.10178477                0.02459473                0.08992474               -0.00189419
               6.00055248                8.99788354                7.00633882                0.01000001               -0.09338555               -0.01369161                0.11270988                0.00535682                0.10401807                0.00861080
               6.99956867                8.99782399                7.00727540                0.01000000               -0.10964105               -0.01545146                0.12704046               -0.01901325                0.12740057                0.02218518
               7.99835966                8.99755817                7.00864932                0.01000001               -0.13581585               -0.01737855                0.14592518               -0.05680315                0.19413045                0.04984105
               8.99685236                8.99709067                7.01124270                1.00000000               -0.10207998               -0.06356621                0.18171435               -0.09476282                0.11805415                0.11546911
               9.99631806                8.99693907                7.01145256                1.00000000               -0.05342937               -0.09609782                0.17355651               -0.08457116               -0.00098652                0.10164288
               0.00444376                9.99892529                7.00786653                1.00000000               -0.03178578               -0.03291853                0.11014889                0.00151300                0.01251405                0.01342366
               1.00412590                9.99837089                7.00707791                0.99999999               -0.03052784               -0.03035190                0.10189086                0.00122304                0.01570525                0.00090650
               2.00383320                9.99781970                7.00635484                0.99999998               -0.02805043               -0.02789435                0.09358227                0.00127225                0.01558875               -0.00320579
               3.00356489                9.99727350                7.00556965                0.01000000               -0.07094691               -0.02513732                0.08537152                0.04718101                0.04928877               -0.00402848
               4.00241426                9.99764957                7.00552938                0.01000000               -0.10399667               -0.00194622                0.09117572                0.03650643                0.07395436               -0.00594770
               5.00148496                9.99775261                7.00585131                0.01000000               -0.09107460               -0.00751972                0.09955048                0.01178505                0.08675630                0.00350258
               6.00059277                9.99778813                7.00645534                0.01000002               -0.09280305               -0.00954102                0.11004001                0.00225887                0.10506500                0.00897776
               6.99962890                9.99771722                7.00745175                0.01000000               -0.10616576               -0.01067740                0.12452176               -0.00723694                0.14307016                0.01633271
               7.99846946                9.99752294                7.00909848                0.01000000               -0.13262381               -0.00352261                0.14641060               -0.04704444                0.19502513                0.04195516
               8.99697642                9.99655674                7.01142551                1.00000000               -0.09997164               -0.05339341                0.17334172               -0.04212486                0.10710299                0.00124484
               9.99647002                9.99643231                7.01163536                0.99999999               -0.05063978               -0.05067563                0.16518325                0.00275351                0.00110943               -0.00111116
               0.00121755                0.00166736                8.00663183                1.00000000               -0.02441669               -0.02456650                0.08072103                0.00059798               -0.00366035                0.00340718
               1.00097339                0.00134104                8.00654517                0.99986946               -0.02462930               -0.02502312                0.08220636                0.00024075               -0.00407647               -0.00107363
               2.00072497                0.00102241                8.00645217                0.01000000               -0.01887454               -0.02548388                0.08369305                0.00214401                0.00409711               -0.00170199
               3.00059590                0.00075004                8.00653001                0.01000000               -0.01313897               -0.03202651                0.09286587               -0.00314646                0.02200044               -0.00905134
               4.00046219                0.00061155                8.00683009                0.01000000               -0.01318443               -0.03339775                0.10090289               -0.00396181                0.04738181               -0.01115911
               5.00033221                0.00063483                8.00743773                0.01000000               -0.01175301               -0.03481110                0.10845634               -0.00397013                0.07920261               -0.01498457
               6.00022713                0.00088444                8.00842013                0.45807080               -0.02288758               -0.03810304                0.12137025               -0.01381047                0.05649970               -0.00046891
               6.99987446                0.00135931                8.00875482                1.00000000               -0.03505468               -0.03466659                0.11734390               -0.00075742                0.01579907               -0.00278860
               7.99952603                0.00183843                8.00894106                1.00000000               -0.03484843               -0.03443220                0.11667785                0.00017472                0.00896463               -0.00027239
               8.99917749                0.00230769                8.00914147                0.99999999               -0.03499313               -0.03446372                0.11692088                0.00014057                0.00758586                0.00082870
               9.99882617                0.00276315                8.00930180                1.00000000               -0.03513153               -0.03452179                0.11714595                0.00072186                0.00552330                0.00509659
               0.00154985                1.00142169                8.00659286                1.00000000               -0.02515808               -0.02491567                0.08311703                0.00037760                0.00101372                0.00367338
               1.00129827                1.00109081                8.00650752                0.01000000               -0.02539694               -0.02538863                0.08459558                0.00001666                0.00267200               -0.00279816
               2.00104191                1.00076757                8.00645537                0.01000000               -0.02642026               -0.02823277                0.08607857               -0.00775662                0.01045706               -0.00509100
               3.00076986                1.00042978                8.00652474                0.01000000               -0.02808650               -0.02973074                0.09404502               -0.01065254                0.02144701               -0.01181903
               4.00048018                1.00027758                8.00678958                0.01000000               -0.03068984               -0.03084809                0.10024650               -0.00576903                0.03615676               -0.01576663
               5.00015606                1.00028672                8.00726972                0.01000000               -0.03766992               -0.03067175                0.10575777               -0.00264480                0.06185075               -0.01873391
               5.99972678                1.00050341                8.00818585                0.01000000               -0.03830898               -0.03275868                0.11715169                0.00214712                0.04510352               -0.02800262
               6.99938988                1.00101265                8.00845622                1.00000000               -0.03365930               -0.03386656                0.11257905                0.00106058                0.00670988               -0.00309417
               7.99905359                1.00149411                8.00862052                0.99999998               -0.03366753               -0.03380448                0.11248183                0.00028749                0.00125328               -0.00018684
               8.99871653                1.00196305                8.00878478                1.00000000               -0.03378319               -0.03383377                0.11280488                0.00017021                0.00069280                0.00023650
               9.99837793                1.00241793                8.00894008                0.99999999               -0.03386038               -0.03393126                0.11307632                0.00069611                0.00017954                0.00632329
               0.00188686                2.00116904                8.00656071                0.01000001               -0.02590276               -0.03623751                0.08551672               -0.01879618                0.00154923                0.00805270
               1.00162784                2.00083327                8.00643585                0.01000000               -0.03279975               -0.02963364                0.08698517               -0.02086945                0.00560884                0.00111064
               2.00123087                2.00045776                8.00639028                0.01000001               -0.03774972               -0.03088288                0.09190748               -0.02119263                0.01008177               -0.00850903
               3.00087284                2.00015543                8.00644198                0.01000001               -0.03705004               -0.02880568                0.09533813               -0.01418774                0.01788177               -0.01528742
               4.00048987                1.99999459                8.00663003                0.01000001               -0.04096812               -0.02848418                0.09938836               -0.00274504                0.02737967               -0.02101729
               5.00005348                2.00002139                8.00699001                0.01000000               -0.04728656               -0.02721707                0.10369224                0.00957389                0.03311489               -0.02505762
               5.99954414                2.00022926                8.00742895                0.01000000               -0.05742578               -0.02663158                0.10598176                0.02688813                0.04566615               -0.04285805
               6.99890496                2.00068198                8.00815311                0.01000002               -0.04813792               -0.03455637                0.10780088                0.03281526                0.02387782               -0.02288376
               7.99858138                2.00116234                8.00830231                0.01406896               -0.03239478               -0.03740620                0.10821677                0.01718933               -0.00678434                0.00420935
               8.99825707                2.00163102                8.00841743                0.99999999               -0.03255226               -0.03260260                0.10885880                0.00023972               -0.00513867               -0.00253384
               9.99793033                2.00208453                8.00860323                0.99999997               -0.03267346               -0.03275140                0.10912017                0.00066079               -0.00166994                0.00634594
               0.00184547                3.00069694                8.00660899                0.01000001               -0.02533061               -0.03992785                0.09332240               -0.01773440               -0.00211108                0.01599365
               1.00159216                3.00049814                8.00647499                0.01000000               -0.02747853               -0.03560064                0.09335683               -0.02630220                0.00051021                0.00726789
               2.00129590                3.00014992                8.00636840                0.01000001               -0.03214458               -0.03407853                0.09433982               -0.02458370                0.00641282               -0.00588800
               3.00094927                2.99985366                8.00635306                0.01000001               -0.03682926               -0.03306763                0.09627430               -0.01147003                0.01419032               -0.01535525
               4.00055931                2.99970789                8.00646270                0.01000000               -0.04182009               -0.03151879                0.09885645                0.00620511                0.02184660               -0.02023986
               5.00011287                2.99974237                8.00669669                0.01000001               -0.04776809               -0.03062551                0.10161282                0.02567540                0.02817426               -0.02275016
               5.99960395                2.99997078                8.00705105                0.01000002               -0.04998792               -0.03104191                0.10461025                0.04389126                0.02989654               -0.02053568
               6.99911311                3.00032152                8.00746125                0.01000002               -0.05778014               -0.03746082                0.10435232                0.06077246                0.03437412               -0.02889207
               7.99844835                3.00074599                8.00807202                0.01000000               -0.06569829               -0.04389706                0.14238088                0.06333858               -0.01000887               -0.00270790
               8.99779915                3.00131100                8.00800730                0.01000000               -0.04821122               -0.04775249                0.10511381                0.06131197               -0.01664062                0.00216423
               9.99748412                3.00176291                8.00824262                0.01002080               -0.03150212               -0.07549000                0.10507605                0.06385842               -0.00166152                0.00011523
               0.00192978                4.00037049                8.00682513                0.01000000               -0.02809631               -0.02674199                0.09829626               -0.01123761               -0.00547372                0.02685758
               1.00164882                4.00012126                8.00660609                0.01000000               -0.02730551               -0.03707814                0.09599426               -0.01732486               -0.00296668                0.00978594
               2.00138367                3.99977619                8.00640286                0.01000001               -0.02816762               -0.04009298                0.09522670               -0.01561699                0.00359780               -0.00458951
               3.00108547                3.99949408                8.00630448                0.01000000               -0.03292053               -0.03925978                0.09639176               -0.00119660                0.01358270               -0.01516381
               4.00072526                3.99936422                8.00633999                0.01000001               -0.03906804               -0.03754347                0.09849139                0.01776198                0.02313611               -0.01808052
               5.00030411                3.99940888                8.00651556                0.01000000               -0.04412220               -0.03688171                0.10134745                0.03607626                0.03027085               -0.01538454
               5.99984282                3.99960843                8.00680110                0.01000001               -0.04794508               -0.03953075                0.10437817                0.05301002                0.03447904               -0.00982679
               6.99934520                3.99993277                8.00717605                0.01000000               -0.04920728               -0.04406527                0.10984993                0.06310365                0.03105801               -0.00116743
               7.99885867                4.00028440                8.00751393                0.01000000               -0.04394068               -0.05021140                0.10783202                0.08034338                0.02342628               -0.00725379
               8.99846639                4.00067597                8.00773627                0.01000000               -0.02774880               -0.06741854                0.11171696                0.07565626                0.00684474                0.01001117
               9.99830370                4.00057473                8.00778160                0.01000003               -0.01626949               -0.09423878                0.10808985                0.05461722                0.00330846               -0.00613864
               0.00211917                5.00016210                8.00712049                0.01000001               -0.02792091               -0.01241267                0.09264054               -0.01073906                0.00037960                0.04835504
               1.00183996                4.99975658                8.00681087                0.01000000               -0.02542164               -0.03810947                0.09344042               -0.01166025                0.00093883                0.01862985
               2.00161074                4.99934806                8.00650917                0.01000000               -0.02513275               -0.04508620                0.09536001               -0.00323987                0.00497431               -0.00783711
               3.00133731                4.99906847                8.00629509                0.01000000               -0.03054974               -0.04499480                0.09583732                0.01359667                0.01616562               -0.01692806
               4.00099975                4.99895702                8.00628184                0.01000000               -0.03735623               -0.04249839                0.09831108                0.02928512                0.03028459               -0.01676145
               5.00059019                4.99900474                8.00643793                0.01000002               -0.04297396               -0.04212458                0.10184338                0.04218554                0.04025121               -0.01007696
               6.00014027                4.99918016                8.00673065                0.01000000               -0.04454882               -0.04508198                0.10617249                0.05114513                0.04551720                0.00135170
               6.99969921                4.99944022                8.00709437                0.01000000               -0.04141248               -0.05227263                0.10996381                0.05832847                0.04547154                0.01329650
               7.99931202                4.99974176                8.00744584                0.01000000               -0.03386310               -0.05996368                0.11335502                0.06084998                0.03855554                0.02547563
               8.99902195                4.99996263                8.00769217                0.01000001               -0.02665350               -0.06954982                0.11394842                0.04623188                0.02440104                0.03223888
               9.99877895                4.99987813                8.00771871                0.01000001               -0.02429992               -0.05889603                0.11237704                0.02459518                0.01569840                0.02493442
               0.00252605                6.00012223                8.00785375                0.96420856               -0.02963927               -0.01761415                0.10275412               -0.01828699               -0.00370859                0.03906776
               1.00222966                5.99935907                8.00727073                0.01000000               -0.02595344               -0.03429271                0.09507929               -0.00553378               -0.00788646                0.00966466
               2.00200698                5.99887446                8.00660676                0.01000000               -0.02406127               -0.05065266                0.09377476                0.01605846               -0.00177423               -0.01561714
               3.00174843                5.99859418                8.00631461                0.01000001               -0.03161454               -0.04610779                0.09474091                0.02956631                0.02490422               -0.02043164
               4.00137469                5.99851425                8.00627591                0.01000006               -0.04118772               -0.04435478                0.09810497                0.03998874                0.04211419               -0.01724620
               5.00092468                5.99856639                8.00645401                0.01000000               -0.04722234               -0.04278223                0.10276448                0.04423087                0.05516035               -0.00677604
               6.00043024                5.99870679                8.00680665                0.01000000               -0.04872514               -0.04545892                0.10835369                0.04142380                0.06333794                0.00899719
               6.99995018                5.99888731                8.00726549                0.01000000               -0.04384941               -0.05455627                0.11413993                0.03420068                0.06486310                0.02892745
               7.99955326                5.99908513                8.00773059                0.01000000               -0.03477592               -0.06685070                0.11874879                0.02739151                0.05718501                0.04996050
               8.99925466                5.99928497                8.00805765                0.01000001               -0.02943276               -0.06977588                0.12078787                0.01823229                0.03629897                0.06677439
               9.99896460                5.99939681                8.00807711                0.01000001               -0.02900563               -0.04581289                0.11859148                0.00972723                0.02263993                0.06955279
               0.00327976                6.99980982                8.00809631                0.99999998               -0.03027040               -0.03152868                0.10478292                0.00026060               -0.00231640                0.01838209
               1.00297706                6.99907072                8.00741746                1.00000000               -0.02914820               -0.02917822                0.09712476               -0.00014295               -0.00593545               -0.00228351
               2.00269680                6.99833500                8.00666781                0.01000001               -0.03441045               -0.04052113                0.08976571                0.02425343                0.01200221               -0.01835220
               3.00228885                6.99814631                8.00635015                0.01000002               -0.04347446               -0.04566550                0.09359356                0.04324902                0.03716723               -0.02467521
               4.00182731                6.99806993                8.00629982                0.01000000               -0.05032928               -0.04306052                0.09760190                0.05007906                0.05615721               -0.02078263
               5.00128226                6.99814910                8.00653343                0.01000000               -0.05897453               -0.03648156                0.10355325                0.04583464                0.07356704               -0.00531363
               6.00064782                6.99827098                8.00700050                0.01000000               -0.06386920               -0.03713393                0.11106960                0.02771905                0.08525283                0.01410705
               7.00000488                6.99834909                8.00764175                0.01000000               -0.05928132               -0.04669687                0.11947045                0.00266850                0.08936198                0.03905553
               7.99946219                6.99840474                8.00833166                0.01000000               -0.04649826               -0.06506890                0.12712217               -0.01842336                0.08086709                0.07620204
               8.99907492                6.99856711                8.00887700                0.01000001               -0.03561869               -0.07763717                0.13156226               -0.01938997                0.05162893                0.10987307
               9.99874982                6.99896187                8.00898411                0.01000000               -0.03250962               -0.05279335                0.12964865               -0.01275802                0.03078384                0.13571579
               0.00400946                7.99949166                8.00841573                0.99999999               -0.03078419               -0.03209092                0.10666650                0.00017871               -0.00087649                0.02253422
               1.00370161                7.99877550                8.00763989                1.00000000               -0.02964979               -0.02976389                0.09899882               -0.00012606               -0.00041247                0.00250318
               2.00341646                7.99806404                8.00687413                0.01000002               -0.04115626               -0.02734874                0.09135098                0.01601172                0.01260374               -0.01490193
               3.00287849                7.99768087                8.00636171                0.01000000               -0.05214857               -0.05209339                0.09187133                0.05725777                0.03831986               -0.04795978
               4.00237349                7.99765304                8.00630491                0.01000000               -0.06190864               -0.03258514                0.09608229                0.06407541                0.07328278               -0.02326026
               5.00164032                7.99783676                8.00664685                0.01000000               -0.07944290               -0.02237126                0.10376314                0.04687044                0.09393006               -0.00400976
               6.00078463                7.99796411                8.00725020                0.01000000               -0.08852663               -0.02240603                0.11323903                0.01640400                0.10727875                0.01543282
               6.99986978                7.99795338                8.00811991                0.01000000               -0.09089323               -0.02824659                0.12468414               -0.02305362                0.12375940                0.04037930
               7.99896677                7.99778375                8.00928589                0.01000000               -0.07800264               -0.04568006                0.13845182               -0.06635728                0.11935930                0.08305565
               8.99830973                7.99773223                8.01024909                0.01000000               -0.05234217               -0.08030841                0.14760409               -0.09228235                0.07998233                0.20261132
               9.99791992                7.99834094                8.01070389                0.01000001               -0.03898078               -0.10868143                0.14881776               -0.06966413                0.05477305                0.21197361
               0.00471565                8.99916800                8.00873921                0.99999998               -0.03134913               -0.03261303                0.10840616                0.00020917                0.00233816                0.01811488
               1.00440216                8.99847544                8.00788253                0.99999996               -0.03019900               -0.03022307                0.10064047               -0.00006946                0.00137825                0.00218754
               2.00411167                8.99778803                8.00700706                0.99999999               -0.02785746               -0.02786364                0.09274353               -0.00012019               -0.00449445               -0.01093082
               3.00384501                8.99710444                8.00603588                0.01000000               -0.05793698               -0.04162328                0.08466295                0.06323133                0.05477077               -0.03967385
               4.00295293                8.99741823                8.00635164                0.01000000               -0.09682019               -0.00881066                0.09441610                0.06345480                0.10636779               -0.01775805
               5.00190860                8.99770167                8.00676234                0.01000001               -0.10468233               -0.00747474                0.10301713                0.03419722                0.10660294               -0.00116265
               6.00085928                8.99782286                8.00747158                0.01000001               -0.10922189               -0.00910236                0.11374541                0.00859931                0.12332985                0.01135571
               6.99972417                8.99778416                8.00854913                0.01000001               -0.12515417               -0.01113787                0.12766852               -0.02153445                0.15081275                0.02751161
               7.99835620                8.99749114                8.01010918                0.01000001               -0.15260427               -0.01289921                0.14605693               -0.06610005                0.22856256                0.06022908
               8.99667208                8.99696094                8.01305599                1.00000000               -0.11085437               -0.06519993                0.18094665               -0.10964207                0.13962170                0.13631333
               9.99613911                8.99678824                8.01318796                1.00000000               -0.05329694               -0.10303361                0.17352412               -0.09766315               -0.00098823                0.11806092
               0.00539875                9.99883940                8.00896788                1.00000000               -0.03185553               -0.03286018                0.11008898                0.00147474                0.01252759                0.01342891
               1.00508020                9.99817104                8.00809926                0.99999999               -0.03068479               -0.03044017                0.10231889                0.00117241                0.01573041                0.00080295
               2.00478506                9.99750677                8.00729579                1.00000000               -0.02836387               -0.02812614                0.09451978                0.00120685                0.01568984               -0.00337242
               3.00451292                9.99684840                8.00643069                0.01000000               -0.08698486               -0.02560409                0.08675094                0.06529403                0.05654022               -0.00408386
               4.00304536                9.99747683                8.00645132                0.01000000               -0.12966478                0.00585998                0.09300074                0.05118605                0.08757400               -0.00716580
               5.00191962                9.99768726                8.00685747                0.01000000               -0.10856147               -0.00144064                0.10142143                0.01636376                0.10204640                0.00399481
               6.00087413                9.99778206                8.00756533                0.01000001               -0.10744051               -0.00408014                0.11173668                0.00365248                0.12333496                0.01047016
               6.99977081                9.99773062                8.00870393                0.01000000               -0.12030750               -0.00535392                0.12578376               -0.00815001                0.16721194                0.01909283
               7.99846798                9.99752577                8.01056595                0.01000004               -0.14755117                0.00346225                0.14704042               -0.05394157                0.22579739                0.04884631
               8.99681979                9.99642823                8.01315908                0.99999947               -0.10779581               -0.05327178                0.17337429               -0.04750409                0.12430242                0.00124395
               9.99631206                9.99628027                8.01329104                0.99999999               -0.05077269               -0.05079771                0.16595133                0.00249908                0.00111101               -0.00111028
               0.00126019                0.00172844                9.00744101                1.00000000               -0.02451356               -0.02463998                0.08111806                0.00052631               -0.00365107                0.00341072
               1.00101505                0.00135598                9.00736845                1.00000000               -0.02470206               -0.02504595                0.08243472                0.00021496               -0.00406643               -0.00107985
               2.00076615                0.00099021                9.00728951                0.01000001               -0.01954387               -0.02545362                0.08375015                0.00168059                0.00798895               -0.00170447
               3.00062417                0.00066093                9.00745899                0.01000001               -0.01415384               -0.03106642                0.09282552               -0.00379551                0.03000097               -0.00870149
               4.00048307                0.00054133                9.00783568                0.01000000               -0.01518577               -0.03182903                0.10058390               -0.00144023                0.05565186               -0.01135609
               5.00032046                0.00066679                9.00853004                0.01000000               -0.01829721               -0.03368666                0.10878170                0.00261069                0.08706065               -0.01531347
               6.00011713                0.00110893                9.00958948                0.43942779               -0.02741612               -0.03399564                0.11709710               -0.00529248                0.05898126               -0.00182530
               6.99977214                0.00164935                9.00992467                1.00000000               -0.03474559               -0.03446237                0.11692980                0.00010460                0.01553799               -0.00315542
               7.99942221                0.00217705                9.01010929                1.00000000               -0.03501022               -0.03447137                0.11682938                0.00011425                0.00879431               -0.00034405
               8.99907193                0.00269326                9.01031100                0.99999999               -0.03508725               -0.03449623                0.11699583                0.00009238                0.00759397                0.00085751
               9.99872047                0.00319667                9.01047361                1.00000000               -0.03514638               -0.03456105                0.11721556                0.00068440                0.00561177                0.00514589
               0.00163791                1.00148205                9.00742445                1.00000000               -0.02515973               -0.02494376                0.08320396                0.00033031                0.00101972                0.00367928
               1.00138632                1.00110552                9.00735315                0.01000001               -0.02537176               -0.02536494                0.08451915                0.00001739                0.00268107               -0.00280438
               2.00113048                1.00073568                9.00731512                0.01000000               -0.02878275               -0.02918195                0.08583604               -0.00992748                0.01377900               -0.00336020
               3.00081066                1.00035026                9.00746471                0.01000000               -0.03323716               -0.02889627                0.09386629               -0.01050544                0.02729024               -0.01162458
               4.00046574                1.00022304                9.00778867                0.01000003               -0.03739473               -0.02958095                0.09992033               -0.00093522                0.04171079               -0.01583852
               5.00006277                1.00032992                9.00833633                0.01000000               -0.04464088               -0.02996150                0.10628643                0.01028729                0.06706812               -0.01962808
               5.99957292                1.00076897                9.00931420                0.01000000               -0.04118247               -0.03579184                0.11308896                0.01363356                0.04700551               -0.02726426
               6.99923912                1.00130473                9.00958235                1.00000000               -0.03357588               -0.03383077                0.11266016               -0.00013629                0.00642810               -0.00330542
               7.99890140                1.00183234                9.00974728                0.99999998               -0.03380355               -0.03386051                0.11276572                0.00011924                0.00125945               -0.00026978
               8.99856305                1.00234830                9.00991385                0.99999996               -0.03387485               -0.03389627                0.11300272                0.00010113                0.00079821                0.00035197
               9.99822390                1.00285106                9.01007144                1.00000000               -0.03391433               -0.03397180                0.11322855                0.00063680                0.00028856                0.00638865
               0.00201984                2.00122957                9.00741472                0.01000000               -0.02580733               -0.03818011                0.08529053               -0.02195346                0.00154657                0.01081465
               1.00176177                2.00084868                9.00730379                0.01000000               -0.03484927               -0.03148585                0.08660150               -0.02461948                0.00734589                0.00310959
               2.00132286                2.00040657                9.00730694                0.01000001               -0.04175311               -0.03297699                0.09147634               -0.02384551                0.01327901               -0.00630198
               3.00092671                2.00008300                9.00739391                0.01000000               -0.04190751               -0.02932448                0.09506751               -0.01119379                0.02090533               -0.01514428
               4.00048470                1.99994971                9.00762433                0.01000001               -0.04732156               -0.02855054                0.09937541                0.00625054                0.03082581               -0.02110962
               4.99998027                2.00006756                9.00802585                0.01000000               -0.05348577               -0.02842151                0.10361789                0.02398872                0.03621099               -0.02553622
               5.99941499                2.00039309                9.00849878                0.01000001               -0.06371175               -0.03367606                0.10701448                0.04251896                0.04755382               -0.04271046
               6.99870604                2.00097274                9.00923496                0.01000000               -0.05169816               -0.03849876                0.10837803                0.03748065                0.02444926               -0.02444206
               7.99838103                2.00149984                9.00938711                0.02526843               -0.03254027               -0.02948578                0.10866261                0.00094233               -0.00647395                0.03305611
               8.99805523                2.00201534                9.00950728                0.99999999               -0.03266714               -0.03270646                0.10910870                0.00012608               -0.00482604               -0.00227583
               9.99772768                2.00251724                9.00969495                0.99999999               -0.03275499               -0.03279983                0.10930354                0.00062280               -0.00153750                0.00639779
               0.00196062                3.00071844                9.00754053                0.01000000               -0.02436973               -0.04140011                0.09252146               -0.01999985               -0.00183101                0.02024620
               1.00171692                3.00047580                9.00740535                0.01000000               -0.02706852               -0.03982227                0.09261683               -0.02831763                0.00100477                0.00953428
               2.00141925                3.00007614                9.00730856                0.01000000               -0.03366353               -0.03774393                0.09382480               -0.02287041                0.00795475               -0.00572474
               3.00104365                2.99976377                9.00731558                0.01000003               -0.04065302               -0.03581373                0.09616731               -0.00451834                0.01677567               -0.01569015
               4.00060619                2.99965203                9.00745245                0.01000001               -0.04722446               -0.03371213                0.09897034                0.01858520                0.02479758               -0.02029925
               5.00009916                2.99976149                9.00771413                0.01000002               -0.05440350               -0.03368610                0.10207192                0.04230982                0.03154654               -0.02189801
               5.99951812                3.00009545                9.00810545                0.01000000               -0.06085936               -0.03521097                0.10481951                0.06083406                0.02945784               -0.01869873
               6.99888198                3.00053475                9.00847144                0.01000002               -0.08202359               -0.04143436                0.10881503                0.08660477                0.05881481               -0.02301654
               7.99787765                3.00124263                9.00969289                0.01000001               -0.06668995               -0.04498089                0.11539444                0.08091857               -0.00774223               -0.00175867
               8.99754818                3.00169417                9.00905925                0.01000000               -0.03225417               -0.05306153                0.10532240                0.06537558               -0.04500938                0.00751335
               9.99723256                3.00219507                9.00929412                0.07900747               -0.03156127               -0.08622683                0.10533078                0.07880709               -0.00166434                0.00349856
               0.00210512                4.00040157                9.00778329                0.01000003               -0.02674001               -0.02733635                0.09634118               -0.00953332               -0.00399753                0.03347012
               1.00183772                4.00005224                9.00755666                0.01000001               -0.02638209               -0.04297156                0.09520180               -0.01524303               -0.00148020                0.01131712
               2.00157748                3.99965170                9.00735719                0.01000001               -0.02886357               -0.04591216                0.09531609               -0.00867339                0.00595286               -0.00595503
               3.00126045                3.99936673                9.00726881                0.01000001               -0.03593944               -0.04369183                0.09645645                0.01055952                0.01693072               -0.01613061
               4.00085869                3.99927547                9.00732699                0.01000001               -0.04386995               -0.04142649                0.09881415                0.03342674                0.02740130               -0.01799925
               5.00038305                3.99939384                9.00753214                0.01000001               -0.05001402               -0.04084694                0.10179934                0.05489089                0.03477065               -0.01344922
               5.99985841                3.99968887                9.00784706                0.01000000               -0.05460465               -0.04428978                0.10520994                0.07566633                0.04017571               -0.00593250
               6.99929096                4.00014405                9.00828426                0.01000000               -0.05092146               -0.04895807                0.10872399                0.09207194                0.03198534                0.00770734
               7.99883998                4.00060023                9.00855205                0.01000001               -0.04403260               -0.06641559                0.11096062                0.11725615                0.02492076               -0.02299671
               8.99841030                4.00095411                9.00885065                0.01000000               -0.02689703               -0.07712594                0.11027574                0.08969572                0.01097671                0.01920378
               9.99830204                4.00079270                9.00886121                0.01000001               -0.01082654               -0.10991014                0.10809560                0.06855330                0.00183671                0.00067872
               0.00246861                5.00017172                9.00817733                0.01000002               -0.03066815               -0.01922461                0.10366172               -0.00528355               -0.00301099                0.05440573
               1.00216193                4.99961637                9.00779536                0.01000000               -0.02686618               -0.04538419                0.09815589               -0.00193272               -0.00087832                0.01808021
               2.00193129                4.99915789                9.00745533                0.01000000               -0.02654305               -0.05104164                0.09495502                0.00969645                0.00767478               -0.01027248
               3.00163107                4.99888994                9.00725723                0.01000002               -0.03418387               -0.05043105                0.09625223                0.02975429                0.02174152               -0.01854943
               4.00124761                4.99882350                9.00726710                0.01000001               -0.04237471               -0.04700925                0.09872295                0.04735003                0.03660604               -0.01659751
               5.00078358                4.99894455                9.00745937                0.01000001               -0.04831907               -0.04665645                0.10235679                0.06189264                0.04737725               -0.00759969
               6.00028123                4.99920965                9.00779501                0.01000000               -0.04857605               -0.05048780                0.10650930                0.07171637                0.05256899                0.00651183
               6.99981206                4.99955559                9.00819409                0.01000000               -0.04342596               -0.06090586                0.11051130                0.07872901                0.05235234                0.01962656
               7.99941271                4.99991431                9.00858775                0.01000000               -0.03312198               -0.07159509                0.11320536                0.07550304                0.04385593                0.03778470
               8.99914962                5.00015165                9.00883137                0.01000001               -0.02431338               -0.07843345                0.11408946                0.05702559                0.02700667                0.04164170
               9.99892645                4.99999686                9.00884345                0.01000001               -0.02231716               -0.06556327                0.11243582                0.02919217                0.01763412                0.03386431
               0.00311013                6.00001708                9.00888158                0.95193778               -0.02972468               -0.02334144                0.10281780               -0.01199203               -0.00372805                0.03702660
               1.00281289                5.99914455                9.00822407                0.01000000               -0.03061450               -0.03805714                0.09559458                0.00611285               -0.00478142                0.00747938
               2.00249784                5.99863086                9.00754733                0.01000001               -0.03114778               -0.05744023                0.09434663                0.03354267                0.00413163               -0.01941571
               3.00218993                5.99835811                9.00726400                0.01000000               -0.03733856               -0.05088355                0.09517574                0.04756965                0.03245002               -0.02250061
               4.00175107                5.99833528                9.00725961                0.01000000               -0.04775919               -0.04869481                0.09859653                0.05917660                0.05113176               -0.01722998
               5.00123475                5.99846071                9.00748451                0.01000000               -0.05346877               -0.04677657                0.10326588                0.06290572                0.06501720               -0.00418646
               6.00068170                5.99867911                9.00789265                0.01000000               -0.05369361               -0.05013127                0.10879330                0.05801133                0.07363616                0.01456095
               7.00016088                5.99892593                9.00840881                0.01000000               -0.04638586               -0.06101863                0.11438945                0.04702027                0.07462167                0.03795431
               7.99975398                5.99916832                9.00891744                0.01000000               -0.03463042               -0.07492214                0.11895684                0.03651329                0.06518448                0.06130976
               8.99946827                5.99938544                9.00926679                0.01000000               -0.02792578               -0.07767497                0.12096214                0.02290053                0.04101647                0.08038472
               9.99919546                5.99948143                9.00926550                0.01000003               -0.02728027               -0.04828103                0.11905087                0.01219438                0.02504695                0.08232910
               0.00397382                6.99970489                9.00914424                1.00000000               -0.03034167               -0.03148119                0.10480787                0.00028179               -0.00235673                0.01869421
               1.00367040                6.99885523                9.00839035                0.99999997               -0.02926137               -0.02925445                0.09748718               -0.00009700               -0.00585406               -0.00203510
               2.00338859                6.99800909                9.00756797                0.01000000               -0.03961776               -0.04473008                0.09037082                0.03695624                0.01770961               -0.02129163
               3.00287805                6.99787227                9.00728868                0.01000002               -0.05300238               -0.05029444                0.09402093                0.06165922                0.04778876               -0.02695431
               4.00232854                6.99784960                9.00727853                0.01000000               -0.05900931               -0.04699508                0.09818393                0.06922055                0.06734776               -0.02148205
               5.00169786                6.99800902                9.00757193                0.01000000               -0.06761550               -0.03847328                0.10411021                0.06317768                0.08623009               -0.00308977
               6.00097623                6.99820703                9.00811362                0.01000000               -0.07173048               -0.03897898                0.11150806                0.03994129                0.09896441                0.01964811
               7.00026325                6.99833522                9.00883776                0.01000000               -0.06463799               -0.04997424                0.11971853                0.00856298                0.10314350                0.04853868
               7.99968347                6.99841587                9.00960378                0.01000095               -0.04843665               -0.07071131                0.12720612               -0.01804145                0.09270348                0.09110220
               8.99929452                6.99859815                9.01019349                0.01000001               -0.03525660               -0.08420721                0.13170462               -0.02093301                0.05862341                0.12848768
               9.99897834                6.99903124                9.01028337                0.01000000               -0.03161762               -0.05457703                0.13014217               -0.01425922                0.03439889                0.15561964
               0.00481508                7.99938745                9.00948156                0.99999999               -0.03083382               -0.03201326                0.10653617                0.00022855               -0.00085014                0.02266523
               1.00450674                7.99855946                9.00863104                1.00000000               -0.02975746               -0.02982198                0.09927789               -0.00005006               -0.00039459                0.00254693
               2.00421993                7.99773626                9.00779065                0.01000000               -0.04620700               -0.02753653                0.09201825                0.02163540                0.01665525               -0.01512892
               3.00358260                7.99735222                9.00728453                0.01000000               -0.06106033               -0.06049280                0.09277927                0.07699665                0.04766879               -0.05321370
               4.00299873                7.99739538                9.00726985                0.01000001               -0.07208644               -0.03410670                0.09678921                0.08500683                0.08615799               -0.02472120
               5.00214088                7.99769124                9.00768814                0.01000000               -0.09222009               -0.02075435                0.10449421                0.06273983                0.10908275               -0.00249410
               6.00115433                7.99789953                9.00838562                0.01000000               -0.10087923               -0.02057508                0.11380836                0.02456305                0.12409248                0.01994580
               7.00012329                7.99792645                9.00936840                0.01000004               -0.10120539               -0.02725078                0.12498235               -0.02306807                0.14270327                0.04884205
               7.99913022                7.99775410                9.01067041                0.01000000               -0.08445279               -0.04665914                0.13844663               -0.07422890                0.13731590                0.09786995
               8.99843424                7.99770130                9.01172499                0.01000004               -0.05430565               -0.08456054                0.14755527               -0.10463516                0.09167421                0.23319051
               9.99804410                7.99838989                9.01219350                0.01000001               -0.03901310               -0.11590557                0.14907151               -0.07833842                0.06210798                0.23966107
               0.00563436                8.99906462                9.00982249                0.99999999               -0.03137741               -0.03254598                0.10827020                0.00024088                0.00231764                0.01815853
               1.00532059                8.99825879                9.00889044                0.99999996               -0.03029094               -0.03029893                0.10095636               -0.00002042                0.00130233                0.00212931
               2.00502855                8.99745836                9.00793871                0.99999999               -0.02808645               -0.02807385                0.09357602               -0.00003758               -0.00469360               -0.01114486
               3.00475886                8.99666241                9.00688993                0.01000000               -0.06694455               -0.04750126                0.08609326                0.08333373                0.06319250               -0.04416919
               4.00368965                8.99716747                9.00730201                0.01000000               -0.11551791               -0.00442428                0.09560571                0.08358819                0.12252648               -0.01917767
               5.00244850                8.99759394                9.00779823                0.01000001               -0.12286832               -0.00245031                0.10408720                0.04495301                0.12275636               -0.00042387
               6.00123229                8.99779553                9.00861373                0.01000000               -0.12505895               -0.00447522                0.11461366                0.01274791                0.14190144                0.01391045
               6.99994732                8.99779021                9.00982877                0.01000001               -0.14041192               -0.00684899                0.12821008               -0.02318070                0.17325510                0.03254909
               7.99842405                8.99748269                9.01157046                0.01000001               -0.16906527               -0.00838842                0.14617447               -0.07416130                0.26167197                0.07018683
               8.99656602                8.99690694                9.01486163                1.00000000               -0.11948377               -0.06629271                0.18018171               -0.12332061                0.16036583                0.15638559
               9.99603437                8.99671313                9.01492304                0.99999997               -0.05316445               -0.10929794                0.17349084               -0.11017025               -0.00098820                0.13392037
               0.00643156                9.99873653                9.01006831                1.00000000               -0.03189631               -0.03280902                0.10997970                0.00141512                0.01255095                0.01345093
               1.00611260                9.99795349                9.00912429                1.00000000               -0.03079995               -0.03053057                0.10266326                0.00111352                0.01576488                0.00075851
               2.00581556                9.99717479                9.00824524                1.00000000               -0.02862140               -0.02835742                0.09533664                0.00113710                0.01575915               -0.00345376
               3.00554017                9.99640219                9.00730467                0.01118178               -0.10382991               -0.02602175                0.08801422                0.08473645                0.06363334               -0.00410801
               4.00373896                9.99730689                9.00738940                0.01000000               -0.15641465                0.01394274                0.09447596                0.06693325                0.10107627               -0.00816297
               5.00241188                9.99764224                9.00787974                0.01000001               -0.12629754                0.00483010                0.10287364                0.02149421                0.11697552                0.00450279
               6.00121301                9.99781003                9.00869007                0.01000003               -0.12196818                0.00145043                0.11306178                0.00543421                0.14094342                0.01189146
               6.99997251                9.99778947                9.00996743                0.01000000               -0.13413805               -0.00007358                0.12681025               -0.00866595                0.19036023                0.02173731
               7.99853025                9.99758633                9.01203928                0.01000000               -0.16175671                0.01036423                0.14757421               -0.06008112                0.25538775                0.05550563
               8.99673738                9.99637544                9.01489299                0.99999997               -0.11509641               -0.05315030                0.17340691               -0.05198362                0.14086002                0.00124506
               9.99622832                9.99620394                9.01495439                1.00000000               -0.05090553               -0.05091955                0.16671791                0.00224451                0.00111035               -0.00111177
               0.00128965                0.00176870               10.00825420                1.00000000               -0.02460900               -0.02471360                0.08151534                0.00045230               -0.00365617                0.00341034
               1.00104356                0.00135005               10.00819387                1.00000000               -0.02477157               -0.02506529                0.08265506                0.00018634               -0.00407050               -0.00107810
               2.00079421                0.00093711               10.00812717                0.01000000               -0.01969007               -0.02541630                0.08379579                0.00189864                0.01186671               -0.00170501
               3.00064975                0.00056457               10.00838652                0.01000001               -0.01450193               -0.03022103                0.09269261               -0.00369644                0.03818009               -0.00832711
               4.00050418                0.00047845               10.00884177                0.01000000               -0.01650690               -0.03062987                0.10043025                0.00142993                0.06366019               -0.01138795
               5.00031962                0.00071598               10.00961336                0.01000001               -0.02460283               -0.03176382                0.10801458                0.01122907                0.09607635               -0.01577950
               6.00001212                0.00139849               10.01076207                0.42427708               -0.03271076               -0.03496640                0.11692326                0.00411856                0.06324351               -0.00094858
               6.99966540                0.00198085               10.01109342                1.00000000               -0.03482630               -0.03446028                0.11677057               -0.00014937                0.01498204               -0.00332609
               7.99931559                0.00255557               10.01127765                1.00000000               -0.03501754               -0.03446702                0.11680320                0.00008274                0.00861441               -0.00039008
               8.99896505                0.00311913               10.01148139                1.00000000               -0.03512041               -0.03453205                0.11705563                0.00007114                0.00762040                0.00087520
               9.99861318                0.00367041               10.01164611                1.00000000               -0.03518652               -0.03460393                0.11730997                0.00066185                0.00563822                0.00517716
               0.00171282                1.00152157               10.00825694                1.00000000               -0.02516102               -0.02497227                0.08329341                0.00028401                0.00101708                0.00367867
               1.00146121                1.00109939               10.00819791                0.01000000               -0.02534439               -0.02533875                0.08443485                0.00001852                0.00267714               -0.00280200
               2.00120594                1.00068295               10.00817209                0.01000000               -0.03095470               -0.02994146                0.08557443               -0.01124580                0.01718209               -0.00153302
               3.00084212                1.00026236               10.00840207                0.01000000               -0.03815815               -0.02814512                0.09361911               -0.00934969                0.03354386               -0.01131285
               4.00044277                1.00017215               10.00878798                0.01000002               -0.04351152               -0.02849168                0.09975281                0.00531211                0.04720352               -0.01601155
               4.99997189                1.00039834               10.00939545                0.01000000               -0.05109526               -0.02915578                0.10566704                0.02301511                0.07363208               -0.01978218
               5.99942087                1.00104882               10.01044763                0.01000000               -0.04432625               -0.04073366                0.11305926                0.02559462                0.05027253               -0.02929835
               6.99908536                1.00163625               10.01070942                1.00000000               -0.03367945               -0.03383982                0.11270348                0.00011500                0.00590908               -0.00352820
               7.99874728                1.00221090               10.01087583                0.99999998               -0.03385112               -0.03388558                0.11289842                0.00007787                0.00124251               -0.00030667
               8.99840834                1.00277381               10.01104484                0.99999996               -0.03393760               -0.03395160                0.11317907                0.00005648                0.00086286                0.00041039
               9.99806853                1.00332437               10.01120465                0.99999997               -0.03398151               -0.03403025                0.11344095                0.00060902                0.00033862                0.00643169
               0.00213967                2.00126926               10.00826652                0.01000000               -0.02571278               -0.03941324                0.08507090               -0.02427923                0.00154755                0.01320242
               1.00188254                2.00084327               10.00816788                0.01000000               -0.03666716               -0.03317192                0.08621555               -0.02739791                0.00917005                0.00504008
               2.00140633                2.00033828               10.00821981                0.01000001               -0.04544932               -0.03488902                0.09110981               -0.02513864                0.01680170               -0.00395326
               3.00097356                2.00000167               10.00834333                0.01000000               -0.04659424               -0.02987039                0.09479710               -0.00654459                0.02435615               -0.01480305
               4.00047444                1.99990862               10.00861754                0.01000001               -0.05351536               -0.02864509                0.09919770                0.01725627                0.03480384               -0.02118058
               4.99990325                2.00013286               10.00906237                0.01000001               -0.05941697               -0.03001052                0.10354199                0.03970543                0.03986484               -0.02542508
               5.99928610                2.00058381               10.00956924                0.01000001               -0.06988136               -0.04001507                0.10679214                0.05930644                0.05013044               -0.04421147
               6.99850562                2.00130405               10.01032067                0.01000000               -0.05532588               -0.04121746                0.10866069                0.04553225                0.02514745               -0.01850036
               7.99817959                2.00187786               10.01047556                0.02790440               -0.03264559               -0.03325166                0.10897009                0.00472294               -0.00629913                0.01495708
               8.99785271                2.00244010               10.01059961                0.99999999               -0.03276677               -0.03279596                0.10936177                0.00006669               -0.00465438               -0.00212699
               9.99752425                2.00298980               10.01078930                0.99999999               -0.03284600               -0.03288812                0.10960749                0.00059915               -0.00146664                0.00641896
               0.00207921                3.00073330               10.00845941                0.01000001               -0.02349803               -0.04330849                0.09176326               -0.02156338               -0.00107298                0.02520806
               1.00184423                3.00043595               10.00832732                0.01000000               -0.02672235               -0.04428441                0.09202454               -0.02926809                0.00216746                0.01223311
               2.00154476                2.99998517               10.00824490                0.01000000               -0.03516684               -0.04139874                0.09346997               -0.01933775                0.01021217               -0.00539936
               3.00114089                2.99966496               10.00827641                0.01000000               -0.04440269               -0.03859287                0.09596709                0.00474049                0.01985849               -0.01576847
               4.00065671                2.99959925               10.00844211                0.01000001               -0.05250447               -0.03595185                0.09894775                0.03343468                0.02846537               -0.02017707
               5.00009080                2.99979813               10.00873813                0.01000002               -0.06104522               -0.03690982                0.10218919                0.06127318                0.03487213               -0.02109439
               5.99943580                3.00024852               10.00914744                0.01000000               -0.06944202               -0.03917984                0.10522275                0.08109400                0.03749302               -0.01641195
               6.99870196                3.00081190               10.00963755                0.01000000               -0.08650568               -0.04698961                0.10953473                0.10358217                0.04745705               -0.02020953
               7.99770569                3.00154587               10.01037991                0.01000000               -0.07021160               -0.04741282                0.09150762                0.09585490               -0.00055091               -0.00007987
               8.99729773                3.00211789               10.01011375                0.01000000               -0.03622937               -0.05760880                0.10560951                0.08223969               -0.02663293                0.01143372
               9.99698110                3.00266661               10.01034924                0.12528181               -0.03166274               -0.09754162                0.10574527                0.09462434               -0.00166291                0.00678498
               0.00230309                4.00040309               10.00875196                0.01000003               -0.02577813               -0.02906887                0.09676426               -0.00736659               -0.00345705                0.03679244
               1.00204531                3.99995758               10.00851012                0.01000001               -0.02562619               -0.04925934                0.09524375               -0.00963075               -0.00029702                0.01211194
               2.00179057                3.99951031               10.00830918                0.01000001               -0.02955148               -0.05163525                0.09512744                0.00149219                0.00853605               -0.00676863
               3.00145428                3.99922981               10.00823361                0.01000001               -0.03903038               -0.04813332                0.09646639                0.02493783                0.02073359               -0.01692635
               4.00100996                3.99918958               10.00831627                0.01000000               -0.04874202               -0.04534022                0.09894114                0.05189350                0.03200682               -0.01777740
               5.00047944                3.99939467               10.00855155                0.01000000               -0.05578750               -0.04488753                0.10204511                0.07648278                0.04014191               -0.01184518
               5.99989421                3.99980022               10.00890530                0.01000001               -0.05997626               -0.04918534                0.10542776                0.09953581                0.04500056               -0.00226176
               6.99927992                4.00036426               10.00935053                0.01000001               -0.05517624               -0.05518546                0.10733022                0.11904655                0.04126494                0.00720723
               7.99879069                4.00092960               10.00973314                0.01000001               -0.04515772               -0.07068992                0.11130205                0.13849157                0.02740989               -0.00171149
               8.99837676                4.00128793               10.00994179                0.01000000               -0.02356902               -0.08692828                0.10877085                0.10590140                0.00785416                0.02747075
               9.99831931                4.00103897               10.00994351                0.01000001               -0.00574557               -0.12577407                0.10818692                0.08142307                0.00257187                0.00722760
               0.00282288                5.00015192               10.00919373                0.01000001               -0.02784919               -0.02536182                0.10080211                0.00305547               -0.00415515                0.05583829
               1.00254439                4.99945077               10.00877398                0.01000000               -0.02602552               -0.05219547                0.09741069                0.01117522                0.00068243                0.01624351
               2.00230237                4.99895246               10.00840827                0.01000001               -0.02920086               -0.05683951                0.09546953                0.02553154                0.01132877               -0.01213265
               3.00196038                4.99870229               10.00822014                0.01000002               -0.03863234               -0.05585496                0.09641820                0.04854267                0.02718774               -0.01996961
               4.00152973                4.99869245               10.00825630                0.01000000               -0.04752762               -0.05156817                0.09902714                0.06824749                0.04315658               -0.01644286
               5.00100982                4.99890038               10.00848506                0.01000001               -0.05364021               -0.05122840                0.10264179                0.08424572                0.05454557               -0.00542303
               6.00045692                4.99926481               10.00886084                0.01000000               -0.05281585               -0.05604140                0.10664324                0.09461293                0.06019275                0.01052362
               6.99995351                4.99970819               10.00930459                0.01000001               -0.04525324               -0.06807645                0.11060866                0.10025776                0.05849951                0.02655645
               7.99955186                5.00013207               10.00970995                0.01000000               -0.03235584               -0.08171521                0.11312643                0.09397095                0.04873254                0.04218742
               8.99930639                5.00037933               10.00997396                0.01000000               -0.02221939               -0.08786944                0.11407489                0.06846071                0.02996120                0.05118433
               9.99910747                5.00015113               10.00996743                0.01000000               -0.01989185               -0.07177565                0.11240265                0.03462013                0.01877813                0.04254236
               0.00376651                5.99989585               10.00991010                0.93926172               -0.02982370               -0.02841015                0.10288070               -0.00234068               -0.00372422                0.03700331
               1.00346828                5.99891367               10.00918262                0.01000000               -0.03584174               -0.04138587                0.09610725                0.01847652               -0.00188560                0.00574709
               2.00304968                5.99837352               10.00849369                0.01000001               -0.03915619               -0.06433015                0.09486627                0.05246636                0.00975656               -0.02317771
               3.00268515                5.99811272               10.00821813                0.01000000               -0.04364276               -0.05577961                0.09570056                0.06791926                0.03981930               -0.02443185
               4.00217682                5.99815822               10.00824784                0.01000001               -0.05465817               -0.05311961                0.09904918                0.08093345                0.05997966               -0.01729168
               5.00159199                5.99837010               10.00851932                0.01000000               -0.05990819               -0.05083531                0.10364086                0.08415604                0.07472175               -0.00192735
               6.00097866                5.99867939               10.00898252                0.01000000               -0.05870865               -0.05469209                0.10905452                0.07684967                0.08361943                0.01963398
               7.00041782                5.99900273               10.00955327                0.01000000               -0.04898459               -0.06739571                0.11453018                0.06199999                0.08417322                0.04581593
               7.99999897                5.99929530               10.01010973                0.01000000               -0.03454485               -0.08291274                0.11901692                0.04682353                0.07280387                0.07281356
               8.99972692                5.99953054               10.01047689                0.01000000               -0.02654278               -0.08503311                0.12103216                0.02847802                0.04529477                0.09325693
               9.99946811                5.99960346               10.01045813                0.01000000               -0.02588071               -0.05024313                0.11938923                0.01482045                0.02731496                0.09479970
               0.00474042                6.99958372               10.01019247                1.00000000               -0.03041684               -0.03145676                0.10482912                0.00028253               -0.00246010                0.01889203
               1.00443626                6.99862305               10.00936721                1.00000000               -0.02938822               -0.02936623                0.09789717               -0.00007474               -0.00586664               -0.00190643
               2.00415266                6.99766586               10.00847522                0.01000000               -0.04510975               -0.04913990                0.09112810                0.05050194                0.02298046               -0.02413557
               3.00353406                6.99758670               10.00823057                0.01000000               -0.06308228               -0.05486866                0.09467311                0.08158517                0.05788236               -0.02934205
               4.00289101                6.99763005               10.00826350                0.01000001               -0.06811437               -0.05115414                0.09882326                0.09065987                0.07851066               -0.02242458
               5.00217177                6.99788367               10.00861563                0.01000001               -0.07648666               -0.04047595                0.10462788                0.08275630                0.09847291               -0.00103766
               6.00136128                6.99817097               10.00923066                0.01000000               -0.07970893               -0.04082363                0.11185665                0.05420780                0.11215139                0.02475522
               7.00057759                6.99836028               10.01003612                0.01000000               -0.07003776               -0.05317664                0.11987651                0.01620410                0.11628747                0.05747509
               7.99996053                6.99847381               10.01087578                0.01000002               -0.05049026               -0.07604136                0.12723327               -0.01620413                0.10400036                0.10507487
               8.99956779                6.99867867               10.01151109                0.01000001               -0.03512455               -0.09013199                0.13177152               -0.02171739                0.06534844                0.14638463
               9.99925803                6.99914626               10.01158695                0.01000002               -0.03097548               -0.05544821                0.13051679               -0.01539300                0.03787667                0.17485224
               0.00569350                7.99926671               10.01054645                0.99999999               -0.03088620               -0.03196479                0.10645238                0.00024756               -0.00083764                0.02271649
               1.00538464                7.99832635               10.00962545                1.00000000               -0.02987167               -0.02991334                0.09962265               -0.00001318               -0.00038660                0.00257184
               2.00509607                7.99739072               10.00871449                0.01000000               -0.05159896               -0.02776611                0.09278234                0.02773192                0.02062587               -0.01524879
               3.00435266                7.99701534               10.00821729                0.01000000               -0.07015120               -0.06928868                0.09344637                0.09779553                0.05831633               -0.06007979
               4.00369305                7.99713513               10.00824070                0.01000002               -0.08232323               -0.03574652                0.09759301                0.10746919                0.09882478               -0.02578123
               5.00270620                7.99756058               10.00873673                0.01000000               -0.10534169               -0.01910432                0.10523380                0.08040083                0.12376573               -0.00106402
               6.00158621                7.99786292               10.00952637                0.01000000               -0.11335710               -0.01871766                0.11429551                0.03420535                0.14020063                0.02419897
               7.00043906                7.99793920               10.01061956                0.01000001               -0.11148590               -0.02620811                0.12521618               -0.02167475                0.16084374                0.05685051
               7.99935650                7.99777447               10.01205483                0.01000000               -0.09094669               -0.04739032                0.13840160               -0.08075248                0.15452354                0.11207283
               8.99862012                7.99772790               10.01320019                0.01000001               -0.05657195               -0.08790056                0.14746658               -0.11604751                0.10289704                0.26262290
               9.99822506                7.99849450               10.01368532                0.01000001               -0.03950662               -0.12202492                0.14925549               -0.08641526                0.06918398                0.26646100
               0.00662611                8.99894442               10.01090462                1.00000000               -0.03141196               -0.03249668                0.10815982                0.00025180                0.00231074                0.01820600
               1.00631199                8.99802478               10.00990165                1.00000000               -0.03039013               -0.03039138                0.10129225                0.00000194                0.00126968                0.00210714
               2.00601830                8.99711054               10.00887858                0.99999999               -0.02832159               -0.02830427                0.09439232               -0.00000378               -0.00479059               -0.01125171
               3.00574556                8.99620092               10.00775774                0.01000000               -0.07615716               -0.05392880                0.08743408                0.10466763                0.07135610               -0.04837102
               4.00449516                8.99691512               10.00826375                0.01000000               -0.13467734                0.00018316                0.09665441                0.10497132                0.13801630               -0.02027451
               5.00305201                8.99750159               10.00884408                0.01000000               -0.14141979                0.00268562                0.10503809                0.05668765                0.13832238                0.00035322
               6.00166677                8.99779662               10.00976385                0.01000000               -0.14097330                0.00021478                0.11534767                0.01768126                0.15973114                0.01634424
               7.00023254                8.99783611               10.01111333                0.01000001               -0.15549932               -0.00255740                0.12864917               -0.02404303                0.19478986                0.03736292
               7.99855678                8.99752601               10.01303267                0.01000001               -0.18528636               -0.00381236                0.14623841               -0.08108914                0.29351113                0.07973600
               8.99652682                8.99692065               10.01665963                0.99999997               -0.12801231               -0.06687460                0.17942075               -0.13592397                0.18032317                0.17572069
               9.99599653                8.99670577               10.01665777                0.99999999               -0.05302827               -0.11495829                0.17345870               -0.12216781               -0.00099265                0.14925037
               0.00753782                9.99861678               10.01116748                1.00000000               -0.03192544               -0.03276429                0.10984884                0.00134541                0.01258208                0.01348402
               1.00721857                9.99771852               10.01015252                1.00000000               -0.03089834               -0.03062623                0.10297957                0.00105055                0.01580177                0.00074285
               2.00691985                9.99682463               10.00920253                0.99999999               -0.02885687               -0.02859042                0.09611236                0.00106723                0.01580735               -0.00349284
               3.00664143                9.99593677               10.00819098                0.01000001               -0.12140215               -0.02641579                0.08923953                0.10529556                0.07050037               -0.00411967
               4.00449181                9.99713880               10.00834084                0.01000002               -0.18414866                0.02236740                0.09573540                0.08354124                0.11428473               -0.00901927
               5.00295846                9.99761429               10.00891495                0.01000001               -0.14432504                0.01127052                0.10406502                0.02706537                0.13147562                0.00503213
               6.00160531                9.99786721               10.00982656                0.01000000               -0.13648252                0.00705923                0.11413237                0.00754258                0.15795652                0.01326915
               7.00022881                9.99788805               10.01124014                0.01000001               -0.14775701                0.00519394                0.12764673               -0.00882304                0.21265641                0.02428574
               7.99865017                9.99769822               10.01351744                0.01000003               -0.17534603                0.01722165                0.14800688               -0.06554325                0.28393903                0.06193741
               8.99672189                9.99639041               10.01662722                0.99999999               -0.12193464               -0.05302498                0.17344188               -0.05563784                0.15682356                0.00124133
               9.99621148                9.99619533               10.01662540                0.99999999               -0.05104074               -0.05104366                0.16748017                0.00198689                0.00111499               -0.00110811
               0.00130772                0.00179116               11.00907132                1.00000000               -0.02470492               -0.02478664                0.08190905                0.00037894               -0.00365592                0.00340952
               1.00106067                0.00132634               11.00902156                0.99999995               -0.02484443               -0.02508774                0.08288312                0.00015908               -0.00407033               -0.00107663
               2.00081083                0.00086626               11.00896543                0.01000002               -0.01937471               -0.02538894                0.08385764                0.00276057                0.01573875               -0.00170312
               3.00067318                0.00046329               11.00931284                0.01000000               -0.01406994               -0.02961011                0.09252266               -0.00300881                0.04623103               -0.00789094
               4.00052943                0.00042114               11.00984428                0.01000000               -0.01757456               -0.02941025                0.10004695                0.00488491                0.07155854               -0.01145763
               5.00032168                0.00078701               11.01069033                0.01000001               -0.03137479               -0.03017471                0.10743524                0.02029305                0.10458647               -0.01600461
               5.99990194                0.00171884               11.01192794                0.41017691               -0.03827431               -0.03430034                0.11591873                0.01443757                0.06725460               -0.00123167
               6.99955620                0.00235083               11.01226008                1.00000000               -0.03477024               -0.03439154                0.11651803               -0.00000831                0.01476053               -0.00349356
               7.99920653                0.00297289               11.01244536                0.99999999               -0.03501603               -0.03445852                0.11672379                0.00008253                0.00852224               -0.00040746
               8.99885588                0.00358388               11.01265211                0.99999996               -0.03513718               -0.03455850                0.11708058                0.00007391                0.00764059                0.00088414
               9.99850379                0.00418314               11.01281981                1.00000000               -0.03520902               -0.03466298                0.11743770                0.00065260                0.00566461                0.00519816
               0.00177633                1.00154329               11.00909031                1.00000000               -0.02516172               -0.02500079                0.08338079                0.00023438                0.00101675                0.00367791
               1.00152471                1.00107547               11.00904185                0.01000000               -0.02531819               -0.02531378                0.08435513                0.00001447                0.00267687               -0.00280136
               2.00126996                1.00061238               11.00902661                0.01000000               -0.03295299               -0.03057813                0.08532943               -0.01178334                0.02067722                0.00039246
               3.00086565                1.00016719               11.00933709                0.01000000               -0.04267715               -0.02753456                0.09334087               -0.00712054                0.03990505               -0.01094477
               4.00041642                1.00012704               11.00978372                0.01000000               -0.04949421               -0.02745842                0.09936549                0.01251949                0.05281492               -0.01603369
               4.99987576                1.00048527               11.01044967                0.01000000               -0.05760084               -0.02853180                0.10520412                0.03764938                0.07980076               -0.01998535
               5.99926440                1.00137584               11.01157539                0.01000000               -0.04733361               -0.04548958                0.11218246                0.03895084                0.05348443               -0.03018229
               6.99892909                1.00200692               11.01183642                1.00000000               -0.03367841               -0.03381144                0.11264613               -0.00005348                0.00568396               -0.00365338
               7.99859083                1.00262830               11.01200525                0.99999998               -0.03388022               -0.03389880                0.11296326                0.00004737                0.00123725               -0.00032592
               8.99825149                1.00323829               11.01217743                0.99999996               -0.03398930               -0.03399952                0.11333470                0.00003705                0.00090131                0.00044674
               9.99791105                1.00383651               11.01234026                0.99999999               -0.03404403               -0.03410579                0.11369458                0.00058133                0.00036995                0.00645552
               0.00224806                2.00129114               11.00911614                0.01000000               -0.02561851               -0.04030640                0.08485241               -0.02575686                0.00154774                0.01572678
               1.00199188                2.00082007               11.00902810                0.01000000               -0.03823122               -0.03486186                0.08582766               -0.02931831                0.01109603                0.00714293
               2.00148344                2.00025470               11.00912913                0.01000001               -0.04878887               -0.03667997                0.09075475               -0.02515099                0.02055677               -0.00143393
               3.00101610                1.99991260               11.00928985                0.01000000               -0.05108475               -0.03045320                0.09447380               -0.00023818                0.02807309               -0.01432528
               4.00046174                1.99987197               11.00960828                0.01000002               -0.05951140               -0.02886428                0.09889886                0.03005649                0.03901277               -0.02104727
               4.99982587                2.00021638               11.01009669                0.01000001               -0.06512209               -0.03174203                0.10320620                0.05762940                0.04357086               -0.02531385
               5.99915930                2.00080905               11.01063462                0.01000007               -0.07616037               -0.04723448                0.10639260                0.07811942                0.05290942               -0.04431215
               6.99830267                2.00167460               11.01140818                0.01000001               -0.05915993               -0.04531083                0.10879628                0.05777052                0.02612806               -0.01977064
               7.99797610                2.00229491               11.01156651                0.03463577               -0.03271295               -0.03224299                0.10918693                0.00144376               -0.00619303                0.01947594
               8.99764841                2.00290389               11.01169451                0.99999999               -0.03285654               -0.03288113                0.10962384                0.00004085               -0.00455653               -0.00204049
               9.99731897                2.00350103               11.01188710                1.00000000               -0.03294336               -0.03299797                0.10997472                0.00057773               -0.00142707                0.00643150
               0.00220334                3.00073717               11.00937579                0.01000000               -0.02285578               -0.04440216                0.09146192               -0.02231444               -0.00032243                0.03026604
               1.00197479                3.00037823               11.00924584                0.01000000               -0.02644669               -0.04861264                0.09167562               -0.02878580                0.00338646                0.01522525
               2.00167441                2.99987878               11.00917796                0.01000000               -0.03655857               -0.04508723                0.09313424               -0.01394157                0.01267945               -0.00476767
               3.00124361                2.99955813               11.00923492                0.01000000               -0.04803196               -0.04140655                0.09571534                0.01614560                0.02326577               -0.01560297
               4.00071377                2.99954975               11.00943140                0.01000001               -0.05761691               -0.03831224                0.09876981                0.05057220                0.03223192               -0.01990168
               5.00009128                2.99985043               11.00975792                0.01000000               -0.06726026               -0.04031884                0.10198745                0.08261922                0.03940792               -0.02018804
               5.99936857                3.00043115               11.01020990                0.01000000               -0.07463166               -0.04394082                0.10514956                0.10252058                0.03934185               -0.01446823
               6.99859864                3.00110070               11.01066213                0.01000000               -0.09890692               -0.05267275                0.10495232                0.12690168                0.05393614               -0.01792884
               7.99739043                3.00198344               11.01152304                0.01000000               -0.07762271               -0.05294743                0.10424698                0.11503939               -0.00265386                0.00459013
               8.99704619                3.00258067               11.01117144                0.01000001               -0.03310520               -0.06302861                0.10595041                0.09508647               -0.03099265                0.01473650
               9.99672832                3.00317655               11.01140902                0.13886229               -0.03178657               -0.10909816                0.10623793                0.11114119               -0.00166410                0.00975123
               0.00251965                4.00040310               11.00971857                0.01000003               -0.02450971               -0.03034140                0.09638274               -0.00444579               -0.00303185                0.04081608
               1.00227455                3.99984781               11.00946153                0.01000000               -0.02474700               -0.05547434                0.09494188               -0.00319432                0.00096068                0.01329157
               2.00202471                3.99935296               11.00925974                0.01000001               -0.03032587               -0.05740215                0.09495848                0.01369789                0.01122841               -0.00708036
               3.00166804                3.99908447               11.00919814                0.01000001               -0.04219111               -0.05260495                0.09639231                0.04179757                0.02465899               -0.01738067
               4.00118089                3.99910573               11.00930581                0.01000001               -0.05355867               -0.04933415                0.09891082                0.07287902                0.03681309               -0.01746089
               5.00059686                3.99941000               11.00957304                0.01000000               -0.06107239               -0.04910527                0.10200700                0.10015895                0.04526967               -0.01015099
               5.99995944                3.99993023               11.00995562                0.01000008               -0.06542277               -0.05441239                0.10495333                0.12540706                0.05039211                0.00012529
               6.99928841                4.00062115               11.01043086                0.01000001               -0.05812582               -0.06083611                0.10699129                0.14200120                0.04333929                0.01393135
               7.99879692                4.00123596               11.01077810                0.01000001               -0.04656915               -0.08009816                0.10690565                0.16748690                0.03050517                0.00053577
               8.99835702                4.00164331               11.01102607                0.01000000               -0.02234469               -0.09702170                0.10835072                0.12641361                0.01107944                0.03471652
               9.99835003                4.00131906               11.01102495                0.01000000               -0.00069941               -0.14217301                0.10819831                0.09691198                0.00362925                0.01341077
               0.00322500                5.00013034               11.01019337                0.01000002               -0.02639579               -0.03223494                0.09968270                0.01238805               -0.00287382                0.05870876
               1.00296104                4.99926874               11.00974358                0.01000000               -0.02566444               -0.05907722                0.09681578                0.02587125                0.00218352                0.01529376
               2.00271171                4.99873073               11.00936473                0.01000001               -0.03171243               -0.06263017                0.09563851                0.04350231                0.01484739               -0.01365417
               3.00232679                4.99850603               11.00918559                0.01000000               -0.04329474               -0.06127165                0.09661990                0.06982366                0.03250321               -0.02102696
               4.00184582                4.99856307               11.00924764                0.01000000               -0.05284227               -0.05617415                0.09917349                0.09154397                0.04956969               -0.01613228
               5.00126995                4.99886832               11.00951220                0.01000001               -0.05901296               -0.05592037                0.10271323                0.10887356                0.06159175               -0.00340646
               6.00066556                4.99934290               11.00992787                0.01000001               -0.05685055               -0.06141305                0.10655968                0.11881758                0.06716547                0.01468723
               7.00013294                4.99988398               11.01040626                0.01000002               -0.04737798               -0.07552118                0.11009934                0.12336506                0.06545093                0.03245994
               7.99971800                5.00038148               11.01085028                0.01000000               -0.03207901               -0.08886007                0.11299998                0.11228876                0.05348165                0.05219796
               8.99949136                5.00064024               11.01111286                0.01000000               -0.02014673               -0.09649366                0.11372880                0.08101787                0.03195289                0.06076965
               9.99931506                5.00033309               11.01109150                0.01000002               -0.01762937               -0.07805797                0.11243390                0.04074886                0.01995469                0.05095048
               0.00449060                5.99975840               11.01093920                0.92643977               -0.02990206               -0.03419808                0.10290544                0.00829340               -0.00372645                0.03782645
               1.00419158                5.99866627               11.01014621                0.01000000               -0.04165667               -0.04472312                0.09657797                0.03256106                0.00078077                0.00467972
               2.00365747                5.99810035               11.00944466                0.01000007               -0.04797060               -0.07125771                0.09527890                0.07329454                0.01504494               -0.02670988
               3.00323217                5.99785904               11.00917802                0.01000000               -0.05039988               -0.06098824                0.09615458                0.09012553                0.04687597               -0.02591409
               4.00264947                5.99798225               11.00924060                0.01000130               -0.06188341               -0.05774081                0.09945658                0.10502178                0.06842924               -0.01710808
               5.00199450                5.99829159               11.00955732                0.01000001               -0.06646694               -0.05487320                0.10387544                0.10749695                0.08396582                0.00033193
               6.00132013                5.99870197               11.01007374                0.01000001               -0.06386861               -0.05923100                0.10913284                0.09761728                0.09326194                0.02441038
               7.00071713                5.99911073               11.01069942                0.01000000               -0.05168461               -0.07327719                0.11448936                0.07838628                0.09314748                0.05359794
               8.00028644                5.99945876               11.01129778                0.01000000               -0.03456826               -0.09046030                0.11885493                0.05866119                0.08005124                0.08290008
               9.00002577                5.99971344               11.01168743                0.01000000               -0.02535749               -0.09188458                0.12100319                0.03490504                0.04949481                0.10577559
               9.99977929                5.99975790               11.01165329                0.01000001               -0.02464736               -0.05159983                0.11959402                0.01790074                0.02946897                0.10701524
               0.00557513                6.99944638               11.01124083                1.00000000               -0.03048209               -0.03143856                0.10482218                0.00027712               -0.00260056                0.01904057
               1.00527031                6.99837428               11.01034829                1.00000000               -0.02951485               -0.02949071                0.09831488               -0.00007046               -0.00592004               -0.00182828
               2.00498484                6.99730558               11.00939053                0.01000001               -0.05114498               -0.05362137                0.09195782                0.06475599                0.02809838               -0.02678097
               3.00424741                6.99728626               11.00918214                0.01000000               -0.07355712               -0.06177934                0.09586056                0.10466167                0.06750531               -0.03106669
               4.00351370                6.99740825               11.00925500                0.01000001               -0.07736265               -0.05513699                0.09937870                0.11454508                0.08871357               -0.02282951
               5.00270016                6.99777086               11.00966449                0.01000001               -0.08574612               -0.04250402                0.10509887                0.10430197                0.11005554                0.00101308
               6.00179877                6.99815828               11.01035076                0.01000000               -0.08781424               -0.04258265                0.11208930                0.07014772                0.12469591                0.02963484
               7.00094388                6.99841844               11.01123529                0.01000000               -0.07551330               -0.05622390                0.11992145                0.02542856                0.12886804                0.06592121
               8.00028851                6.99857227               11.01214844                0.01000001               -0.05267807               -0.08100484                0.12717907               -0.01311380                0.11479532                0.11863178
               8.99989032                6.99880254               11.01282892                0.01000000               -0.03521762               -0.09541123                0.13175245               -0.02176279                0.07174909                0.16362510
               9.99958415                6.99930110               11.01289371                0.01000001               -0.03061606               -0.05548055                0.13078820               -0.01623253                0.04120530                0.19350315
               0.00664034                7.99912963               11.01161061                0.99999999               -0.03093689               -0.03193284                0.10638204                0.00025107               -0.00083040                0.02273321
               1.00633097                7.99807646               11.01062349                1.00000000               -0.02998671               -0.03002095                0.09999434               -0.00000005               -0.00038297                0.00258962
               2.00604061                7.99702793               11.00964629                0.01061623               -0.05541214               -0.02801427                0.09359282                0.03193994                0.02415170               -0.01531847
               3.00522273                7.99662345               11.00915346                0.01000004               -0.07924136               -0.07824792                0.09303127                0.12024890                0.06691060               -0.06412201
               4.00445578                7.99687951               11.00922171                0.01000001               -0.09461068               -0.03732098                0.09889075                0.13340059                0.11063372               -0.02683289
               5.00333052                7.99744151               11.00979281                0.01000000               -0.11901345               -0.01740340                0.10585904                0.09927515                0.13760751                0.00037361
               6.00207551                7.99785032               11.01067153                0.01000000               -0.12594024               -0.01680324                0.11469510                0.04518103                0.15553231                0.02826889
               7.00081171                7.99798625               11.01187273                0.01000000               -0.12177269               -0.02507727                0.12536438               -0.01906167                0.17819144                0.06452415
               7.99964006                7.99783866               11.01343844                0.01000000               -0.09750130               -0.04787375                0.13829757               -0.08607816                0.17100623                0.12566109
               8.99886168                7.99780522               11.01467432                0.01000000               -0.05912601               -0.09041075                0.14732295               -0.12666514                0.11366857                0.29099396
               9.99845754                7.99864829               11.01517861                0.01000000               -0.04041483               -0.12715215                0.14937795               -0.09398856                0.07599716                0.29246324
               0.00768651                8.99880772               11.01198569                1.00000000               -0.03144888               -0.03245686                0.10805662                0.00025259                0.00230952                0.01825441
               1.00737202                8.99777386               11.01091629                1.00000000               -0.03049319               -0.03049257                0.10163785                0.00000929                0.00125588                0.00210046
               2.00707664                8.99674529               11.00982656                0.99999999               -0.02856026               -0.02854427                0.09519909                0.00000458               -0.00484211               -0.01131138
               3.00680081                8.99572130               11.00863861                0.01000001               -0.08565003               -0.05850597                0.08871876                0.12528387                0.07915958               -0.05203419
               4.00536364                8.99666183               11.00923510                0.01000000               -0.15429815                0.00464153                0.09760428                0.12731983                0.15288823               -0.02123171
               5.00371485                8.99742279               11.00989899                0.01000000               -0.16029915                0.00798174                0.10588740                0.06927650                0.15322517                0.00106504
               6.00215766                8.99782222               11.01092069                0.01000000               -0.15702755                0.00498342                0.11595649                0.02327720                0.17680053                0.01869793
               7.00057430                8.99791689               11.01240176                0.01000000               -0.17048427                0.00176638                0.12898626               -0.02421797                0.21545548                0.04198683
               7.99874797                8.99761480               11.01449523                0.01000001               -0.20134586                0.00084452                0.14624025               -0.08703349                0.32414250                0.08891952
               8.99654738                8.99699433               11.01845005                0.99999997               -0.13648718               -0.06700673                0.17867754               -0.14762708                0.19951118                0.19431978
               9.99601823                8.99675805               11.01839221                1.00000000               -0.05291512               -0.12008873                0.17342734               -0.13379117               -0.00099471                0.16409590
               0.00871311                9.99848049               11.01226529                0.99999998               -0.03195274               -0.03272248                0.10971452                0.00127143                0.01261408                0.01352029
               1.00839358                9.99746661               11.01118388                1.00000000               -0.03099287               -0.03072552                0.10329393                0.00098387                0.01583767                0.00073916
               2.00809325                9.99645704               11.01016749                0.99999998               -0.02908595               -0.02882521                0.09687944                0.00099732                0.01584621               -0.00351387
               3.00781187                9.99545333               11.00908946                0.01000001               -0.13962817               -0.02679742                0.09045688                0.12686992                0.07710312               -0.00412724
               4.00530069                9.99697234               11.00930410                0.01000001               -0.21281006                0.03105016                0.09687938                0.10109573                0.12704571               -0.00968743
               5.00355566                9.99760115               11.00996104                0.01000000               -0.16268684                0.01783593                0.10508267                0.03296396                0.14551762                0.00555153
               6.00204695                9.99794999               11.01097272                0.01000000               -0.15104468                0.01277719                0.11501529                0.00995075                0.17437867                0.01459787
               7.00053477                9.99802158               11.01252036                0.01000000               -0.16125033                0.01046855                0.12832641               -0.00867462                0.23418086                0.02675837
               7.99882195                9.99785555               11.01499942                0.01000000               -0.18844420                0.02407567                0.14834853               -0.07042735                0.31157092                0.06815280
               8.99676589                9.99646508               11.01836183                1.00000000               -0.12838416               -0.05292470                0.17347774               -0.05860134                0.17225066                0.00123861
               9.99625426                9.99624652               11.01830399                0.99999999               -0.05116219               -0.05115351                0.16822364                0.00174696                0.00111117               -0.00111105
               0.00131605                0.00179890               12.00989238                1.00000000               -0.02480140               -0.02485986                0.08230297                0.00030554               -0.00365573                0.00340951
               1.00106804                0.00128792               12.00985153                1.00000000               -0.02491728               -0.02510969                0.08311166                0.00013161               -0.00407033               -0.00107669
               2.00081771                0.00078069               12.00980432                0.01000000               -0.01862566               -0.02535958                0.08392035                0.00417054                0.01955528               -0.00170350
               3.00069552                0.00035826               12.01023697                0.01000000               -0.01299244               -0.02918000                0.09228006               -0.00175548                0.05411021               -0.00742847
               4.00055786                0.00037042               12.01084271                0.01000000               -0.01839215               -0.02829390                0.09962320                0.00881104                0.07924790               -0.01148033
               5.00032768                0.00087721               12.01176206                0.01000000               -0.03852001               -0.02849377                0.10684756                0.03028330                0.11266229               -0.01628830
               5.99978746                0.00207897               12.01308045                0.39527643               -0.04422416               -0.03404684                0.11500911                0.02568998                0.07139337               -0.00106595
               6.99944320                0.00275831               12.01342378                1.00000000               -0.03467240               -0.03432223                0.11622756                0.00003140                0.01503448               -0.00359083
               7.99909401                0.00342763               12.01361213                0.99999999               -0.03498941               -0.03444018                0.11660764                0.00009313                0.00846861               -0.00042340
               8.99874341                0.00408617               12.01382300                0.99999999               -0.03514638               -0.03458260                0.11709386                0.00008731                0.00765799                0.00089135
               9.99839108                0.00473347               12.01399487                1.00000000               -0.03523286               -0.03472799                0.11758132                0.00064989                0.00568400                0.00521307
               0.00183008                1.00155030               12.00992456                1.00000000               -0.02516270               -0.02502923                0.08346775                0.00018550                0.00101676                0.00367787
               1.00157846                1.00103682               12.00988501                0.01000000               -0.02529204               -0.02528886                0.08427630                0.00001152                0.00267680               -0.00280118
               2.00132424                1.00052710               12.00987868                0.01000000               -0.03476750               -0.03112170                0.08508496               -0.01161827                0.02421750                0.00241888
               3.00088311                1.00006646               12.01026888                0.01000001               -0.04688757               -0.02704602                0.09299328               -0.00396382                0.04631657               -0.01048083
               4.00038649                1.00008748               12.01077529                0.01000000               -0.05534343               -0.02652119                0.09893070                0.02079061                0.05838150               -0.01601308
               4.99977624                1.00059227               12.01149954                0.01000000               -0.06413432               -0.02794353                0.10469696                0.05358332                0.08566703               -0.02013418
               5.99910381                1.00173850               12.01269128                0.01000000               -0.05035300               -0.05079544                0.11141741                0.05340829                0.05683017               -0.03113312
               6.99876918                1.00241509               12.01296234                1.00000000               -0.03363988               -0.03376896                0.11252331               -0.00010845                0.00595453               -0.00373592
               7.99843101                1.00308323               12.01313510                0.99999998               -0.03389085               -0.03390219                0.11298649                0.00003193                0.00123931               -0.00034088
               8.99809136                1.00374035               12.01331153                0.99999996               -0.03403659               -0.03404427                0.11348186                0.00002738                0.00092677                0.00046936
               9.99775028                1.00438619               12.01347854                0.99999999               -0.03410852               -0.03419016                0.11397142                0.00055818                0.00039078                0.00647421
               0.00234671                2.00129831               12.00996357                0.01000000               -0.02552406               -0.04070556                0.08463257               -0.02648770                0.00154782                0.01833946
               1.00209147                2.00078214               12.00988444                0.01000000               -0.03955024               -0.03648995                0.08544096               -0.03043594                0.01312217                0.00941655
               2.00155571                2.00015826               12.01003491                0.01000001               -0.05178028               -0.03839436                0.09038488               -0.02398909                0.02445828                0.00128604
               3.00105587                1.99981734               12.01023281                0.01000000               -0.05539258               -0.03109252                0.09409329                0.00756934                0.03190532               -0.01366547
               4.00044786                1.99983999               12.01059551                0.01000000               -0.06537705               -0.02918926                0.09850416                0.04464283                0.04324058               -0.02082219
               4.99974833                2.00031834               12.01112650                0.01000001               -0.07075254               -0.03371242                0.10275646                0.07736455                0.04726421               -0.02503513
               5.99903281                2.00106306               12.01169709                0.01000001               -0.08260151               -0.05501677                0.10603757                0.09896068                0.05576005               -0.04520568
               6.99809630                2.00208293               12.01249659                0.01000000               -0.06317091               -0.04922230                0.10884633                0.06924481                0.02723395               -0.01864166
               7.99776939                2.00274959               12.01265930                0.03923404               -0.03276514               -0.03285725                0.10935270                0.00173269               -0.00612920                0.01376661
               8.99744099                2.00340529               12.01279208                0.99999999               -0.03294210               -0.03296388                0.10989295                0.00003094               -0.00449540               -0.00198788
               9.99711055                2.00404967               12.01298879                1.00000000               -0.03304475               -0.03312093                0.11037842                0.00055758               -0.00140258                0.00644348
               0.00233267                3.00073619               12.01028865                0.01000001               -0.02228751               -0.04482430                0.09107448               -0.02242494                0.00041788                0.03553028
               1.00210980                3.00030703               12.01016084                0.01000001               -0.02617003               -0.05282353                0.09130167               -0.02725457                0.00467465                0.01855082
               2.00180927                2.99975921               12.01010759                0.01000000               -0.03785177               -0.04881637                0.09278092               -0.00697998                0.01524868               -0.00382858
               3.00135276                2.99944461               12.01019071                0.01000000               -0.05154604               -0.04429030                0.09540244                0.02950041                0.02673155               -0.01518326
               4.00077835                2.99950369               12.01041750                0.01000001               -0.06261480               -0.04079337                0.09845637                0.06984422                0.03615479               -0.01946165
               5.00010046                2.99991802               12.01077788                0.01000000               -0.07299612               -0.04404872                0.10169504                0.10605869                0.04296268               -0.01925356
               5.99931843                3.00063816               12.01125043                0.01000000               -0.08164604               -0.04891528                0.10424001                0.12620244                0.04300302               -0.01265905
               6.99846754                3.00143064               12.01173659                0.01000000               -0.10875608               -0.05920846                0.10606128                0.15079265                0.04872214               -0.01584620
               7.99714330                3.00242609               12.01246485                0.01000000               -0.08378228               -0.05682554                0.09909524                0.13433107               -0.00117928                0.00734258
               8.99679190                3.00308107               12.01223276                0.01000003               -0.03353240               -0.06822265                0.10632705                0.11040956               -0.02519125                0.01768636
               9.99647266                3.00372378               12.01247400                0.15513347               -0.03192408               -0.12124797                0.10677342                0.12844997               -0.00166622                0.01245796
               0.00275654                4.00040183               12.01067961                0.01000000               -0.02331796               -0.03153564                0.09585850               -0.00099917               -0.00243343                0.04475233
               1.00252336                3.99972567               12.01040896                0.01000000               -0.02390066               -0.06175327                0.09456698                0.00435080                0.00226093                0.01470250
               2.00227853                3.99918193               12.01020835                0.01000000               -0.03109847               -0.06323748                0.09473935                0.02769485                0.01394579               -0.00702535
               3.00190139                3.99893153               12.01016146                0.01000001               -0.04536007               -0.05713647                0.09623829                0.06084789                0.02856294               -0.01752348
               4.00137133                3.99902412               12.01029449                0.01000000               -0.05831818               -0.05343391                0.09875486                0.09609965                0.04145688               -0.01693297
               5.00073503                3.99943736               12.01059169                0.01000000               -0.06635456               -0.05350274                0.10174300                0.12607966                0.05017648               -0.00855361
               6.00004424                4.00008475               12.01100436                0.01000000               -0.07054017               -0.05988616                0.10460204                0.15245718                0.05430521                0.00353289
               6.99932423                4.00089876               12.01149036                0.01000001               -0.06193272               -0.06709040                0.10609793                0.17004477                0.04747155                0.01794826
               7.99880558                4.00161308               12.01187126                0.01000001               -0.04863657               -0.08848690                0.10804700                0.19568292                0.03270993                0.01384288
               8.99835149                4.00204083               12.01210880                0.01000000               -0.02057264               -0.10738546                0.10833153                0.14619845                0.01181979                0.04213181
               9.99839413                4.00162471               12.01210748                0.01000000                0.00426342               -0.15909874                0.10839380                0.11221984                0.00486095                0.01907161
               0.00366500                5.00010548               12.01118738                0.01000003               -0.02482865               -0.03984523                0.09920118                0.02271873               -0.00191010                0.06176423
               1.00341671                4.99907196               12.01071030                0.01000000               -0.02538429               -0.06615590                0.09658720                0.04220249                0.00406686                0.01487955
               2.00315731                4.99849446               12.01032104                0.01000001               -0.03445931               -0.06842065                0.09562647                0.06350827                0.01841268               -0.01475026
               3.00272752                4.99830188               12.01015254                0.01000000               -0.04813999               -0.06668235                0.09669263                0.09329485                0.03760718               -0.02179098
               4.00219451                4.99843501               12.01023977                0.01000000               -0.05830469               -0.06077113                0.09920550                0.11704318                0.05569996               -0.01561409
               5.00156143                4.99884797               12.01053933                0.01000000               -0.06441690               -0.06064555                0.10263945                0.13542824                0.06819026               -0.00125008
               6.00090617                4.99944044               12.01099203                0.01000001               -0.06106587               -0.06700210                0.10631759                0.14492183                0.07376746                0.01878744
               7.00034011                5.00008883               12.01150658                0.01000003               -0.04956412               -0.08265458                0.10978599                0.14742051                0.07099188                0.03939755
               7.99991489                5.00065635               12.01196995                0.01000000               -0.03179399               -0.09789693                0.11219380                0.13254614                0.05797966                0.06005675
               8.99970423                5.00093336               12.01224853                0.01000000               -0.01827973               -0.10554217                0.11354044                0.09476318                0.03475967                0.07031578
               9.99954930                5.00054180               12.01221611                0.01000000               -0.01549372               -0.08415794                0.11254855                0.04742701                0.02134166                0.05923018
               0.00527795                5.99960492               12.01196821                0.91350793               -0.02995189               -0.04061807                0.10285383                0.02018776               -0.00372978                0.03894316
               1.00497843                5.99840256               12.01111418                0.01000000               -0.04795856               -0.04813766                0.09697236                0.04800188                0.00319177                0.00399175
               2.00431878                5.99781352               12.01039927                0.01000001               -0.05758469               -0.07829251                0.09560430                0.09593972                0.01996422               -0.02968713
               3.00382674                5.99759788               12.01014122                0.01000000               -0.05763378               -0.06559791                0.09650922                0.11436804                0.05355585               -0.02672489
               4.00316610                5.99780870               12.01023697                0.01000000               -0.06942839               -0.06213292                0.09969086                0.13074982                0.07647635               -0.01672470
               5.00243817                5.99822445               12.01059683                0.01000001               -0.07321476               -0.05897596                0.10399122                0.13258511                0.09266726                0.00270778
               6.00170181                5.99874471               12.01116518                0.01000000               -0.06907202               -0.06372818                0.10908855                0.11997226                0.10231475                0.02920518
               7.00105673                5.99924567               12.01184306                0.01000000               -0.05449146               -0.07917204                0.11428271                0.09637928                0.10179520                0.06117979
               8.00061198                5.99965514               12.01248683                0.01000000               -0.03477115               -0.09752827                0.11869363                0.07161136                0.08697780                0.09357520
               9.00036130                5.99992999               12.01289695                0.01000000               -0.02430970               -0.09845399                0.12090025                0.04198442                0.05340349                0.11808510
              10.00012578                5.99994155               12.01285001                0.01000000               -0.02355212               -0.05253998                0.11975901                0.02132001                0.03157300                0.11902130
               0.00647349                6.99929311               12.01228891                1.00000000               -0.03053332               -0.03142039                0.10477310                0.00026867               -0.00274845                0.01918806
               1.00616815                6.99810921               12.01133351                1.00000000               -0.02963550               -0.02962050                0.09872086               -0.00008158               -0.00597997               -0.00174794
               2.00588078                6.99692861               12.01031438                0.01000000               -0.05742272               -0.05825972                0.09283105                0.08055357                0.03326866               -0.02916144
               3.00501970                6.99698992               12.01014778                0.01000000               -0.08489190               -0.06607271                0.09630043                0.12762354                0.07676253               -0.03300083
               4.00418294                6.99719235               12.01025108                0.01000001               -0.08712878               -0.05951638                0.09991778                0.13893992                0.09771345               -0.02236867
               5.00327712                6.99766845               12.01071761                0.01000003               -0.09492695               -0.04454515                0.10539687                0.12719396                0.12100735                0.00307920
               6.00228440                6.99816588               12.01147244                0.01000000               -0.09599280               -0.04431728                0.11220623                0.08760415                0.13659105                0.03441920
               7.00135727                6.99850539               12.01243455                0.01000000               -0.08108023               -0.05912273                0.11987202                0.03595753                0.14081837                0.07416267
               8.00066280                6.99870578               12.01341936                0.01000000               -0.05498804               -0.08571132                0.12702316               -0.00890328                0.12508772                0.13161260
               9.00025751                6.99896428               12.01414614                0.01000000               -0.03551139               -0.10016684                0.13166389               -0.02113801                0.07789517                0.18032947
               9.99995257                6.99949100               12.01420272                0.01000001               -0.03049392               -0.05481481                0.13098757               -0.01679597                0.04441387                0.21168918
               0.00765114                7.99897652               12.01267409                0.99999999               -0.03098332               -0.03191393                0.10631683                0.00024399               -0.00082394                0.02274278
               1.00734130                7.99781015               12.01162533                1.00000000               -0.03010002               -0.03013999                0.10038092               -0.00000535               -0.00038012                0.00260824
               2.00704914                7.99664832               12.01058635                0.01000000               -0.06129217               -0.02827462                0.09443246                0.03923207                0.02645510               -0.01537646
               3.00611546                7.99627643               12.01007792                0.01000181               -0.08913824               -0.08828393                0.09503229                0.14352782                0.07245957               -0.06550738
               4.00526637                7.99661837               12.01021851                0.01000000               -0.10534672               -0.03921306                0.09950998                0.15833647                0.12222655               -0.02789077
               5.00400853                7.99733355               12.01085392                0.01000000               -0.13247134               -0.01568962                0.10637692                0.11968960                0.15034973                0.00186528
               6.00261694                7.99785836               12.01182027                0.01000000               -0.13862775               -0.01482441                0.11498202                0.05726379                0.17016160                0.03224739
               7.00123597                7.99806321               12.01312685                0.01000000               -0.13209608               -0.02385897                0.12542655               -0.01538024                0.19476733                0.07193651
               7.99997502                7.99794091               12.01482078                0.01000000               -0.10413234               -0.04811807                0.13812929               -0.09040081                0.18678060                0.13878883
               8.99915332                7.99792665               12.01614665                0.01000000               -0.06193030               -0.09223681                0.14712406               -0.13665551                0.12399059                0.31840412
               9.99873642                7.99884526               12.01667288                0.01000000               -0.04169067               -0.13143481                0.14945255               -0.10115257                0.08257898                0.31775556
               0.00881111                8.99865484               12.01306575                0.99999998               -0.03148671               -0.03242628                0.10795758                0.00024651                0.00230966                0.01829804
               1.00849624                8.99750641               12.01193441                0.99999999               -0.03059859               -0.03060128                0.10199044                0.00000499                0.00124633                0.00209494
               2.00819914                8.99636312               12.01078256                1.00000000               -0.02880178               -0.02879133                0.09600120               -0.00000538               -0.00488327               -0.01136200
               3.00792020                8.99522424               12.00953212                0.01000000               -0.09532926               -0.06619515                0.08996859                0.14881961                0.08658362               -0.05445476
               4.00629255                8.99640809               12.01021584                0.01000000               -0.17446392                0.00943338                0.09859237                0.15125932                0.16707066               -0.02246432
               5.00443093                8.99735465               12.01096183                0.01000000               -0.17962699                0.01338336                0.10659893                0.08264802                0.16742902                0.00180776
               6.00270001                8.99786939               12.01208298                0.01000000               -0.17319061                0.00983685                0.11644924                0.02950881                0.19313180                0.02100169
               7.00096711                8.99802821               12.01369306                0.01000000               -0.18543352                0.00613956                0.12922903               -0.02381080                0.23529521                0.04646968
               7.99899134                8.99774342               12.01595748                0.01000001               -0.21735304                0.00559872                0.14618669               -0.09217845                0.35364769                0.09777116
               8.99662005                8.99711954               12.02023318                0.99999998               -0.14495161               -0.06675220                0.17796412               -0.15860552                0.21800203                0.21226374
               9.99609231                8.99686231               12.02012632                1.00000000               -0.05277452               -0.12478544                0.17339289               -0.14507563               -0.00099689                0.17849559
               0.00995292                9.99832799               12.01336177                1.00000000               -0.03198017               -0.03268460                0.10958132                0.00119479                0.01264169                0.01355132
               1.00963312                9.99719812               12.01221840                1.00000000               -0.03108646               -0.03082870                0.10361150                0.00091362                0.01586973                0.00073558
               2.00933120                9.99607250               12.01114011                0.99999998               -0.02931241               -0.02906203                0.09764437                0.00092634                0.01588086               -0.00353255
               3.00904687                9.99495253               12.01000011                0.01000001               -0.15850259               -0.02717143                0.09167107                0.14939436                0.08342089               -0.00413513
               4.00616114                9.99680704               12.01027843                0.01000004               -0.24233414                0.03989482                0.09793802                0.11929384                0.13928149               -0.01023725
               5.00420019                9.99760121               12.01101660                0.01000000               -0.18137902                0.02465606                0.10597317                0.03932962                0.15903384                0.00606154
               6.00253356                9.99805510               12.01212687                0.01000002               -0.16572356                0.01857139                0.11574359                0.01259482                0.19021627                0.01590462
               7.00088572                9.99818600               12.01380666                0.01000001               -0.17467203                0.01577929                0.12887313               -0.00824993                0.25499896                0.02917264
               7.99904012                9.99805289               12.01648441                0.01000000               -0.20116963                0.03094669                0.14861284               -0.07484146                0.33838223                0.07417672
               8.99686233                9.99659161               12.02009678                1.00000000               -0.13453724               -0.05279338                0.17350936               -0.06093941                0.18719691                0.00123593
               9.99634938                9.99634955               12.01998987                0.99999999               -0.05129502               -0.05127574                0.16893847                0.00150101                0.00110743               -0.00111404
               0.00131630                0.00179499               13.01071738                1.00000000               -0.02489774               -0.02493302                0.08269704                0.00023232               -0.00365579                0.00340967
               1.00106732                0.00123785               13.01068379                1.00000000               -0.02499007               -0.02513172                0.08333997                0.00010433               -0.00407031               -0.00107671
               2.00081650                0.00068347               13.01064384                0.01000000               -0.01751632               -0.02533056                0.08398287                0.00604668                0.02329009               -0.00170341
               3.00071699                0.00025090               13.01115844                0.01000000               -0.01135993               -0.02891649                0.09199840               -0.00001781                0.06175696               -0.00693494
               4.00058930                0.00032637               13.01183674                0.01000001               -0.01899000               -0.02723947                0.09916002                0.01318045                0.08669468               -0.01150273
               5.00033719                0.00098631               13.01282728                0.01000000               -0.04606044               -0.02681556                0.10624389                0.04106765                0.12059585               -0.01654712
               5.99966809                0.00247586               13.01422813                0.38043223               -0.05059929               -0.03393269                0.11445668                0.03779040                0.07559419               -0.00102141
               6.99932521                0.00320189               13.01458463                1.00000000               -0.03457032               -0.03425075                0.11592198                0.00004588                0.01535240               -0.00368326
               7.99897668                0.00391847               13.01477751                0.99999999               -0.03494553               -0.03441582                0.11645794                0.00011278                0.00842322               -0.00043285
               8.99862630                0.00462465               13.01499399                1.00000000               -0.03514724               -0.03460513                0.11709943                0.00010774                0.00767629                0.00089602
               9.99827374                0.00532006               13.01517144                1.00000000               -0.03525597               -0.03479824                0.11773939                0.00065111                0.00570168                0.00522726
               0.00187576                1.00154566               13.01075967                1.00000000               -0.02516367               -0.02505759                0.08355466                0.00013679                0.00101675                0.00367811
               1.00162412                1.00098654               13.01072738                0.01000001               -0.02526594               -0.02526402                0.08419748                0.00000870                0.00267685               -0.00280125
               2.00137044                1.00043017               13.01072831                0.01000000               -0.03643759               -0.03159777                0.08484044               -0.01085319                0.02777690                0.00452816
               3.00089537                0.99996174               13.01119695                0.01000001               -0.05085209               -0.02667195                0.09260554                0.00002039                0.05270570               -0.00992337
               4.00035340                1.00005397               13.01176234                0.01000000               -0.06111236               -0.02565239                0.09845473                0.02999957                0.06385290               -0.01594246
               4.99967312                1.00071815               13.01254361                0.01000000               -0.07075989               -0.02744892                0.10416042                0.07074773                0.09150129               -0.02026582
               5.99893820                1.00213653               13.01380374                0.01000000               -0.05343808               -0.05650381                0.11100511                0.06887757                0.06026911               -0.03208929
               6.99860436                1.00285939               13.01408689                1.00000000               -0.03358835               -0.03371867                0.11236363               -0.00011458                0.00626240               -0.00380735
               7.99826643                1.00357431               13.01426498                0.99999998               -0.03388893               -0.03389898                0.11297810                0.00002790                0.00123913               -0.00035016
               8.99792658                1.00427860               13.01444707                1.00000000               -0.03407958               -0.03408726                0.11362427                0.00002335                0.00094709                0.00048517
               9.99758484                1.00497207               13.01461969                0.99999999               -0.03417411               -0.03428076                0.11426614                0.00053619                0.00040708                0.00649089
               0.00243728                2.00129384               13.01080879                0.01000002               -0.02542967               -0.04069665                0.08441230               -0.02654765                0.00154796                0.02100441
               1.00218298                2.00073257               13.01073692                0.01000000               -0.04065248               -0.03809068                0.08505494               -0.03085472                0.01523180                0.01183870
               2.00162423                2.00005152               13.01093683                0.01000001               -0.05446934               -0.04007068                0.08999060               -0.02180222                0.02844645                0.00420260
               3.00109360                1.99971746               13.01117172                0.01000000               -0.05956809               -0.03179609                0.09367119                0.01673783                0.03576172               -0.01282751
               4.00043287                1.99981332               13.01157837                0.01000000               -0.07120069               -0.02962112                0.09805255                0.06080852                0.04742358               -0.02046552
               4.99966958                2.00043733               13.01215182                0.01000001               -0.07642322               -0.03589958                0.10230824                0.09884754                0.05085075               -0.02482826
               5.99890441                2.00134578               13.01275537                0.01000001               -0.08922243               -0.06329207                0.10567596                0.12109529                0.05866304               -0.04582099
               6.99788514                2.00252752               13.01358510                0.01000000               -0.06731885               -0.05346860                0.10883180                0.08245056                0.02847763               -0.01897205
               7.99755803                2.00324049               13.01375356                0.04482921               -0.03280662               -0.03279911                0.10948683                0.00098139               -0.00608293                0.01283061
               8.99722900                2.00394290               13.01389237                0.99999999               -0.03302604               -0.03304575                0.11016678                0.00002910               -0.00445224               -0.00195160
               9.99689751                2.00463444               13.01409466                0.99999999               -0.03314954               -0.03325221                0.11080729                0.00053745               -0.00138464                0.00645568
               0.00246734                3.00073173               13.01119728                0.01000001               -0.02179902               -0.04472101                0.09065337               -0.02195026                0.00117819                0.04080352
               1.00224935                3.00022472               13.01107187                0.01000001               -0.02589155               -0.05700859                0.09091020               -0.02474637                0.00599365                0.02213149
               2.00194951                2.99962875               13.01103357                0.01000000               -0.03905099               -0.05262600                0.09240967                0.00139935                0.01783753               -0.00259130
               3.00146833                2.99932581               13.01114297                0.01000000               -0.05499037               -0.04726418                0.09504122                0.04461790                0.03019118               -0.01450363
               4.00084970                2.99946155               13.01140053                0.01000001               -0.06753604               -0.04342565                0.09809622                0.09106356                0.03986104               -0.01885707
               5.00011761                3.00000016               13.01179182                0.01000000               -0.07898919               -0.04799240                0.10124888                0.13150376                0.04663914               -0.01825759
               5.99926991                3.00087069               13.01229470                0.01000001               -0.08794709               -0.05432482                0.10413461                0.15161625                0.04504186               -0.01094024
               6.99835866                3.00179001               13.01278336                0.01000000               -0.11996186               -0.06586965                0.10518861                0.17667226                0.04924946               -0.01409673
               7.99687068                3.00291833               13.01350495                0.01000001               -0.09127243               -0.06163842                0.10187158                0.15511588               -0.00119620                0.01009056
               8.99653322                3.00361768               13.01329798                0.01000000               -0.03290811               -0.07363642                0.10672619                0.12584481               -0.02419382                0.02041879
               9.99621251                3.00430703               13.01354449                0.17055685               -0.03207003               -0.13380263                0.10733830                0.14655416               -0.00166919                0.01496836
               0.00301229                4.00039942               13.01163574                0.01000000               -0.02212567               -0.03273511                0.09539768                0.00297973               -0.00185214                0.04873629
               1.00279103                3.99959240               13.01135287                0.01000000               -0.02305794               -0.06818066                0.09424356                0.01294803                0.00357448                0.01636775
               2.00255113                3.99899900               13.01115453                0.01000000               -0.03189337               -0.06919722                0.09450239                0.04340009                0.01662777               -0.00661795
               3.00215316                3.99877218               13.01112291                0.01000001               -0.04856673               -0.06176841                0.09603305                0.08188435                0.03233292               -0.01736917
               4.00157979                3.99894480               13.01128091                0.01000000               -0.06313234               -0.05766227                0.09852089                0.12143153                0.04588098               -0.01622245
               5.00089052                3.99947748               13.01160790                0.01000000               -0.07164577               -0.05809911                0.10146909                0.15391846                0.05462713               -0.00673571
               6.00014688                4.00025929               13.01204766                0.01000000               -0.07597867               -0.06564286                0.10423674                0.18181943                0.05815762                0.00651461
               6.99937094                4.00121013               13.01255282                0.01000000               -0.06570995               -0.07353946                0.10604037                0.19823169                0.04992824                0.02336014
               7.99883268                4.00200772               13.01293904                0.01000001               -0.05068702               -0.09756441                0.10732448                0.22625045                0.03511134                0.02102028
               8.99835720                4.00247017               13.01319270                0.01000000               -0.01913905               -0.11796423                0.10848401                0.16789199                0.01371495                0.04889584
               9.99844990                4.00195839               13.01319283                0.01000001                0.00926959               -0.17659316                0.10874959                0.12853309                0.00606745                0.02451591
               0.00414097                5.00007702               13.01217740                0.01000001               -0.02322397               -0.04818401                0.09883372                0.03399714               -0.00097456                0.06500929
               1.00390873                4.99886111               13.01167532                0.01000000               -0.02516178               -0.07347507                0.09644862                0.06005565                0.00587020                0.01489618
               2.00363773                4.99824481               13.01127725                0.01000001               -0.03742596               -0.07428645                0.09562802                0.08539631                0.02185207               -0.01546672
               3.00316021                4.99809045               13.01111944                0.01000000               -0.05323535               -0.07214426                0.09670161                0.11879593                0.04244656               -0.02221174
               4.00257302                4.99830830               13.01123175                0.01000000               -0.06393580               -0.06541804                0.09916449                0.14456651                0.06147518               -0.01493380
               5.00188149                4.99883818               13.01156499                0.01000000               -0.06996831               -0.06550061                0.10249698                0.16393298                0.07437912                0.00099214
               6.00117366                4.99955784               13.01205422                0.01000000               -0.06533147               -0.07268126                0.10610311                0.17271834                0.07978916                0.02304623
               7.00057486                5.00031923               13.01260198                0.01000000               -0.05190092               -0.09018875                0.10948216                0.17348246                0.07654616                0.04594983
               8.00013564                5.00096704               13.01309416                0.01000000               -0.03172356               -0.10634386                0.11223486                0.15392995                0.06223752                0.06904675
               8.99994039                5.00125840               13.01338367                0.01000000               -0.01644441               -0.11463200                0.11354527                0.10907887                0.03709779                0.07959435
               9.99980675                5.00077517               13.01334247                0.01000000               -0.01336401               -0.09033341                0.11277842                0.05441428                0.02267336                0.06727688
               0.00612406                5.99943574               13.01299627                0.90028134               -0.02997039               -0.04763854                0.10271111                0.03321663               -0.00373979                0.04025985
               1.00582436                5.99812290               13.01208566                0.01000000               -0.05471718               -0.05164695                0.09727466                0.06470259                0.00535210                0.00363044
               2.00502972                5.99751327               13.01135675                0.01000001               -0.06793846               -0.08547695                0.09591033                0.12022985                0.02447023               -0.03221168
               3.00446559                5.99732929               13.01110820                0.01000001               -0.06531642               -0.07004476                0.09679749                0.14044675                0.05982172               -0.02783606
               4.00372339                5.99763644               13.01123441                0.01000000               -0.07729726               -0.06644808                0.09982437                0.15816457                0.08402496               -0.01617471
               5.00291964                5.99816747               13.01163715                0.01000004               -0.08015954               -0.06314108                0.10403619                0.15933334                0.10094608                0.00509263
               6.00212020                5.99880566               13.01225551                0.01000001               -0.07441297               -0.06831331                0.10898380                0.14394398                0.11086635                0.03398189
               7.00143138                5.99940635               13.01298507                0.01000000               -0.05740465               -0.08506620                0.11409888                0.11568232                0.10984998                0.06877978
               8.00097211                5.99988085               13.01367165                0.01000000               -0.03503636               -0.10482340                0.11843814                0.08571055                0.09355027                0.10372460
               9.00073066                6.00017753               13.01410544                0.01000008               -0.02337294               -0.10494808                0.12082794                0.04976735                0.05725830                0.13009283
              10.00050465                6.00015172               13.01404847                0.01000002               -0.02260096               -0.05315773                0.11995616                0.02504503                0.03363722                0.13076649
               0.00743098                6.99912425               13.01333629                1.00000000               -0.03057296               -0.03140443                0.10469132                0.00025756               -0.00287993                0.01938763
               1.00712525                6.99782817               13.01232271                1.00000000               -0.02975208               -0.02975910                0.09912053               -0.00011136               -0.00601566               -0.00161028
               2.00683594                6.99653527               13.01124715                0.01000000               -0.06396394               -0.06305287                0.09375244                0.09743939                0.03751165               -0.03122935
               3.00584597                6.99668955               13.01110815                0.01000000               -0.09688989               -0.07001632                0.09648993                0.15091209                0.08522401               -0.03359600
               4.00489814                6.99697934               13.01125335                0.01000000               -0.09735145               -0.06397579                0.10037296                0.16433653                0.10711298               -0.02263550
               5.00389894                6.99757536               13.01177242                0.01000001               -0.10422413               -0.04664349                0.10557974                0.15141665                0.13137880                0.00525333
               6.00281365                6.99819157               13.01259488                0.01000000               -0.10428070               -0.04604665                0.11225033                0.10640768                0.14791296                0.03916459
               7.00181333                6.99861790               13.01363273                0.01000000               -0.08674934               -0.06199413                0.11975783                0.04770875                0.15219668                0.08221437
               8.00107867                6.99887057               13.01468891                0.01000000               -0.05742302               -0.09022612                0.12684345               -0.00373525                0.13490270                0.14432822
               9.00066486                6.99915944               13.01546220                0.01000000               -0.03596931               -0.10456364                0.13154260               -0.01999111                0.08375443                0.19655344
              10.00035928                6.99971201               13.01551346                0.01000000               -0.03055830               -0.05359594                0.13115655               -0.01714134                0.04751223                0.22942492
               0.00872138                7.99880765               13.01373695                0.99999999               -0.03102677               -0.03191229                0.10626811                0.00022693               -0.00081403                0.02276638
               1.00841111                7.99752772               13.01263111                1.00000000               -0.03021277               -0.03027384                0.10078904               -0.00002768               -0.00037682                0.00263399
               2.00811713                7.99625221               13.01153494                0.01000000               -0.06856767               -0.02854911                0.09530472                0.04732916                0.03068779               -0.01545446
               3.00703976                7.99592897               13.01105411                0.01000001               -0.09964067               -0.09897692                0.09738550                0.16789797                0.08042048               -0.07018597
               4.00612431                7.99635693               13.01121191                0.01000001               -0.11520058               -0.04133545                0.09978080                0.18414216                0.13196606               -0.02848659
               5.00473575                7.99723460               13.01192035                0.01000000               -0.14592519               -0.01395482                0.10678795                0.14125744                0.16298256                0.00341647
               6.00320581                7.99788473               13.01297117                0.01000000               -0.15145977               -0.01279587                0.11518444                0.07036414                0.18407936                0.03619860
               7.00170655                7.99816647               13.01438126                0.01000000               -0.14249713               -0.02257161                0.12542414               -0.01080124                0.21060918                0.07916738
               8.00035587                7.99807632               13.01620103                0.01000000               -0.11085776               -0.04819925                0.13791276               -0.09390355                0.20187460                0.15148152
               8.99948940                7.99808626               13.01761680                0.01000007               -0.06495986               -0.09349779                0.14689319               -0.14614036                0.13388967                0.34494461
               9.99905667                7.99907980               13.01816766                0.01000000               -0.04327288               -0.13505221                0.14949273               -0.10800968                0.08894130                0.34239767
               0.00999538                8.99848601               13.01414484                1.00000000               -0.03152489               -0.03240810                0.10786662                0.00023328                0.00230780                0.01832692
               1.00968013                8.99722269               13.01295609                0.99999999               -0.03070549               -0.03071908                0.10235089               -0.00001012                0.00123101                0.00207613
               2.00938127                8.99596429               13.01174658                0.99999999               -0.02904593               -0.02904616                0.09680181               -0.00003254               -0.00493738               -0.01143320
               3.00909921                8.99471001               13.01043799                0.01000000               -0.10529620               -0.07471660                0.09119601                0.17452772                0.09367313               -0.05883412
               4.00727535                8.99615263               13.01120695                0.01000000               -0.19514628                0.01427428                0.09955429                0.17658870                0.18047428               -0.02309921
               5.00519629                8.99729626               13.01203097                0.01000000               -0.19931390                0.01891189                0.10720445                0.09675837                0.18097417                0.00263495
               6.00328907                8.99793565               13.01324967                0.01000004               -0.18952899                0.01477868                0.11684923                0.03628068                0.20878471                0.02330539
               7.00140571                8.99816647               13.01498634                0.01000000               -0.20041313                0.01056716                0.12939605               -0.02292009                0.25435312                0.05084500
               7.99928081                8.99790659               13.01741896                0.01000001               -0.23335628                0.01044540                0.14608704               -0.09666877                0.38210196                0.10633990
               8.99673858                8.99728948               13.02200933                0.99999998               -0.15343974               -0.06618271                0.17726880               -0.16903318                0.23586035                0.22961608
               9.99621201                8.99701097               13.02186007                0.99999996               -0.05265703               -0.12913349                0.17335904               -0.15617392               -0.00100165                0.19248400
               0.01125268                9.99815949               13.01445692                1.00000000               -0.03200466               -0.03265210                0.10944186                0.00111458                0.01265955                0.01356723
               1.01093263                9.99691334               13.01325611                1.00000000               -0.03117602               -0.03093576                0.10392214                0.00084006                0.01589354                0.00072072
               2.01062916                9.99567129               13.01212037                0.99999998               -0.02953297               -0.02930001                0.09839623                0.00085358                0.01591068               -0.00356179
               3.01034197                9.99443463               13.01092288                0.01000000               -0.17796601               -0.02753778                0.09286897                0.17283213                0.08941688               -0.00414465
               4.00706984                9.99664241               13.01126286                0.01000002               -0.27270372                0.04897810                0.09893084                0.13835929                0.15094865               -0.01086080
               5.00488790                9.99761284               13.01208051                0.01000000               -0.20043110                0.03165768                0.10675932                0.04605553                0.17197426                0.00664914
               6.00306121                9.99818030               13.01328759                0.01000002               -0.18053419                0.02446518                0.11634973                0.01546344                0.20549572                0.01722895
               7.00127721                9.99837781               13.01509783                0.01000001               -0.18808674                0.02113442                0.12931499               -0.00760293                0.27516535                0.03154667
               7.99929948                9.99828523               13.01797168                0.01000000               -0.21364279                0.03786421                0.14881468               -0.07889283                0.36445677                0.08002599
               8.99700436                9.99676261               13.02183202                0.99999996               -0.14046315               -0.05268724                0.17354204               -0.06282742                0.20171222                0.00123238
               9.99649022                9.99649713               13.02168276                0.99999992               -0.05141404               -0.05138360                0.16963414                0.00127296                0.00111222               -0.00111063
               0.00131011                0.00178251               14.01154632                1.00000000               -0.02499404               -0.02500611                0.08309089                0.00015912               -0.00365584                0.00340986
               1.00106017                0.00117921               14.01151833                1.00000000               -0.02506282               -0.02515375                0.08356820                0.00007705               -0.00407032               -0.00107673
               2.00080886                0.00057768               14.01148398                0.01000000               -0.01612082               -0.02530151                0.08404549                0.00830092                0.02692794               -0.00170342
               3.00073776                0.00014253               14.01207694                0.01000000               -0.00929724               -0.02878176                0.09169082                0.00211855                0.06913917               -0.00641814
               4.00062291                0.00028918               14.01282591                0.01000001               -0.01947701               -0.02621722                0.09866996                0.01795259                0.09391687               -0.01151394
               5.00034822                0.00111361               14.01388694                0.01000002               -0.05404626               -0.02511986                0.10568822                0.05257199                0.12829062               -0.01681969
               5.99954199                0.00290732               14.01536958                0.36530755               -0.05736769               -0.03378551                0.11389750                0.05071903                0.07974688               -0.00099584
               6.99920086                0.00368014               14.01574222                1.00000000               -0.03444341               -0.03416728                0.11557768                0.00006744                0.01574877               -0.00377292
               7.99885312                0.00444403               14.01594129                0.99999999               -0.03489259               -0.03438575                0.11628451                0.00013788                0.00838596               -0.00044040
               8.99850301                0.00519793               14.01616499                1.00000000               -0.03514487               -0.03462623                0.11709826                0.00013313                0.00769652                0.00090044
               9.99815022                0.00594152               14.01634966                1.00000000               -0.03527894               -0.03487328                0.11791090                0.00065566                0.00572087                0.00524158
               0.00191500                1.00153245               14.01159565                1.00000000               -0.02516464               -0.02508590                0.08364147                0.00008810                0.00101679                0.00367837
               1.00166336                1.00092767               14.01156896                0.01000000               -0.02523987               -0.02523921                0.08411870                0.00000592                0.00267696               -0.00280131
               2.00141021                1.00032467               14.01157549                0.01000000               -0.03800815               -0.03203188                0.08459608               -0.00959898                0.03133982                0.00671138
               3.00090319                0.99985471               14.01212099                0.01000001               -0.05466539               -0.02638786                0.09219240                0.00470741                0.05903541               -0.00926468
               4.00031690                1.00002701               14.01274439                0.01000000               -0.06691643               -0.02483454                0.09795289                0.04005057                0.06924084               -0.01580978
               4.99956486                1.00086241               14.01358274                0.01000000               -0.07754935               -0.02700245                0.10366324                0.08912882                0.09722090               -0.02038696
               5.99876591                1.00256946               14.01491138                0.01000000               -0.05658423               -0.06258233                0.11058816                0.08534277                0.06370466               -0.03300763
               6.99843318                1.00333847               14.01520961                1.00000000               -0.03351532               -0.03365628                0.11216267               -0.00012465                0.00664307               -0.00387284
               7.99809560                1.00410017               14.01539466                0.99999998               -0.03387907               -0.03388978                0.11294623                0.00002689                0.00123940               -0.00035720
               8.99775560                1.00485166               14.01558402                1.00000000               -0.03412088               -0.03412911                0.11376326                0.00002241                0.00096607                0.00049890
               9.99741319                1.00559278               14.01576386                1.00000000               -0.03424120               -0.03437677                0.11457745                0.00051455                0.00042257                0.00650732
               0.00252142                2.00128079               14.01165181                0.01000000               -0.02533531               -0.04035693                0.08419206               -0.02603380                0.00154807                0.02372351
               1.00226807                2.00067443               14.01158554                0.01000000               -0.04157942               -0.03969857                0.08466912               -0.03068633                0.01741535                0.01441404
               2.00168984                1.99993704               14.01183472                0.01000001               -0.05692535               -0.04174898                0.08958731               -0.01874675                0.03248555                0.00731469
               3.00112956                1.99961477               14.01210623                0.01000000               -0.06368062               -0.03256846                0.09322690                0.02709383                0.03959995               -0.01178871
               4.00041622                1.99979249               14.01255657                0.01000000               -0.07706159               -0.03014979                0.09758199                0.07843052                0.05153822               -0.01999398
               4.99958833                2.00057356               14.01317266                0.01000001               -0.08217201               -0.03828103                0.10186626                0.12186992                0.05438543               -0.02453295
               5.99877278                2.00165567               14.01381061                0.01000001               -0.09603371               -0.07211950                0.10536926                0.14476346                0.06162531               -0.04658834
               6.99766766                2.00300702               14.01467323                0.01000001               -0.07161619               -0.05787389                0.10877170                0.09598345                0.02977257               -0.01883814
               7.99734046                2.00376624               14.01484903                0.04968621               -0.03284054               -0.03288741                0.10959624                0.00087409               -0.00604386                0.00962782
               8.99701085                2.00451534               14.01499542                0.99999999               -0.03310944               -0.03312743                0.11044392                0.00003125               -0.00441546               -0.00192176
               9.99667827                2.00525398               14.01520494                1.00000000               -0.03325769               -0.03339028                0.11125775                0.00051713               -0.00136892                0.00646828
               0.00260706                3.00072531               14.01210172                0.01000001               -0.02136799               -0.04421750                0.09024943               -0.02096987                0.00193532                0.04613439
               1.00239338                3.00013370               14.01197904                0.01000001               -0.02560666               -0.06124240                0.09053864               -0.02138122                0.00731447                0.02600886
               2.00209492                2.99948969               14.01195578                0.01000000               -0.04018749               -0.05655770                0.09203977                0.01104263                0.02040004               -0.00103121
               3.00158963                2.99920334               14.01209154                0.01000000               -0.05841016               -0.05035503                0.09466589                0.06132140                0.03355403               -0.01354599
               4.00092672                2.99942401               14.01237943                0.01000001               -0.07252750               -0.04620165                0.09770187                0.11405884                0.04346672               -0.01806212
               5.00013908                3.00009679               14.01280286                0.01000000               -0.08494977               -0.05220426                0.10090657                0.15877760                0.04999112               -0.01719513
               5.99922772                3.00112707               14.01333312                0.01000001               -0.09483956               -0.06000754                0.10374201                0.17869430                0.04767905               -0.00927133
               6.99824229                3.00218099               14.01384036                0.01000000               -0.13114837               -0.07298387                0.10564232                0.20395530                0.04726081               -0.01256351
               7.99660476                3.00344243               14.01450228                0.01000000               -0.09869038               -0.06609823                0.10018395                0.17677952               -0.00039797                0.01244387
               8.99626848                3.00418912               14.01436728                0.01000000               -0.03292515               -0.07911428                0.10713908                0.14218518               -0.02094099                0.02296676
               9.99594625                3.00492498               14.01462076                0.18324896               -0.03222239               -0.14684650                0.10792857                0.16543384               -0.00167173                0.01733700
               0.00328524                4.00039644               14.01258757                0.01000000               -0.02091739               -0.03400878                0.09500611                0.00744351               -0.00131440                0.05285564
               1.00307607                3.99944958               14.01229383                0.01000000               -0.02220983               -0.07483037                0.09398494                0.02251634                0.00482043                0.01835937
               2.00284105                3.99880589               14.01209840                0.01000000               -0.03271998               -0.07533912                0.09429418                0.06067011                0.01917941               -0.00582198
               3.00242167                3.99860767               14.01208212                0.01000001               -0.05185464               -0.06654966                0.09582160                0.10474477                0.03590723               -0.01687671
               4.00180395                3.99886845               14.01226490                0.01000000               -0.06804250               -0.06205903                0.09827962                0.14867750                0.05002869               -0.01527000
               5.00106082                3.99952947               14.01262107                0.01000001               -0.07707423               -0.06291147                0.10118940                0.18372667                0.05882802               -0.00486747
               6.00026247                4.00045552               14.01308910                0.01000000               -0.08147035               -0.07167800                0.10402393                0.21275514                0.06161715                0.00965414
               6.99943141                4.00154734               14.01361116                0.01000000               -0.06972719               -0.08027073                0.10583726                0.22887812                0.05289726                0.02785839
               7.99886793                4.00244427               14.01401775                0.01000002               -0.05297070               -0.10688784                0.10793311                0.25794567                0.03727418                0.03035445
               8.99837200                4.00293306               14.01427848                0.01000000               -0.01763517               -0.12883035                0.10875653                0.19010905                0.01498691                0.05535782
               9.99851522                4.00231705               14.01428247                0.01000002                0.01432230               -0.19466396                0.10920281                0.14534505                0.00727369                0.02962254
               0.00464965                5.00004513               14.01316406                0.01000000               -0.02153981               -0.05726068                0.09856040                0.04615252               -0.00013478                0.06842882
               1.00443425                4.99863709               14.01263927                0.01000000               -0.02497106               -0.08108994                0.09640269                0.07933497                0.00753958                0.01531909
               2.00415023                4.99798290               14.01223360                0.01000001               -0.04061481               -0.08032504                0.09567664                0.10899263                0.02504924               -0.01576541
               3.00362196                4.99787235               14.01208657                0.01000000               -0.05858821               -0.07776083                0.09673451                0.14618779                0.04694449               -0.02232724
               4.00297847                4.99818283               14.01222306                0.01000001               -0.06977080               -0.07024231                0.09911395                0.17399550                0.06685823               -0.01403118
               5.00222654                4.99883856               14.01258927                0.01000000               -0.07567512               -0.07053031                0.10236541                0.19429308                0.08013820                0.00335772
               6.00146496                4.99969351               14.01311409                0.01000000               -0.06977218               -0.07859168                0.10590946                0.20228782                0.08546881                0.02724496
               7.00083110                5.00057558               14.01369622                0.01000000               -0.05435074               -0.09784098                0.10934630                0.20086637                0.08160658                0.05248796
               8.00037795                5.00130467               14.01421464                0.01000000               -0.03166098               -0.11546943                0.11205821                0.17658111                0.06627998                0.07705959
               9.00019788                5.00161251               14.01451944                0.01000000               -0.01463904               -0.12398705                0.11364093                0.12423408                0.03947125                0.08849238
              10.00008517                5.00103170               14.01447167                0.01000000               -0.01127099               -0.09655800                0.11310058                0.06178135                0.02395677                0.07503136
               0.00702437                5.99925123               14.01402243                0.88641353               -0.02993756               -0.05524713                0.10246464                0.04732523               -0.00374127                0.04174046
               1.00672500                5.99782778               14.01305968                0.01000000               -0.06193653               -0.05527706                0.09747580                0.08254444                0.00731771                0.00358066
               2.00578564                5.99719939               14.01231748                0.01000001               -0.07897485               -0.09285390                0.09630387                0.14600071                0.02851705               -0.03420182
               3.00514550                5.99705246               14.01207717                0.01000001               -0.07339950               -0.07501287                0.09710947                0.16801191                0.06561079               -0.02853539
               4.00431765                5.99746361               14.01223346                0.01000000               -0.08547524               -0.07103382                0.10001056                0.18744356                0.09110884               -0.01551502
               5.00343600                5.99811887               14.01267756                0.01000000               -0.08732213               -0.06741243                0.10405899                0.18783550                0.10873476                0.00754733
               6.00257121                5.99888369               14.01334485                0.01000007               -0.07992055               -0.07300050                0.10889095                0.16945214                0.11890270                0.03875945
               7.00183758                5.99959052               14.01412504                0.01000000               -0.06042976               -0.09110419                0.11392331                0.13636357                0.11750418                0.07618246
               8.00136261                6.00013488               14.01485559                0.01000000               -0.03539675               -0.11208519                0.11831242                0.10081127                0.09979265                0.11372779
               9.00112965                6.00045332               14.01531351                0.01000002               -0.02250739               -0.11142633                0.12080403                0.05805867                0.06088648                0.14172069
              10.00091247                6.00038589               14.01524913                0.01000002               -0.02171830               -0.05356979                0.12019548                0.02901360                0.03562624                0.14219018
               0.00844305                6.99894019               14.01438274                1.00000000               -0.03060718               -0.03139680                0.10461217                0.00024412               -0.00296343                0.01969242
               1.00813698                6.99753155               14.01331592                1.00000000               -0.02987420               -0.02991703                0.09954582               -0.00017933               -0.00600068               -0.00135114
               2.00784557                6.99612583               14.01218943                0.01000001               -0.07095017               -0.06797928                0.09475834                0.11473968                0.04151619               -0.03298416
               3.00671798                6.99637209               14.01207758                0.01000000               -0.10923223               -0.07547909                0.09733502                0.17688649                0.09293439               -0.03473914
               4.00566092                6.99676215               14.01225853                0.01000002               -0.10774033               -0.06842799                0.10072720                0.19200087                0.11591954               -0.02278038
               5.00456317                6.99749031               14.01282920                0.01000000               -0.11392833               -0.04877682                0.10579268                0.17721346                0.14126061                0.00745408
               6.00338236                6.99823350               14.01371745                0.01000000               -0.11279979               -0.04780710                0.11226971                0.12647974                0.15864064                0.04389022
               7.00230717                6.99875349               14.01482971                0.01000000               -0.09254909               -0.06487842                0.11963452                0.06050854                0.16297775                0.09010601
               8.00153138                6.99906297               14.01595623                0.01000000               -0.05995660               -0.09471953                0.12664260                0.00224215                0.14423701                0.15663221
               9.00110804                6.99938398               14.01677699                0.01000000               -0.03655414               -0.10874504                0.13142329               -0.01839147                0.08936259                0.21227676
              10.00080029                6.99996030               14.01682585                0.01000001               -0.03077504               -0.05196453                0.13132675               -0.01731512                0.05050291                0.24669060
               0.00984653                7.99862329               14.01479946                0.99999999               -0.03107572               -0.03193910                0.10627063                0.00020003               -0.00079930                0.02281509
               1.00953578                7.99722944               14.01364112                1.00000000               -0.03033183               -0.03043097                0.10124228               -0.00006727               -0.00037756                0.00267076
               2.00923990                7.99583980               14.01249244                0.01000007               -0.07444355               -0.02884032                0.09621955                0.05431821                0.03400030               -0.01558112
               3.00804690                7.99554287               14.01202563                0.01000000               -0.11002229               -0.10966552                0.09732989                0.19352838                0.08898494               -0.07509208
               4.00703945                7.99609505               14.01221413                0.01000002               -0.12689955               -0.04335003                0.10062229                0.21242938                0.14198503               -0.02897337
               5.00550891                7.99714333               14.01298967                0.01000000               -0.16009128               -0.01215581                0.10714560                0.16385066                0.17491834                0.00506624
               6.00383762                7.99792755               14.01412396                0.01000000               -0.16453093               -0.01072154                0.11535457                0.08437982                0.19736981                0.04014574
               7.00221829                7.99829295               14.01563533                0.01000003               -0.15303283               -0.02124754                0.12538378               -0.00546703                0.22572270                0.08623583
               8.00077697                7.99824049               14.01757903                0.01000002               -0.11769063               -0.04816978                0.13767639               -0.09677605                0.21630208                0.16379157
               8.99986448                7.99827842               14.01908452                0.01000007               -0.06817234               -0.09436659                0.14664605               -0.15528924                0.14337290                0.37064682
               9.99941352                7.99934660               14.01966273                0.01000000               -0.04509609               -0.13817074                0.14951703               -0.11465661                0.09510052                0.36641453
               0.01123476                8.99830141               14.01522308                1.00000000               -0.03156352               -0.03240511                0.10778766                0.00021232                0.00230083                0.01832700
               1.01091912                8.99692293               14.01398143                0.99999999               -0.03081303               -0.03084651                0.10271798               -0.00003141                0.00120232                0.00202929
               2.01061850                8.99554902               14.01271860                1.00000000               -0.02929111               -0.02930651                0.09760127               -0.00007060               -0.00501870               -0.01154724
               3.01033330                8.99417878               14.01135604                0.01000002               -0.11547225               -0.08215176                0.09241003                0.19959753                0.10035491               -0.06235673
               4.00830905                8.99589515               14.01220692                0.01000000               -0.21628076                0.01914720                0.10037478                0.20257282                0.19318565               -0.02376465
               5.00600768                8.99724720               14.01310592                0.01000000               -0.21943581                0.02458942                0.10777792                0.11149789                0.19385536                0.00360268
               6.00392034                8.99801907               14.01441997                0.01000001               -0.20613985                0.01981463                0.11718961                0.04349395                0.22376121                0.02561776
               7.00188489                8.99832854               14.01628098                0.01000002               -0.21549743                0.01505040                0.12951214               -0.02164287                0.27265177                0.05513719
               7.99961039                8.99809957               14.01887922                0.01000001               -0.24943694                0.01537379                0.14595440               -0.10068957                0.40954429                0.11464298
               8.99689615                8.99749665               14.02377856                0.99999998               -0.16197977               -0.06537695                0.17657839               -0.17908363                0.25309637                0.24637325
               9.99637079                8.99719689               14.02359350                0.99999999               -0.05253571               -0.13323245                0.17332599               -0.16714543               -0.00100237                0.20608299
               0.01260773                9.99797519               14.01555060                1.00000000               -0.03201947               -0.03262202                0.10927564                0.00102926                0.01266424                0.01355705
               1.01228754                9.99661251               14.01429684                1.00000000               -0.03125480               -0.03104247                0.10420122                0.00076558                0.01590580                0.00068368
               2.01198263                9.99525367               14.01310804                0.99999998               -0.02974066               -0.02953468                0.09911039                0.00078028                0.01593315               -0.00361149
               3.01169272                9.99389984               14.01185749                0.01000000               -0.19800710               -0.02789437                0.09402354                0.19715818                0.09508868               -0.00415546
               4.00802249                9.99647799               14.01225704                0.01000003               -0.30388866                0.05828396                0.09986529                0.15810819                0.16198495               -0.01145458
               5.00561495                9.99763512               14.01315179                0.01000000               -0.21981674                0.03879253                0.10745463                0.05301883                0.18432191                0.00729767
               6.00362616                9.99832384               14.01445387                0.01000001               -0.19550043                0.03047654                0.11687239                0.01852404                0.22021802                0.01857549
               7.00170494                9.99859396               14.01639296                0.01000000               -0.20155451                0.02654166                0.12968410               -0.00678823                0.29471564                0.03389381
               7.99959507                9.99854797               14.01946070                0.01000000               -0.22597255                0.04483985                0.14897108               -0.08268597                0.38985939                0.08571919
               8.99718549                9.99697088               14.02356762                0.99999993               -0.14624663               -0.05257724                0.17357744               -0.06436671                0.21583194                0.00123357
               9.99667013                9.99668195               14.02338256                0.99999995               -0.05153550               -0.05149368                0.17032463                0.00104173                0.00111211               -0.00111225
               0.00129915                0.00176452               15.01237920                1.00000000               -0.02509029               -0.02507914                0.08348452                0.00008597               -0.00365590                0.00341006
               1.00104825                0.00111506               15.01235515                1.00000000               -0.02513554               -0.02517577                0.08379635                0.00004979               -0.00407035               -0.00107675
               2.00079644                0.00046638               15.01232475                0.01000035               -0.01452030               -0.02527250                0.08410815                0.01084400                0.03045810               -0.00170343
               3.00075785                0.00003443               15.01299226                0.01000000               -0.00694065               -0.02872824                0.09136324                0.00457069                0.07624112               -0.00587791
               4.00065763                0.00025913               15.01381014                0.01000001               -0.01992559               -0.02520106                0.09817138                0.02307739                0.10090898               -0.01151268
               5.00035933                0.00125831               15.01494104                0.01000000               -0.06249417               -0.02336172                0.10513287                0.06478217                0.13581978               -0.01711217
               5.99940775                0.00337234               15.01650608                0.35011608               -0.06454291               -0.03369910                0.11341051                0.06443400                0.08383149               -0.00096706
               6.99906848                0.00419165               15.01689619                1.00000000               -0.03430590               -0.03407264                0.11519338                0.00007454                0.01612228               -0.00386417
               7.99872163                0.00500291               15.01710320                0.99999999               -0.03483099               -0.03434891                0.11608620                0.00016694                0.00834929               -0.00044711
               8.99837186                0.00580461               15.01733595                1.00000000               -0.03514026               -0.03464620                0.11709190                0.00016225                0.00771918                0.00090490
               9.99801882                0.00659647               15.01752965                1.00000000               -0.03530316               -0.03495310                0.11809639                0.00066302                0.00574154                0.00525672
               0.00194948                1.00151373               15.01243250                1.00000000               -0.02516561               -0.02511418                0.08372820                0.00003942                0.00101684                0.00367862
               1.00169782                1.00086330               15.01240975                0.01000000               -0.02521381               -0.02521441                0.08403995                0.00000316                0.00267709               -0.00280136
               2.00144520                1.00021366               15.01242023                0.01000000               -0.03953202               -0.03244293                0.08435187               -0.00796777                0.03489615                0.00896875
               3.00090718                0.99974715               15.01304080                0.01000001               -0.05843682               -0.02616432                0.09176456                0.00996819                0.06529156               -0.00849173
               4.00027646                1.00000712               15.01372139                0.01000000               -0.07283158               -0.02403661                0.09744362                0.05085626                0.07453640               -0.01561160
               4.99945055                1.00102470               15.01461687                0.01000000               -0.08455212               -0.02658784                0.10316387                0.10860763                0.10289714               -0.02049086
               5.99858542                1.00303535               15.01601550                0.01000000               -0.05983048               -0.06900342                0.11024475                0.10274098                0.06710946               -0.03398407
               6.99825394                1.00385092               15.01633014                1.00000000               -0.03343012               -0.03358194                0.11192081               -0.00011237                0.00699869               -0.00393972
               7.99791682                1.00465942               15.01652391                0.99999999               -0.03386193               -0.03387411                0.11289172                0.00002781                0.00123873               -0.00036285
               8.99757670                1.00545815               15.01672234                1.00000000               -0.03416125               -0.03417020                0.11390009                0.00002247                0.00098567                0.00051216
               9.99723359                1.00624694               15.01691124                0.99999999               -0.03431062               -0.03447811                0.11490613                0.00049277                0.00043843                0.00652426
               0.00260080                2.00126224               15.01249263                0.01000001               -0.02524098               -0.03975342                0.08397188               -0.02505015                0.00154819                0.02651174
               1.00234839                2.00061077               15.01243030                0.01000000               -0.04237769               -0.04133496                0.08428346               -0.03004791                0.01967310                0.01715752
               2.00175324                1.99981752               15.01272858                0.01000001               -0.05923200               -0.04346059                0.08920118               -0.01499107                0.03654095                0.01062737
               3.00116375                1.99951114               15.01303626                0.01000000               -0.06780186               -0.03340694                0.09276464                0.03847252                0.04340661               -0.01052671
               4.00039721                1.99977840               15.01353001                0.01000000               -0.08302486               -0.03075754                0.09710725                0.09733301                0.05558792               -0.01937166
               4.99950325                2.00072656               15.01418915                0.01000001               -0.08804324               -0.04084242                0.10143616                0.14635338                0.05786039               -0.02420926
               5.99863634                2.00199228               15.01486276                0.01000000               -0.10305454               -0.08142892                0.10505214                0.16970099                0.06457883               -0.04737612
               6.99744216                2.00352001               15.01576054                0.01000003               -0.07606912               -0.06250552                0.10866958                0.11069663                0.03109038               -0.01879347
               7.99711496                2.00432543               15.01594549                0.05356978               -0.03286856               -0.03304638                0.10968527                0.00100895               -0.00600606                0.00675641
               8.99678479                2.00512120               15.01610125                0.99999999               -0.03319325               -0.03320940                0.11072378                0.00003455               -0.00437993               -0.00189359
               9.99645110                2.00590691               15.01631982                0.99999998               -0.03336939               -0.03353492                0.11172964                0.00049625               -0.00135331                0.00648129
               0.00275140                3.00071866               15.01300227                0.01000001               -0.02098279               -0.04340223                0.08987727               -0.01957237                0.00267682                0.05157761
               1.00254158                3.00003660               15.01288264                0.01000001               -0.02531984               -0.06557087                0.09020042               -0.01730019                0.00861478                0.03024102
               2.00224501                2.99934445               15.01287437                0.01000000               -0.04129099               -0.06063916                0.09168005                0.02177937                0.02290453                0.00089622
               3.00171576                2.99907901               15.01303629                0.01000000               -0.06186486               -0.05357651                0.09429670                0.07942893                0.03681408               -0.01227004
               4.00100771                2.99939197               15.01335457                0.01000001               -0.07760105               -0.04913107                0.09732697                0.13865226                0.04690873               -0.01705263
               5.00016374                3.00020785               15.01380995                0.01000000               -0.09108608               -0.05664164                0.10053605                0.18772195                0.05324344               -0.01604420
               5.99918599                3.00140678               15.01436954                0.01000000               -0.10145088               -0.06604393                0.10351906                0.20728739                0.05008728               -0.00763772
               6.99813472                3.00260081               15.01489620                0.01000000               -0.14250936               -0.08042852                0.10529812                0.23248975                0.04587405               -0.01116478
               7.99633580                3.00399849               15.01550863                0.01000007               -0.10694029               -0.07114885                0.10325186                0.19945167               -0.00047428                0.01494001
               8.99599591                3.00479396               15.01544076                0.01000000               -0.03318447               -0.08480152                0.10756175                0.15925878               -0.01802185                0.02541189
               9.99567211                3.00557624               15.01570306                0.19734520               -0.03238002               -0.16034893                0.10854367                0.18504325               -0.00167379                0.01957311
               0.00357347                4.00039419               15.01353587                0.01000000               -0.01968663               -0.03539638                0.09469368                0.01233795               -0.00084310                0.05721110
               1.00337660                3.99929936               15.01323257                0.01000000               -0.02135204               -0.08174795                0.09380027                0.03294735                0.00595075                0.02077000
               2.00314643                3.99860474               15.01304041                0.01000000               -0.03358985               -0.08170095                0.09413699                0.07933345                0.02154259               -0.00456796
               3.00270481                3.99843961               15.01303934                0.01000001               -0.05525069               -0.07150798                0.09564014                0.12924572                0.03923856               -0.01599649
               4.00204141                3.99879578               15.01324650                0.01000000               -0.07309613               -0.06664214                0.09805463                0.17769433                0.05390146               -0.01405684
               5.00124288                3.99959372               15.01363169                0.01000001               -0.08261428               -0.06794984                0.10094397                0.21525530                0.06273375               -0.00284512
               6.00038913                4.00067140               15.01412814                0.01000000               -0.08713229               -0.07798982                0.10379121                0.24539022                0.06490170                0.01271884
               6.99950024                4.00191144               15.01466956                0.01000007               -0.07391412               -0.08728502                0.10592373                0.26013899                0.05560776                0.03234743
               7.99891085                4.00290245               15.01509770                0.01000000               -0.05540084               -0.11640512                0.10780261                0.29079781                0.03945005                0.03869821
               8.99839222                4.00342517               15.01536783                0.01000000               -0.01617243               -0.14003725                0.10917163                0.21371736                0.01614477                0.06140928
               9.99858740                4.00269993               15.01537689                0.01000002                0.01951774               -0.21335544                0.10967846                0.16294052                0.00837590                0.03447855
               0.00518784                5.00001073               15.01414860                0.01000005               -0.01978636               -0.06711636                0.09845495                0.05915493                0.00059746                0.07202912
               1.00498998                4.99840165               15.01360338                0.01000000               -0.02482109               -0.08907437                0.09650536                0.09993775                0.00901996                0.01615224
               2.00469142                4.99771043               15.01319079                0.01000001               -0.04401706               -0.08656685                0.09581585                0.13416703                0.02792109               -0.01554326
               3.00410964                4.99764885               15.01305413                0.01000000               -0.06419662               -0.08360207                0.09681430                0.17528581                0.05105568               -0.02198346
               4.00340749                4.99805912               15.01321403                0.01000001               -0.07582084               -0.07525542                0.09909844                0.20518846                0.07181833               -0.01282464
               5.00259322                4.99884885               15.01361230                0.01000000               -0.08157040               -0.07576209                0.10225568                0.22639580                0.08548213                0.00586923
               6.00177608                4.99984698               15.01417241                0.01000001               -0.07433877               -0.08469516                0.10576860                0.23339493                0.09074555                0.03146340
               7.00110644                5.00085511               15.01478891                0.01000001               -0.05690283               -0.10574590                0.10919935                0.22969522                0.08642379                0.05879005
               8.00063802                5.00167039               15.01533532                0.01000000               -0.03168304               -0.12443194                0.11207317                0.20033709                0.07010553                0.08484073
               9.00047278                5.00199321               15.01565649                0.01000000               -0.01283048               -0.13353901                0.11376943                0.14006826                0.04169847                0.09699745
              10.00038141                5.00130913               15.01560448                0.01000000               -0.00913705               -0.10292890                0.11348181                0.06951879                0.02519000                0.08246795
               0.00797475                5.99905187               15.01504557                0.87015041               -0.02990811               -0.06348278                0.10233562                0.06247556               -0.00366459                0.04339431
               1.00767567                5.99751787               15.01403518                0.01000000               -0.06960912               -0.05909679                0.09780434                0.10150508                0.00913485                0.00384788
               2.00658256                5.99687340               15.01328282                0.01000003               -0.09069214               -0.10049022                0.09682824                0.17314393                0.03223659               -0.03553591
               3.00586182                5.99676757               15.01305039                0.01000000               -0.08186916               -0.08012691                0.09754643                0.19715878                0.07084525               -0.02873327
               4.00494518                5.99729067               15.01323463                0.01000000               -0.09394395               -0.07580292                0.10023375                0.21841634                0.09759925               -0.01453933
               5.00398294                5.99807848               15.01371833                0.01000001               -0.09472067               -0.07182652                0.10410929                0.21794212                0.11594225                0.01017741
               6.00305077                5.99897749               15.01443333                0.01000001               -0.08561077               -0.07783570                0.10881696                0.19639624                0.12642391                0.04352307
               7.00227073                5.99979652               15.01526354                0.01000000               -0.06356417               -0.09726902                0.11378775                0.15819862                0.12468552                0.08342597
               8.00177948                6.00041381               15.01603790                0.01000000               -0.03579412               -0.11953069                0.11817845                0.11679848                0.10570459                0.12335730
               9.00155485                6.00075439               15.01652152                0.01000001               -0.02167737               -0.11796223                0.12081669                0.06686271                0.06436517                0.15293777
              10.00134594                6.00064135               15.01645238                0.01000001               -0.02089091               -0.05384539                0.12046721                0.03320664                0.03755711                0.15325743
               0.00950535                6.99874108               15.01542853                0.99999999               -0.03068072               -0.03141299                0.10468244                0.00022947               -0.00295168                0.02019488
               1.00919854                6.99721971               15.01431362                1.00000000               -0.03003778               -0.03011235                0.10010324               -0.00027749               -0.00591072               -0.00087012
               2.00890459                6.99570062               15.01314232                0.01000000               -0.07814972               -0.07309929                0.09588358                0.13283280                0.04517662               -0.03443001
               3.00763555                6.99604631               15.01305485                0.01000000               -0.12198452               -0.08094527                0.09804252                0.20391987                0.09998676               -0.03538019
               4.00646490                6.99654307               15.01326790                0.01000007               -0.11851569               -0.07307975                0.10116316                0.22103967                0.12384809               -0.02243104
               5.00526524                6.99741232               15.01388828                0.01000001               -0.12394692               -0.05096349                0.10602448                0.20442674                0.15045719                0.00980207
               6.00398597                6.99829026               15.01484028                0.01000000               -0.12155680               -0.04961827                0.11230150                0.14770937                0.16872168                0.04860436
               7.00283410                6.99890973               15.01602542                0.01000000               -0.09849235               -0.06783025                0.11951645                0.07423597                0.17317660                0.09781235
               8.00201612                6.99927978               15.01722176                0.01000000               -0.06257992               -0.09923225                0.12646563                0.00887389                0.15309998                0.16856198
               9.00158250                6.99963397               15.01809067                0.01000000               -0.03722437               -0.11283781                0.13131986               -0.01646221                0.09470277                0.22748076
              10.00127163                7.00023222               15.01814000                0.01000001               -0.03108690               -0.05004561                0.13150982               -0.01735889                0.05338677                0.26346678
               0.01102208                7.99842361               15.01586236                0.99999999               -0.03115032               -0.03198391                0.10635363                0.00016912               -0.00078718                0.02290189
               1.01071057                7.99691562               15.01465596                1.00000000               -0.03047288               -0.03060790                0.10176297               -0.00010370               -0.00039473                0.00272814
               2.01041262                7.99541142               15.01345933                0.01000000               -0.08063986               -0.02914361                0.09718217                0.06173675                0.03677104               -0.01577157
               3.00909778                7.99514867               15.01300070                0.01000007               -0.12063268               -0.12076505                0.09788615                0.22000460                0.09544892               -0.07833601
               4.00799997                7.99582907               15.01322435                0.01000001               -0.13867480               -0.04543216                0.10132155                0.24174102                0.15114967               -0.02934912
               5.00632428                7.99705921               15.01406326                0.01000000               -0.17462093               -0.01030580                0.10756110                0.18755861                0.18605104                0.00683305
               6.00450755                7.99798513               15.01527826                0.01000000               -0.17791723               -0.00860810                0.11550926                0.09919841                0.20993280                0.04408735
               7.00276594                7.99843991               15.01688893                0.01000003               -0.16374117               -0.01990737                0.12533256                0.00047140                0.24011026                0.09314633
               8.00123272                7.99842917               15.01895456                0.01000002               -0.12463892               -0.04809984                0.13743159               -0.09921421                0.23006992                0.17570052
               9.00027316                7.99849764               15.02054972                0.01000001               -0.07152367               -0.09500621                0.14639969               -0.16425022                0.15244947                0.39551277
               9.99980225                7.99964044               15.02115801                0.01000000               -0.04709072               -0.14097113                0.14954183               -0.12119793                0.10106113                0.38980397
               0.01252470                8.99810140               15.01630060                1.00000000               -0.03160458               -0.03240110                0.10771770                0.00018528                0.00228902                0.01829004
               1.01220866                8.99660755               15.01501045                0.99999999               -0.03092098               -0.03097215                0.10308473               -0.00004573                0.00115940                0.00194873
               2.01190628                8.99511775               15.01369861                1.00000000               -0.02953361               -0.02956183                0.09839613               -0.00009964               -0.00512758               -0.01170584
               3.01161799                8.99363101               15.01228619                0.01000000               -0.12585526               -0.09000270                0.09361894                0.22568185                0.10657188               -0.06541137
               4.00938918                8.99563442               15.01321444                0.01000000               -0.23788183                0.02420053                0.10112319                0.22952363                0.20511141               -0.02438772
               5.00686035                8.99720620               15.01418653                0.01000000               -0.23999740                0.03039218                0.10832074                0.12684560                0.20604344                0.00459519
               6.00458923                8.99811810               15.01559346                0.01000001               -0.22304308                0.02494436                0.11749759                0.05111134                0.23803447                0.02794741
               7.00239949                8.99851158               15.01757658                0.01000002               -0.23075594                0.01959014                0.12959769               -0.02007840                0.29020233                0.05934663
               7.99997411                8.99831778               15.02033805                0.01000001               -0.26566310                0.02037433                0.14580496               -0.10442238                0.43600073                0.12268537
               8.99708623                8.99773384               15.02554090                0.99999998               -0.17060209               -0.06442404                0.17589136               -0.18894995                0.26973375                0.26255083
               9.99656207                8.99741280               15.02532659                0.99999999               -0.05241555               -0.13718313                0.17329119               -0.17808793               -0.00100400                0.21929157
               0.01401348                9.99777559               15.01664243                1.00000000               -0.03201719               -0.03258163                0.10905602                0.00093714                0.01265835                0.01352076
               1.01369331                9.99629618               15.01534013                1.00000000               -0.03131572               -0.03113731                0.10441773                0.00069500                0.01590906                0.00062360
               2.01338717                9.99482018               15.01410258                1.00000000               -0.02992851               -0.02975688                0.09975708                0.00071003                0.01594946               -0.00368255
               3.01309474                9.99334861               15.01280335                0.01000001               -0.21859620               -0.02823976                0.09510331                0.22232045                0.10042870               -0.00416689
               4.00901524                9.99631308               15.01326017                0.01000002               -0.33586139                0.06786594                0.10070789                0.17852860                0.17240326               -0.01192229
               5.00637751                9.99766705               15.01422960                0.01000000               -0.23954238                0.04608511                0.10807452                0.06026295                0.19608771                0.00795690
               6.00422440                9.99848402               15.01562504                0.01000001               -0.21064113                0.03659134                0.11733780                0.02174960                0.23438692                0.01993353
               7.00216469                9.99883172               15.01769151                0.01000000               -0.21511914                0.03201356                0.13000685               -0.00584795                0.31367001                0.03621888
               7.99992201                9.99883665               15.02095110                0.01000001               -0.23827753                0.05188733                0.14909927               -0.08633796                0.41462640                0.09125504
               8.99739914                9.99720916               15.02530357                0.99999999               -0.15197174               -0.05246878                0.17361307               -0.06570265                0.22957246                0.00123393
               9.99688258                9.99689677               15.02508925                0.99999998               -0.05165603               -0.05160248                0.17101291                0.00081275                0.00111312               -0.00111290
               0.00128508                0.00174410               16.01321601                1.00000000               -0.02518649               -0.02515214                0.08387796                0.00001286               -0.00365599                0.00341027
               1.00103321                0.00104848               16.01319426                1.00000000               -0.02520823               -0.02519779                0.08402441                0.00002257               -0.00407042               -0.00107676
               2.00078091                0.00035265               16.01316614                0.01000000               -0.01280165               -0.02524351                0.08417078                0.01358649                0.03387112               -0.00170345
               3.00077718               -0.00007212               16.01390420                0.01000000               -0.00443055               -0.02870014                0.09103122                0.00725668                0.08305237               -0.00530740
               4.00069230                0.00023642               16.01478934                0.01000001               -0.02042516               -0.02415125                0.09766087                0.02851669                0.10767139               -0.01149923
               5.00036868                0.00141971               16.01598960                0.01000000               -0.07144157               -0.02152191                0.10457154                0.07763789                0.14316929               -0.01742199
               5.99926347                0.00386913               16.01763779                0.33503752               -0.07212475               -0.03360331                0.11291279                0.07889849                0.08779042               -0.00095834
               6.99892618                0.00473496               16.01804609                1.00000000               -0.03415674               -0.03396334                0.11476090                0.00008346                0.01643092               -0.00395785
               7.99858034                0.00559368               16.01826301                0.99999999               -0.03476214               -0.03430475                0.11586224                0.00019942                0.00831231               -0.00045350
               8.99823094                0.00644326               16.01850683                1.00000000               -0.03513430               -0.03466498                0.11708030                0.00019471                0.00774352                0.00090948
               9.99787765                0.00728349               16.01871158                0.99999999               -0.03532890               -0.03503823                0.11829731                0.00067314                0.00576359                0.00527256
               0.00198083                1.00149258               16.01327021                1.00000000               -0.02516657               -0.02514243                0.08381484               -0.00000921                0.00101691                0.00367886
               1.00172917                1.00079650               16.01324976                0.01000000               -0.02518778               -0.02518963                0.08396127                0.00000042                0.00267723               -0.00280142
               2.00147708                1.00010021               16.01326253                0.01000000               -0.04106539               -0.03285979                0.08410785               -0.00609179                0.03844095                0.01131690
               3.00090786                0.99964088               16.01395628                0.01000001               -0.06227610               -0.02595626                0.09132827                0.01568922                0.07146440               -0.00761393
               4.00023156                0.99999491               16.01469326                0.01000000               -0.07895790               -0.02322720                0.09692935                0.06231997                0.07973767               -0.01533733
               4.99932870                1.00120449               16.01564602                0.01000000               -0.09183610               -0.02617058                0.10266156                0.12911494                0.10851401               -0.02057481
               5.99839483                1.00353310               16.01711627                0.01000001               -0.06319781               -0.07575121                0.10989210                0.12101646                0.07043197               -0.03501276
               6.99806475                1.00439532               16.01744803                1.00000000               -0.03333267               -0.03349379                0.11163452               -0.00009583                0.00728861               -0.00400832
               7.99772818                1.00525063               16.01765250                0.99999995               -0.03383816               -0.03385158                0.11281450                0.00002872                0.00123724               -0.00036767
               8.99738798                1.00609661               16.01786202                1.00000000               -0.03420123               -0.03421066                0.11403518                0.00002267                0.00100624                0.00052575
               9.99704416                1.00693310               16.01806199                0.99999998               -0.03438270               -0.03458524                0.11525374                0.00047041                0.00045509                0.00654154
               0.00267706                2.00124125               16.01333125                0.01000001               -0.02514669               -0.03894761                0.08375168               -0.02370631                0.00154829                0.02938575
               1.00242559                2.00054468               16.01327121                0.01000000               -0.04311800               -0.04301246                0.08389800               -0.02906986                0.02202165                0.02008721
               2.00181470                1.99969545               16.01361874                0.01000001               -0.06146626               -0.04522170                0.08884859               -0.01068178                0.04079867                0.01429080
               3.00119627                1.99940875               16.01396153                0.01000000               -0.07198039               -0.03430106                0.09230036                0.05071388                0.04720043               -0.00903711
               4.00037509                1.99977188               16.01449871                0.01000000               -0.08917397               -0.03142233                0.09664762                0.11736093                0.05957116               -0.01858774
               4.99941279                2.00089630               16.01520138                0.01000001               -0.09410612               -0.04355632                0.10100943                0.17212503                0.06125368               -0.02381883
               5.99849297                2.00235411               16.01591165                0.01000003               -0.11030251               -0.09120785                0.10473164                0.19585823                0.06747369               -0.04824544
               6.99720674                2.00406508               16.01684662                0.01000000               -0.08066718               -0.06733269                0.10852654                0.12592359                0.03241011               -0.01904638
               7.99687962                2.00491665               16.01704274                0.05801276               -0.03289092               -0.03308058                0.10975469                0.00082487               -0.00596731                0.00639119
               8.99654892                2.00575905               16.01720990                0.99999999               -0.03327775               -0.03329181                0.11100587                0.00003796               -0.00434381               -0.00186491
               9.99621407                2.00659178               16.01743953                1.00000000               -0.03348486               -0.03368646                0.11222407                0.00047477               -0.00133740                0.00649423
               0.00289985                3.00071363               16.01389927                0.01000002               -0.02062730               -0.04234624                0.08954382               -0.01784218                0.00339709                0.05718003
               1.00269357                2.99993625               16.01378305                0.01000001               -0.02502374               -0.07002195                0.08989356               -0.01264509                0.00986482                0.03487087
               2.00239937                2.99919578               16.01378938                0.01000000               -0.04239319               -0.06486699                0.09133670                0.03345187                0.02530236                0.00325678
               3.00184571                2.99895486               16.01397747                0.01000000               -0.06540702               -0.05694301                0.09395683                0.09873855                0.03996491               -0.01062801
               4.00109123                2.99936646               16.01432597                0.01000001               -0.08283684               -0.05220127                0.09696643                0.16465252                0.05020137               -0.01580793
               5.00018897                3.00033336               16.01481358                0.01000000               -0.09740078               -0.06130373                0.10020164                0.21817747                0.05633305               -0.01479372
               5.99914322                3.00170894               16.01540350                0.01000000               -0.10841459               -0.07235404                0.10325340                0.23724819                0.05214040               -0.00603860
               6.99802068                3.00304867               16.01594633                0.01000000               -0.15462517               -0.08817491                0.10520033                0.26236725                0.04623117               -0.00970206
               7.99605071                3.00458902               16.01656732                0.01000000               -0.11535379               -0.07625533                0.10544647                0.22305688               -0.00043615                0.01718195
               8.99571360                3.00543077               16.01651852                0.01000002               -0.03312663               -0.09067650                0.10799127                0.17685725               -0.01760737                0.02780803
               9.99538818                3.00625938               16.01679164                0.21167502               -0.03254256               -0.17432888                0.10918480                0.20538832               -0.00167609                0.02165910
               0.00387497                4.00039433               16.01448144                0.01000000               -0.01844318               -0.03688065                0.09446672                0.01760215               -0.00044932                0.06190195
               1.00369054                3.99914425               16.01416984                0.01000000               -0.02049224               -0.08893599                0.09369885                0.04413389                0.00694522                0.02368336
               2.00346513                3.99839811               16.01398114                0.01000000               -0.03450951               -0.08830765                0.09405042                0.09920868                0.02369144               -0.00279468
               3.00300035                3.99826989               16.01399492                0.01000001               -0.05877470               -0.07666136                0.09550140                0.15519307                0.04230625               -0.01469002
               4.00228963                3.99872785               16.01422600                0.01000000               -0.07832469               -0.07141273                0.09785980                0.20828828                0.05748965               -0.01254815
               5.00143386                3.99967022               16.01463995                0.01000000               -0.08835036               -0.07320293                0.10072131                0.24840028                0.06634828               -0.00068794
               6.00052263                4.00090703               16.01516492                0.01000000               -0.09299252               -0.08456754                0.10360618                0.27957048                0.06801319                0.01581985
               6.99957401                4.00230158               16.01572964                0.01000001               -0.07819845               -0.09456328                0.10597913                0.29302459                0.05790148                0.03695714
               7.99895866                4.00339154               16.01617380                0.01000000               -0.05791504               -0.12638669                0.10787269                0.32528492                0.04143581                0.04496112
               8.99841571                4.00394552               16.01646191                0.01000000               -0.01470125               -0.15160015                0.10958658                0.23813758                0.01754936                0.06723655
               9.99866463                4.00310520               16.01647604                0.01000000                0.02489271               -0.23269047                0.11018189                0.18120928                0.00930268                0.03903738
               0.00575206                4.99997602               16.01513316                0.01000000               -0.01795882               -0.07775729                0.09854023                0.07299558                0.00118055                0.07597726
               1.00557247                4.99815753               16.01456938                0.01000000               -0.02470808               -0.09748786                0.09675298                0.12167522                0.01026175                0.01756428
               2.00525790                4.99742962               16.01414991                0.01000001               -0.04763202               -0.09304847                0.09607345                0.16070672                0.03042623               -0.01473405
               3.00461983                4.99742163               16.01402285                0.01000000               -0.07006138               -0.08964109                0.09695229                0.20594183                0.05474339               -0.02115274
               4.00385667                4.99793821               16.01420503                0.01000000               -0.08210122               -0.08044490                0.09911531                0.23798703                0.07633776               -0.01128964
               5.00297780                4.99886931               16.01463438                0.01000000               -0.08767010               -0.08118929                0.10217444                0.26008330                0.09040256                0.00855155
               6.00210327                5.00001759               16.01522947                0.01000007               -0.07905710               -0.09103710                0.10565248                0.26599748                0.09563350                0.03569661
               7.00139666                5.00115740               16.01588021                0.01000004               -0.05953946               -0.11395270                0.10910308                0.25982048                0.09091260                0.06486955
               8.00091248                5.00206128               16.01645611                0.01000000               -0.03169855               -0.13379729                0.11206796                0.22507168                0.07373807                0.09256331
               9.00076269                5.00239877               16.01679483                0.01000000               -0.01097439               -0.14338092                0.11393294                0.15655240                0.04385749                0.10510184
              10.00069299                5.00160557               16.01674131                0.01000000               -0.00697019               -0.10948393                0.11389848                0.07754240                0.02645616                0.08962148
               0.00897186                5.99883918               16.01606915                0.84957811               -0.03014195               -0.07243623                0.10287721                0.07861944               -0.00353749                0.04537763
               1.00867044                5.99719449               16.01501576                0.01000000               -0.07783470               -0.06320797                0.09879976                0.12152362                0.01069380                0.00453767
               2.00741516                5.99653714               16.01425404                0.01000003               -0.10299168               -0.10844539                0.09743938                0.20162824                0.03546628               -0.03616949
               3.00661060                5.99647707               16.01402810                0.01000000               -0.09067314               -0.08537284                0.09801139                0.22770593                0.07550526               -0.02845882
               4.00560170                5.99711896               16.01423813                0.01000000               -0.10272314               -0.08072022                0.10047681                0.25085773                0.10348133               -0.01321610
               5.00455614                5.99804644               16.01475974                0.01000007               -0.10236104               -0.07639429                0.10418162                0.24947306                0.12257818                0.01298459
               6.00355448                5.99908629               16.01552119                0.01000002               -0.09147079               -0.08284680                0.10876709                0.22462385                0.13342160                0.04828312
               7.00272672                6.00002253               16.01640079                0.01000000               -0.06678770               -0.10365297                0.11367665                0.18109338                0.13143364                0.09050063
               8.00221872                6.00071559               16.01721916                0.01000000               -0.03621262               -0.12718697                0.11809512                0.13355090                0.11129920                0.13265384
               9.00200247                6.00107790               16.01772985                0.01000001               -0.02084168               -0.12466896                0.12086574                0.07605525                0.06767572                0.16374918
              10.00180189                6.00091553               16.01765847                0.01000001               -0.02005811               -0.05407769                0.12077175                0.03758183                0.03942454                0.16395327
               0.01061384                6.99852729               16.01647639                0.99999999               -0.03088538               -0.03149589                0.10513342                0.00019510               -0.00290745                0.02090331
               1.01030498                6.99689337               16.01531798                1.00000000               -0.03029806               -0.03036587                0.10094307               -0.00030503               -0.00578660               -0.00020193
               2.01000787                6.99526072               16.01410710                0.01000000               -0.08564248               -0.07845296                0.09712355                0.15181046                0.04835703               -0.03550498
               3.00859213                6.99571417               16.01403843                0.01000000               -0.13517087               -0.08661281                0.09871168                0.23216736                0.10614264               -0.03570217
               4.00730446                6.99632380               16.01428180                0.01000001               -0.12960990               -0.07787185                0.10161464                0.25127168                0.13107224               -0.02175643
               5.00599993                6.99734142               16.01494969                0.01000004               -0.13424030               -0.05323467                0.10625862                0.23283679                0.15895592                0.01232544
               6.00461965                6.99836066               16.01596348                0.01000000               -0.13053563               -0.05150902                0.11234322                0.16995277                0.17815228                0.05331173
               7.00338922                6.99908434               16.01722003                0.01000000               -0.10457632               -0.07089075                0.11941480                0.08871839                0.18278888                0.10532139
               8.00252813                6.99951754               16.01848554                0.01000000               -0.06526799               -0.10386885                0.12630408                0.01599481                0.16149944                0.18007837
               9.00208386                6.99990539               16.01940339                0.01000000               -0.03793779               -0.11697276                0.13123935               -0.01429909                0.09978973                0.24214170
              10.00176937                7.00052401               16.01945604                0.01000001               -0.03144931               -0.04797195                0.13171211               -0.01732340                0.05616735                0.27973440
               0.01224360                7.99820927               16.01692653                0.99999998               -0.03126889               -0.03200742                0.10651141                0.00013967               -0.00077752                0.02301780
               1.01193091                7.99658717               16.01567637                1.00000000               -0.03065154               -0.03078197                0.10235196               -0.00009325               -0.00042132                0.00280382
               2.01163057                7.99496808               16.01443609                0.01000000               -0.08700241               -0.02945317                0.09819626                0.06949927                0.03919614               -0.01599187
               3.01019086                7.99474482               16.01398335                0.01000000               -0.13153409               -0.13231339                0.09869440                0.24751023                0.10141375               -0.08126133
               4.00899989                7.99556152               16.01424056                0.01000000               -0.15074188               -0.04761122                0.10193868                0.27217045                0.15963934               -0.02940869
               5.00717602                7.99698174               16.01514090                0.01000000               -0.18946386               -0.00843291                0.10795140                0.21220923                0.19643365                0.00872324
               6.00521061                7.99805611               16.01643415                0.01000000               -0.19159105               -0.00647062                0.11566447                0.11471454                0.22176801                0.04802504
               7.00334420                7.99860471               16.01814198                0.01000003               -0.17465180               -0.01857233                0.12527947                0.00686195                0.25377470                0.09988419
               8.00171757                7.99863822               16.02032766                0.01000002               -0.13170904               -0.04804052                0.13719351               -0.10141555                0.24319218                0.18720029
               9.00071002                7.99873844               16.02201251                0.01000000               -0.07496957               -0.09557831                0.14616435               -0.17318549                0.16112656                0.41953183
              10.00021818                7.99995609               16.02265357                0.01000000               -0.04918408               -0.14362699                0.14957589               -0.12773778                0.10682869                0.41255453
               0.01386082                8.99788714               16.01737744                1.00000000               -0.03165196               -0.03236639                0.10765393                0.00015332                0.00227690                0.01824178
               1.01354430                8.99627773               16.01604312                0.99999999               -0.03103030               -0.03107733                0.10344583               -0.00004180                0.00111277                0.00185523
               2.01324021                8.99467165               16.01468652                1.00000000               -0.02976997               -0.02980063                0.09918229               -0.00009958               -0.00524657               -0.01188092
               3.01294890                8.99306791               16.01322842                0.01000000               -0.13646374               -0.09813258                0.09482843                0.25263864                0.11233378               -0.06815457
               4.01051094                8.99537158               16.01422939                0.01000000               -0.25996842                0.02932862                0.10186782                0.25746405                0.21624155               -0.02479973
               5.00774953                8.99717276               16.01527233                0.01000000               -0.26099832                0.03631850                0.10882935                0.14277362                0.21755167                0.00565393
               6.00529097                8.99823124               16.01676992                0.01000000               -0.24025909                0.03016259                0.11778519                0.05907567                0.25161456                0.03027938
               7.00294435                8.99871290               16.01887293                0.01000002               -0.24624436                0.02418818                0.12966782               -0.01832167                0.30701552                0.06346754
               8.00036609                8.99855673               16.02179532                0.01000001               -0.28210346                0.02543733                0.14564806               -0.10805540                0.46149078                0.13045826
               8.99730228                8.99799383               16.02729638                0.99999998               -0.17933800               -0.06341132                0.17520770               -0.19882499                0.28578073                0.27814593
               9.99677933                8.99765147               16.02705933                0.99999999               -0.05229562               -0.14108607                0.17325547               -0.18909333               -0.00100561                0.23210741
               0.01546549                9.99756194               16.01773172                0.99999999               -0.03199253               -0.03252053                0.10876527                0.00083554                0.01265075                0.01347953
               1.01514556                9.99596562               16.01638520                0.99999998               -0.03135433               -0.03121075                0.10455134                0.00063298                0.01591191                0.00055688
               2.01483840                9.99437207               16.01510318                1.00000000               -0.03009277               -0.02995836                0.10031707                0.00064595                0.01596652               -0.00376200
               3.01454371                9.99278217               16.01375956                0.01000001               -0.23970454               -0.02857404                0.09608785                0.24828181                0.10543530               -0.00417917
               4.01004431                9.99614809               16.01427120                0.01000004               -0.36859374                0.07765107                0.10147520                0.19963473                0.18222860               -0.01226361
               5.00717183                9.99770811               16.01531328                0.01000000               -0.25961626                0.05353527                0.10864171                0.06779342                0.20731504                0.00865250
               6.00485199                9.99865936               16.01680062                0.01000001               -0.22597768                0.04281135                0.11776473                0.02511956                0.24803420                0.02129975
               7.00265228                9.99908848               16.01899310                0.01000000               -0.22882244                0.03755797                0.13030331               -0.00482681                0.33205210                0.03851562
               8.00027554                9.99914696               16.02244269                0.01000002               -0.25067473                0.05902283                0.14921340               -0.08996780                0.43878516                0.09663328
               8.99763879                9.99747022               16.02703988                0.99999999               -0.15772579               -0.05236092                0.17364995               -0.06697947                0.24294686                0.00123452
               9.99712102                9.99713437               16.02680282                1.00000000               -0.05177632               -0.05171067                0.17169769                0.00058460                0.00111399               -0.00111384
               0.00126954                0.00172432               17.01405675                1.00000000               -0.02528266               -0.02522512                0.08427124               -0.00006013               -0.00365607                0.00341051
               1.00101671                0.00098252               17.01403564                1.00000000               -0.02528090               -0.02521980                0.08425236               -0.00000463               -0.00407062               -0.00107673
               2.00076392                0.00023954               17.01400816                0.01000000               -0.01105059               -0.02521455                0.08423328                0.01643711                0.03717181               -0.00170354
               3.00079570               -0.00017588               17.01481288                0.01000000               -0.00191279               -0.02865751                0.09069883                0.01009141                0.08956484               -0.00472007
               4.00072566                0.00022130               17.01576336                0.01000001               -0.02107161               -0.02302997                0.09713925                0.03422720                0.11418195               -0.01145636
               5.00037427                0.00159703               17.01703248                0.01000001               -0.08092974               -0.01956154                0.10398511                0.09110038                0.15031007               -0.01774658
               5.99910707                0.00439621               17.01876433                0.32022687               -0.08011960               -0.03349709                0.11237181                0.09407680                0.09158492               -0.00095738
               6.99877187                0.00530860               17.01919141                1.00000000               -0.03399669               -0.03383830                0.11427623                0.00009423                0.01665723               -0.00405131
               7.99842713                0.00621487               17.01942045                0.99999999               -0.03468611               -0.03425277                0.11561156                0.00023500                0.00827509               -0.00045982
               8.99807815                0.00711242               17.01967756                1.00000000               -0.03512736               -0.03468262                0.11706347                0.00023032                0.00776846                0.00091417
               9.99772459                0.00800111               17.01989560                0.99999999               -0.03535649               -0.03512902                0.11851456                0.00068605                0.00578622                0.00528864
               0.00201073                1.00147206               17.01410880                1.00000000               -0.02516755               -0.02517068                0.08390137               -0.00005782                0.00101701                0.00367902
               1.00175905                1.00073033               17.01408898                0.01011301               -0.02516175               -0.02516487                0.08388268               -0.00000231                0.00267753               -0.00280139
               2.00150749                0.99998740               17.01410239                0.01000000               -0.04266582               -0.03315271                0.08386410               -0.00389015                0.04197053                0.01377224
               3.00090574                0.99953755               17.01486737                0.01000001               -0.06630058               -0.02574533                0.09088896                0.02178450                0.07753441               -0.00660957
               4.00018148                0.99999100               17.01565998                0.01000000               -0.08539605               -0.02236817                0.09641283                0.07434901                0.08482537               -0.01496011
               4.99919781                1.00140142               17.01667010                0.01000000               -0.09947150               -0.02572051                0.10214119                0.15056804                0.11404776               -0.02062793
               5.99819205                1.00406124               17.01821334                0.01000001               -0.06671630               -0.08280349                0.10949846                0.14011578                0.07363289               -0.03608354
               6.99786349                1.00497022               17.01856283                1.00000000               -0.03322369               -0.03339097                0.11130141               -0.00007500                0.00749704               -0.00407728
               7.99752758                1.00587234               17.01878020                1.00000000               -0.03380775               -0.03382187                0.11271406                0.00002889                0.00123518               -0.00037213
               8.99718733                1.00676559               17.01900304                1.00000000               -0.03424104               -0.03425059                0.11416875                0.00002256                0.00102732                0.00053955
               9.99684276                1.00764982               17.01921631                1.00000000               -0.03445774               -0.03469853                0.11562139                0.00044740                0.00047216                0.00655891
               0.00275186                2.00122090               17.01416767                0.01000000               -0.02505238               -0.03799948                0.08353141               -0.02211471                0.00154835                0.03236734
               1.00250133                2.00047923               17.01410826                0.01000000               -0.04364801               -0.04474682                0.08351273               -0.02773536                0.02447744                0.02321620
               2.00187890                1.99957649               17.01450555                0.01000001               -0.06367727               -0.04701082                0.08815118               -0.00604367                0.04483957                0.01803650
               3.00122779                1.99930921               17.01488226                0.01000000               -0.07650614               -0.03522465                0.09193652                0.06350891                0.05084364               -0.00728452
               4.00034877                1.99977393               17.01546296                0.01000000               -0.09562007               -0.03212374                0.09618542                0.13837778                0.06346612               -0.01762796
               4.99931539                2.00108262               17.01620934                0.01000001               -0.10040971               -0.04640052                0.10058163                0.19906276                0.06456033               -0.02335060
               5.99834058                2.00274014               17.01695739                0.01000000               -0.11780561               -0.10142536                0.10440480                0.22310810                0.07031200               -0.04916106
               6.99695927                2.00464078               17.01793107                0.01000000               -0.08541201               -0.07232347                0.10834250                0.14151632                0.03369454               -0.01910395
               7.99663234                2.00553843               17.01814058                0.06245412               -0.03290763               -0.03306337                0.10980449                0.00069691               -0.00592778                0.00549972
               8.99630112                2.00642741               17.01832137                0.99999999               -0.03336302               -0.03337460                0.11128980                0.00004127               -0.00430696               -0.00183580
               9.99596508                2.00730714               17.01856430                1.00000000               -0.03360423               -0.03384532                0.11274213                0.00045285               -0.00132109                0.00650703
               0.00305178                3.00071207               17.01479315                0.01000000               -0.02030236               -0.04112797                0.08925845               -0.01587690                0.00408047                0.06298773
               1.00284876                2.99983539               17.01468051                0.01000001               -0.02475759               -0.07462680                0.08962375               -0.00752120                0.01105070                0.03994877
               2.00255663                2.99904718               17.01470110                0.01000000               -0.04351462               -0.06940876                0.09111136                0.04569688                0.02762306                0.00596952
               3.00197847                2.99883305               17.01491542                0.01000000               -0.06905008               -0.06043920                0.09362710                0.11898155                0.04296389               -0.00864994
               4.00117563                2.99934852               17.01529390                0.01000002               -0.08828017               -0.05540901                0.09663013                0.19188779                0.05332855               -0.01433033
               5.00021286                3.00047341               17.01581398                0.01000000               -0.10397901               -0.06617294                0.09987808                0.24998730                0.05926598               -0.01343201
               5.99909605                3.00203273               17.01643461                0.01000000               -0.11586694               -0.07891544                0.10301759                0.26847355                0.05428664               -0.00443840
               6.99789552                3.00352375               17.01700021                0.01000000               -0.16705793               -0.09620430                0.10538189                0.29342274                0.04629727               -0.00832673
               7.99575489                3.00521107               17.01761756                0.01000001               -0.12380389               -0.08127713                0.10451787                0.24746494               -0.00016980                0.01936549
               8.99541945                3.00609810               17.01760059                0.01000000               -0.03312724               -0.09669077                0.10842575                0.19508462               -0.01666503                0.03009269
               9.99509235                3.00697291               17.01788676                0.22630607               -0.03271008               -0.18880695                0.10985334                0.22648765               -0.00167812                0.02360988
               0.00418769                4.00039834               17.01542520                0.01000000               -0.01718841               -0.03847500                0.09433830                0.02319603               -0.00013721                0.06698652
               1.00401580                3.99898669               17.01510655                0.01000000               -0.01962586               -0.09641934                0.09368778                0.05598321                0.00781487                0.02713178
               2.00379517                3.99818831               17.01492142                0.01000000               -0.03548644               -0.09521676                0.09401879                0.12017888                0.02561063               -0.00045914
               3.00330608                3.99810043               17.01494937                0.01000002               -0.06244969               -0.08202182                0.09540942                0.18241831                0.04509228               -0.01295934
               4.00254618                3.99866575               17.01520369                0.01000000               -0.08375761               -0.07636640                0.09768862                0.24029079                0.06079181               -0.01075228
               5.00163092                3.99975916               17.01564611                0.01000000               -0.09432363               -0.07866565                0.10052227                0.28300230                0.06972049                0.00160466
               6.00065971                4.00116183               17.01620026                0.01000000               -0.09907676               -0.09140453                0.10346393                0.31522040                0.07094012                0.01891788
               6.99964939                4.00271670               17.01678915                0.01000001               -0.08262085               -0.10212031                0.10591779                0.32767937                0.06025529                0.04119569
               7.99900729                4.00391289               17.01725515                0.01000001               -0.06042090               -0.13673870                0.10823225                0.36100851                0.04332938                0.05129764
               8.99844097                4.00449359               17.01755956                0.01000000               -0.01310419               -0.16353928                0.10990320                0.26316984                0.01872743                0.07276978
               9.99874520                4.00353100               17.01758052                0.01000000                0.03042338               -0.25268963                0.11073976                0.20000207                0.01018499                0.04330664
               0.00633901                4.99994257               17.01611941                0.01000001               -0.01605523               -0.08910766                0.09880966                0.08759639                0.00159003                0.08066247
               1.00617845                4.99790700               17.01553844                0.01000000               -0.02462685               -0.10633357                0.09714382                0.14445545                0.01126086                0.01994482
               2.00584647                4.99714284               17.01511226                0.01000001               -0.05145312               -0.09977415                0.09644571                0.18849983                0.03255767               -0.01334916
               3.00514939                4.99719262               17.01499318                0.01000000               -0.07618779               -0.09588062                0.09713620                0.23800560                0.05798482               -0.01983721
               4.00432271                4.99782119               17.01519634                0.01000000               -0.08862798               -0.08580896                0.09915696                0.27222323                0.08042784               -0.00943617
               5.00337683                4.99890009               17.01565579                0.01000000               -0.09398961               -0.08681502                0.10211275                0.29519862                0.09492909                0.01138080
               6.00244292                5.00020464               17.01628546                0.01000001               -0.08393881               -0.09763446                0.10555405                0.29998471                0.10019390                0.03988951
               7.00169806                5.00148134               17.01697097                0.01000000               -0.06223775               -0.12249952                0.10905680                0.29118513                0.09511522                0.07075094
               8.00119817                5.00247630               17.01757668                0.01000000               -0.03166638               -0.14377179                0.11210685                0.25075497                0.07718125                0.09980556
               9.00106473                5.00282732               17.01793515                0.01000000               -0.00902993               -0.15363901                0.11415504                0.17354504                0.04594127                0.11281625
              10.00101757                5.00191912               17.01788245                0.01000000               -0.00471603               -0.11626601                0.11434709                0.08577914                0.02769272                0.09644878
               0.01001076                5.99861619               17.01710311                0.82723945               -0.03061156               -0.08204064                0.10400250                0.09563326               -0.00349975                0.04791860
               1.00970464                5.99686002               17.01601117                0.01000000               -0.08656024               -0.06759716                0.10034791                0.14251415                0.01169920                0.00585964
               2.00827956                5.99619283               17.01523161                0.01000000               -0.11584032               -0.11671833                0.09814522                0.23138070                0.03788018               -0.03607454
               3.00738784                5.99618282               17.01501062                0.01000000               -0.09981941               -0.09078001                0.09851804                0.25955281                0.07959921               -0.02772695
               4.00628317                5.99694957               17.01524416                0.01000000               -0.11181939               -0.08578403                0.10073748                0.28462080                0.10877915               -0.01158056
               5.00515145                5.99802286               17.01580196                0.01000001               -0.11025100               -0.08112093                0.10426531                0.28227025                0.12867678                0.01594296
               6.00407815                5.99920914               17.01660867                0.01000001               -0.09750080               -0.08805477                0.10873348                0.25397975                0.13993398                0.05300911
               7.00320143                6.00026671               17.01753707                0.01000000               -0.07008651               -0.11031885                0.11359332                0.20490330                0.13777404                0.09734990
               8.00267642                6.00103745               17.01839980                0.01000000               -0.03661937               -0.13517285                0.11804722                0.15093442                0.11659660                0.14159609
               9.00246905                6.00142081               17.01893883                0.01000000               -0.01996216               -0.13165884                0.12095456                0.08556489                0.07083267                0.17410838
              10.00227717                6.00120568               17.01886781                0.01000001               -0.01918731               -0.05436523                0.12111874                0.04209217                0.04123367                0.17424287
               0.01176401                6.99830176               17.01753120                0.99999999               -0.03119135               -0.03166379                0.10589028                0.00013356               -0.00300260                0.02155397
               1.01145210                6.99655506               17.01633249                1.00000000               -0.03063631               -0.03067316                0.10202218               -0.00026701               -0.00575390                0.00035760
               2.01115129                6.99480848               17.01508479                0.01000000               -0.09341976               -0.08403360                0.09848255                0.17159838                0.05100900               -0.03608477
               3.00958370                6.99537702               17.01502908                0.01000000               -0.14880995               -0.09246824                0.09944937                0.26153900                0.11148153               -0.03565352
               4.00817509                6.99610551               17.01530019                0.01000001               -0.14105165               -0.08281327                0.10207184                0.28263482                0.13763896               -0.02078226
               5.00676267                6.99727767               17.01601345                0.01000000               -0.14482077               -0.05559120                0.10649302                0.26229730                0.16681509                0.01499612
               6.00527867                6.99844355               17.01708714                0.01000000               -0.13974286               -0.05349745                0.11238991                0.19304839                0.18696714                0.05799155
               7.00396781                6.99927497               17.01841371                0.01000000               -0.11079602               -0.07410033                0.11932711                0.10378868                0.19184543                0.11260625
               8.00306275                6.99977284               17.01974784                0.01000000               -0.06800087               -0.10870258                0.12616872                0.02343976                0.16945979                0.19115183
               9.00260780                7.00019414               17.02071545                0.01000002               -0.03865393               -0.12127652                0.13119004               -0.01201420                0.10463524                0.25623364
              10.00228967                7.00083182               17.02077424                0.01000001               -0.03181233               -0.04587174                0.13194138               -0.01725529                0.05885125                0.29546278
               0.01350683                7.99798291               17.01799259                1.00000000               -0.03142466               -0.03203600                0.10675413                0.00010718               -0.00075603                0.02309158
               1.01319259                7.99624656               17.01670300                1.00000000               -0.03086342               -0.03096136                0.10301224               -0.00005139               -0.00042784                0.00286073
               2.01288957                7.99451216               17.01542326                0.01000000               -0.09355032               -0.02977195                0.09926420                0.07758347                0.04134316               -0.01617350
               3.01132158                7.99433345               17.01497459                0.01000001               -0.14271801               -0.14426542                0.09958462                0.27596231                0.10675803               -0.08370801
               4.01003521                7.99529331               17.01526313                0.01000001               -0.16311085               -0.04988643                0.10258775                0.30362968                0.16747041               -0.02920129
               5.00805936                7.99691104               17.01622229                0.01000000               -0.20466928               -0.00653851                0.10832620                0.23770327                0.20612152                0.01075088
               6.00594182                7.99813919               17.01759155                0.01000000               -0.20557263               -0.00431647                0.11581496                0.13079577                0.23291003                0.05194959
               7.00394791                7.99878470               17.01939452                0.01000000               -0.18578898               -0.01725764                0.12523023                0.01353961                0.26673947                0.10643016
               8.00222604                7.99886340               17.02169843                0.01000002               -0.13890633               -0.04804585                0.13696582               -0.10358466                0.25568986                0.19826555
               9.00116979                7.99899528               17.02347301                0.01000000               -0.07846656               -0.09623727                0.14594575               -0.18225567                0.16942014                0.44268394
              10.00065671                8.00028825               17.02414952                0.01000000               -0.05130759               -0.14630590                0.14962258               -0.13438341                0.11240889                0.43464798
               0.01523887                8.99766104               17.01845367                1.00000000               -0.03170424               -0.03231571                0.10760011                0.00011483                0.00226736                0.01822889
               1.01492183                8.99593583               17.01707937                0.99999999               -0.03114056               -0.03116959                0.10380445               -0.00002499                0.00107428                0.00178425
               2.01461606                8.99421304               17.01568225                1.00000000               -0.03000149               -0.03002660                0.09996163               -0.00007780               -0.00535327               -0.01203676
               3.01432180                8.99249171               17.01418275                0.01000001               -0.14729814               -0.10653558                0.09603856                0.28042954                0.11766052               -0.07058613
               4.01167010                8.99510779               17.01525180                0.01000000               -0.28254728                0.03454371                0.10261972                0.28630448                0.22660028               -0.02501828
               5.00867085                8.99714690               17.01636311                0.01000000               -0.28245860                0.04235897                0.10932910                0.15922294                0.22840198                0.00680475
               6.00602092                8.99835722               17.01794917                0.01000000               -0.25782268                0.03547070                0.11806333                0.06731734                0.26452862                0.03261477
               7.00351440                8.99892981               17.02016994                0.01000002               -0.26202234                0.02884948                0.12973294               -0.01647687                0.32311261                0.06748725
               8.00078048                8.99881192               17.02325101                0.01000001               -0.29882820                0.03055931                0.14549057               -0.11177616                0.48603215                0.13794830
               8.99753783                8.99826939               17.02904505                0.99999998               -0.18822018               -0.06242135                0.17452760               -0.20890311                0.30124301                0.29315468
               9.99701607                8.99790570               17.02879170                0.99999999               -0.05217612               -0.14503640                0.17321856               -0.20025559               -0.00100737                0.24452549
               0.01695955                9.99733660               17.01881773                0.99999999               -0.03194579               -0.03244426                0.10840623                0.00072453                0.01265213                0.01345560
               1.01664009                9.99562316               17.01743116                1.00000000               -0.03137072               -0.03126683                0.10460505                0.00057773                0.01592406                0.00050225
               2.01633214                9.99391162               17.01610892                0.99999999               -0.03023329               -0.03014138                0.10079237                0.00058654                0.01599221               -0.00383120
               3.01603543                9.99220274               17.01472511                0.01030367               -0.26130173               -0.02889665                0.09697891                0.27499076                0.11014138               -0.00419325
               4.01110610                9.99598418               17.01528967                0.01000001               -0.40205164                0.08763976                0.10221214                0.22137430                0.19151850               -0.01247616
               5.00799439                9.99775822               17.01640243                0.01000000               -0.28004226                0.06113139                0.10918976                0.07557531                0.21804287                0.00939770
               6.00550526                9.99884861               17.01798033                0.01000001               -0.24153632                0.04913906                0.11817915                0.02860688                0.26119721                0.02267594
               7.00316367                9.99936169               17.02029757                0.01000000               -0.24271583                0.04318756                0.13059267               -0.00377418                0.34988807                0.04077874
               8.00065094                9.99947459               17.02393537                0.01000000               -0.26328597                0.06626617                0.14932342               -0.09369555                0.46235331                0.10184759
               8.99789795                9.99774685               17.02877657                0.99999999               -0.16359768               -0.05225387                0.17368806               -0.06834200                0.25596242                0.00123512
               9.99737899                9.99738752               17.02852321                1.00000000               -0.05189621               -0.05181807                0.17237898                0.00035768                0.00111500               -0.00111480
               0.00125418                0.00170823               18.01490143                1.00000000               -0.02537899               -0.02529822                0.08466419               -0.00013345               -0.00365647                0.00341074
               1.00100039                0.00092027               18.01487930                1.00000000               -0.02535365               -0.02524166                0.08448019               -0.00003180               -0.00407087               -0.00107663
               2.00074711                0.00013013               18.01485081                0.01000000               -0.00935574               -0.02518565                0.08429593                0.01931046                0.04035468               -0.00170366
               3.00081328               -0.00027549               18.01571818                0.01000000                0.00046190               -0.02851997                0.09035811                0.01296386                0.09576980               -0.00410768
               4.00075635                0.00021406               18.01673212                0.01000001               -0.02196858               -0.02179453                0.09660882                0.04014864                0.12042241               -0.01138387
               5.00037391                0.00178952               18.01806930                0.01000000               -0.09100547               -0.01744496                0.10336429                0.10513448                0.15720887               -0.01808158
               5.99893624                0.00495197               18.01988523                0.30586959               -0.08853468               -0.03335989                0.11174960                0.10993083                0.09518045               -0.00096567
               6.99860321                0.00591108               18.02033161                1.00000000               -0.03382774               -0.03369706                0.11373816                0.00011210                0.01678830               -0.00414188
               7.99825968                0.00686498               18.02057524                0.99999999               -0.03460297               -0.03419278                0.11533369                0.00027359                0.00823820               -0.00046600
               8.99791115                0.00781058               18.02084810                1.00000000               -0.03511948               -0.03469909                0.11704130                0.00026900                0.00779287                0.00091884
               9.99755729                0.00874784               18.02108187                1.00000000               -0.03538597               -0.03522554                0.11874834                0.00070171                0.00580847                0.00530451
               0.00204081                1.00145525               18.01494824                1.00000000               -0.02516823               -0.02519905                0.08398786               -0.00010650                0.00101752                0.00367927
               1.00178913                1.00066785               18.01492741                0.01000000               -0.02513560               -0.02513996                0.08380401               -0.00000552                0.00267795               -0.00280134
               2.00153810                0.99987827               18.01493981                0.01000000               -0.04440870               -0.03363317                0.08362046               -0.00190862                0.04548610                0.01597260
               3.00090095                0.99943931               18.01577406                0.01000001               -0.07063852               -0.02547478                0.09046597                0.02801445                0.08350116               -0.00538707
               4.00012533                0.99999611               18.01662152                0.01000000               -0.09223285               -0.02143261                0.09588747                0.08683788                0.08978602               -0.01449662
               4.99905630                1.00161507               18.01768884                0.01000000               -0.10752807               -0.02520569                0.10159715                0.17289551                0.11946878               -0.02063659
               5.99797477                1.00461837               18.01930624                0.01000001               -0.07042332               -0.09011740                0.10902683                0.16001389                0.07667737               -0.03718614
               6.99764783                1.00557411               18.01967406                1.00000000               -0.03310471               -0.03327323                0.11092096               -0.00005478                0.00761253               -0.00414468
               7.99731267                1.00652305               18.01990678                1.00000000               -0.03377078               -0.03378483                0.11259026                0.00002811                0.00123267               -0.00037643
               8.99697241                1.00746359               18.02014539                1.00000000               -0.03428075               -0.03428999                0.11430083                0.00002194                0.00104815                0.00055319
               9.99662706                1.00839558               18.02037442                1.00000000               -0.03453578               -0.03481810                0.11600942                0.00042360                0.00048903                0.00657605
               0.00282684                2.00120425               18.01500188                0.01000000               -0.02495826               -0.03696989                0.08331149               -0.02038237                0.00154813                0.03548260
               1.00257726                2.00041747               18.01494146                0.01000000               -0.04446786               -0.04654582                0.08312724               -0.02646409                0.02667854                0.02656872
               2.00193749                1.99945746               18.01538176                0.01000001               -0.06607662               -0.04894865                0.08789361               -0.00118170                0.04876790                0.02194600
               3.00125573                1.99921501               18.01580026                0.01000000               -0.08100728               -0.03622762                0.09149787                0.07695898                0.05468233               -0.00527100
               4.00031734                1.99978540               18.01642242                0.01000000               -0.10230844               -0.03284950                0.09572770                0.16021562                0.06719940               -0.01648771
               4.99920956                2.00128541               18.01721302                0.01000001               -0.10699330               -0.04935633                0.10014371                0.22707496                0.06779215               -0.02279404
               5.99817747                2.00314962               18.01799975                0.01000000               -0.12560611               -0.11205308                0.10405090                0.25140833                0.07308166               -0.05005501
               6.99669744                2.00524562               18.01901347                0.01000000               -0.09033527               -0.07750284                0.10811760                0.15777550                0.03492364               -0.01914150
               7.99637077                2.00618928               18.01923883                0.06645675               -0.03291882               -0.03306453                0.10983510                0.00067143               -0.00588855                0.00400644
               8.99603906                2.00712478               18.01943569                0.99999999               -0.03344919               -0.03345792                0.11157565                0.00004410               -0.00427030               -0.00180704
               9.99570179                2.00805148               18.01969437                1.00000000               -0.03372756               -0.03401159                0.11328411                0.00043035               -0.00130474                0.00651968
               0.00320672                3.00071585               18.01568443                0.01000003               -0.02000887               -0.03982257                0.08902116               -0.01375673                0.00472670                0.06906218
               1.00300663                2.99973694               18.01557552                0.01000001               -0.02448974               -0.07942554                0.08941346               -0.00215957                0.01225899                0.04552078
               2.00271692                2.99889930               18.01561161                0.01000000               -0.04472186               -0.07398449                0.09084412                0.05874251                0.02984877                0.00939833
               3.00211219                2.99871475               18.01585001                0.01000000               -0.07288412               -0.06410292                0.09333400                0.14020068                0.04573558               -0.00640002
               4.00125924                2.99933912               18.01625857                0.01000000               -0.09393069               -0.05875183                0.09629688                0.22022874                0.05631560               -0.01260477
               5.00023358                3.00062795               18.01681114                0.01000000               -0.11082612               -0.07124480                0.09955936                0.28301647                0.06209738               -0.01196338
               5.99904272                3.00237731               18.01746385                0.01000001               -0.12349504               -0.08575433                0.10280426                0.30085176                0.05643857               -0.00283417
               6.99776368                3.00402406               18.01805396                0.01000000               -0.17978910               -0.10454413                0.10527888                0.32556181                0.04604393               -0.00707339
               7.99544694                3.00586176               18.01865768                0.01000001               -0.13262885               -0.08654583                0.10409588                0.27272179                0.00005211                0.02141950
               8.99511110                3.00679443               18.01868703                0.01000001               -0.03323303               -0.10292160                0.10886510                0.21397064               -0.01512098                0.03222055
               9.99478228                3.00771535               18.01898870                0.24161295               -0.03288246               -0.20379155                0.11054956                0.24832319               -0.00167977                0.02543432
               0.00450954                4.00040780               18.01636821                0.01000000               -0.01589139               -0.04022473                0.09431162                0.02907037                0.00008792                0.07256046
               1.00435062                3.99882896               18.01604359                0.01000000               -0.01875079               -0.10425684                0.09375502                0.06840912                0.00852712                0.03119315
               2.00413452                3.99797777               18.01586152                0.01000000               -0.03653513               -0.10234250                0.09404766                0.14206861                0.02728370                0.00240174
               3.00361992                3.99793295               18.01590311                0.01000000               -0.06628980               -0.08755585                0.09533952                0.21079217                0.04760384               -0.01077791
               4.00280872                3.99861037               18.01617977                0.01000000               -0.08941085               -0.08150510                0.09753159                0.27354668                0.06381905               -0.00868531
               5.00183170                3.99986051               18.01665040                0.01000000               -0.10051632               -0.08434345                0.10033331                0.31889240                0.07288296                0.00401059
               6.00079840                4.00143453               18.01723420                0.01000000               -0.10537403               -0.09851667                0.10331678                0.35217340                0.07372906                0.02193425
               6.99972422                4.00315474               18.01784799                0.01000001               -0.08717842               -0.10997792                0.10585740                0.36339484                0.06257047                0.04519860
               7.99905483                4.00445836               18.01833844                0.01000001               -0.06296696               -0.14745064                0.10835176                0.39782982                0.04517848                0.05767286
               8.99846488                4.00506635               18.01865998                0.01000000               -0.01142073               -0.17593040                0.11020362                0.28909635                0.01979035                0.07793157
               9.99882641                4.00397565               18.01869083                0.01000001                0.03615317               -0.27340497                0.11133327                0.21942766                0.01109642                0.04727897
               0.00694580                4.99991136               18.01710935                0.01000001               -0.01409659               -0.10110181                0.09926550                0.10285434                0.00181290                0.08618230
               1.00680484                4.99765180               18.01651226                0.01000000               -0.02457488               -0.11556649                0.09770006                0.16831949                0.01198798                0.02336995
               2.00645431                4.99685245               18.01607883                0.01000001               -0.05546964               -0.10673270                0.09689333                0.21753188                0.03426720               -0.01131371
               3.00569544                4.99696364               18.01596558                0.01000000               -0.08258446               -0.10231612                0.09736156                0.27133439                0.06075457               -0.01803761
               4.00480262                4.99770902               18.01618817                0.01000000               -0.09540912               -0.09134371                0.09920884                0.30773277                0.08409739               -0.00728692
               5.00378726                4.99894108               18.01667664                0.01000000               -0.10053271               -0.09264389                0.10205249                0.33157115                0.09909777                0.01431485
               6.00279196                5.00040697               18.01734055                0.01000001               -0.08897587               -0.10448720                0.10546243                0.33515371                0.10447536                0.04400154
               7.00200774                5.00182450               18.01806135                0.01000001               -0.06500203               -0.13139773                0.10901809                0.32363126                0.09913076                0.07638149
               8.00149192                5.00291275               18.01869824                0.01000000               -0.03159980               -0.15410043                0.11220115                0.27726954                0.08046313                0.10662367
               9.00137575                5.00327583               18.01907793                0.01000000               -0.00698397               -0.16432944                0.11441255                0.19103669                0.04790551                0.12014023
              10.00135224                5.00224725               18.01902825                0.01000000               -0.00235068               -0.12335246                0.11483853                0.09425217                0.02886150                0.10290045
               0.01108573                5.99838576               18.01814920                0.80441649               -0.03098147               -0.09212331                0.10506227                0.11345750               -0.00350429                0.05099414
               1.01077592                5.99651763               18.01702272                0.01000000               -0.09562064               -0.07215503                0.10180739                0.16444198                0.01215475                0.00785564
               2.00917332                5.99584312               18.01621695                0.01000000               -0.12929416               -0.12525367                0.09900133                0.26230753                0.03943449               -0.03519141
               3.00819004                5.99588663               18.01599846                0.01000001               -0.10936908               -0.09632542                0.09907916                0.29256454                0.08308863               -0.02652298
               4.00698594                5.99678349               18.01625288                0.01000000               -0.12124332               -0.09099116                0.10100496                0.31956293                0.11350677               -0.00965845
               5.00576517                5.99800763               18.01684505                0.01000001               -0.11839457               -0.08600315                0.10434341                0.31616599                0.13427747                0.01901491
               6.00461805                5.99934479               18.01769586                0.01000000               -0.10370478               -0.09346849                0.10869994                0.28429597                0.14601858                0.05765650
               7.00369107                6.00052678               18.01867266                0.01000000               -0.07345776               -0.11727406                0.11353084                0.22946258                0.14375573                0.10392833
               8.00314889                6.00137636               18.01958010                0.01000000               -0.03699812               -0.14353969                0.11803506                0.16883192                0.12163217                0.15010769
               9.00295111                6.00177976               18.02014894                0.01000000               -0.01901436               -0.13899695                0.12109245                0.09533313                0.07385413                0.18397669
              10.00276861                6.00150860               18.02008085                0.01000001               -0.01825057               -0.05478470                0.12151164                0.04671258                0.04298946                0.18408683
               0.01295122                6.99806889               18.01859419                0.99999999               -0.03148978               -0.03185689                0.10668241                0.00007765               -0.00319473                0.02213043
               1.01263632                6.99620870               18.01735842                1.00000000               -0.03098794               -0.03100656                0.10316875               -0.00028740               -0.00579737                0.00083740
               2.01233146                6.99434737               18.01607675                0.01000000               -0.10149780               -0.08979858                0.09996804                0.19204711                0.05311092               -0.03613552
               3.01060636                6.99503713               18.01602742                0.01000000               -0.16292935               -0.09848220                0.10021077                0.29189696                0.11598178               -0.03522274
               4.00907287                6.99588920               18.01632323                0.01000001               -0.15285383               -0.08788050                0.10254789                0.31497716                0.14355712               -0.01951352
               5.00754929                6.99722101               18.01707955                0.01000001               -0.15570692               -0.05802680                0.10671966                0.29266345                0.17407066                0.01778816
               6.00595873                6.99853760               18.01821128                0.01000000               -0.14919281               -0.05558594                0.11243120                0.21682673                0.19521495                0.06261007
               7.00456543                6.99947902               18.01960658                0.01000000               -0.11715756               -0.07748446                0.11924861                0.11926956                0.20039641                0.11962719
               8.00361558                7.00004195               18.02100892                0.01000000               -0.07076291               -0.11379978                0.12606118                0.03104280                0.17702145                0.20174839
               9.00315017                7.00049589               18.02202719                0.01000002               -0.03933775               -0.12586186                0.13117914               -0.00970886                0.10926447                0.26972411
              10.00282883                7.00115156               18.02209487                0.01000001               -0.03213456               -0.04385052                0.13220444               -0.01719633                0.06144939                0.31061697
               0.01480767                7.99774862               18.01906161                0.99999999               -0.03159809               -0.03211564                0.10709284                0.00006538               -0.00073705                0.02312396
               1.01449169                7.99589750               18.01773662                1.00000000               -0.03109162               -0.03117234                0.10374493               -0.00002923               -0.00042791                0.00290356
               2.01418584                7.99404715               18.01642137                0.01000001               -0.10027660               -0.03010609                0.10038133                0.08588969                0.04321745               -0.01630623
               3.01248615                7.99391699               18.01597504                0.01000001               -0.15421185               -0.15657315                0.10052705                0.30524682                0.11146472               -0.08561945
               4.01110160                7.99502588               18.01629231                0.01000001               -0.17580623               -0.05222642                0.10322919                0.33599140                0.17464646               -0.02872874
               5.00897003                7.99684710               18.01730742                0.01000000               -0.22025100               -0.00461502                0.10870662                0.26390528                0.21514375                0.01290764
               6.00669658                7.99823307               18.01875045                0.01000000               -0.21989567               -0.00214241                0.11596097                0.14729937                0.24339993                0.05584276
               7.00457212                7.99897709               18.02064659                0.01000000               -0.19718487               -0.01597142                0.12518380                0.02033111                0.27904447                0.11275831
               8.00275288                7.99910036               18.02306698                0.01000002               -0.14623933               -0.04815967                0.13675300               -0.10592675                0.26759760                0.20886782
               9.00164733                7.99926252               18.02493142                0.01000001               -0.08197717               -0.09712605                0.14574995               -0.19162473                0.17735148                0.46494513
              10.00111334                8.00063159               18.02564602                0.01000000               -0.05339928               -0.14916299                0.14968664               -0.14124116                0.11780985                0.45606544
               0.01665477                8.99742658               18.01952944                1.00000000               -0.03175644               -0.03228469                0.10755962                0.00006822                0.00226257                0.01824843
               1.01633721                8.99558525               18.01811921                0.99999999               -0.03125042               -0.03127035                0.10416646               -0.00000774                0.00104853                0.00174030
               2.01602976                8.99374525               18.01668576                1.00000000               -0.03023223               -0.03025229                0.10073952               -0.00005638               -0.00543603               -0.01215617
               3.01573256                8.99190567               18.01514919                0.01000001               -0.15835898               -0.11516986                0.09724605                0.30895224                0.12257209               -0.07269154
               4.01286259                8.99484467               18.01628178                0.01000000               -0.30561802                0.03984674                0.10338934                0.31594040                0.23620067               -0.02503884
               5.00962020                8.99712871               18.01745891                0.01000000               -0.30439311                0.04851656                0.10983844                0.17610448                0.23861564                0.00804822
               6.00677472                8.99849476               18.01913119                0.01000000               -0.27577211                0.04087357                0.11834582                0.07575442                0.27680274                0.03494748
               7.00410476                8.99915959               18.02146759                0.01000002               -0.27815543                0.03358404                0.12980087               -0.01465530                0.33851931                0.07139109
               8.00121161                8.99907876               18.02470513                0.01000001               -0.31591553                0.03574170                0.14533712               -0.11577456                0.50964413                0.14513843
               8.99778645                8.99855337               18.03078693                0.99999998               -0.19728669               -0.06153184                0.17385123               -0.21937989                0.31612396                0.30757025
               9.99726588                8.99816830               18.03052370                0.99999999               -0.05205705               -0.14912670                0.17318039               -0.21167176               -0.00100925                0.25653929
               0.01849168                9.99710293               18.01989985                1.00000000               -0.03188244               -0.03236468                0.10799747                0.00060694                0.01266740                0.01345675
               1.01817286                9.99527209               18.01847730                1.00000000               -0.03136926               -0.03131606                0.10459997                0.00052338                0.01595018                0.00046699
               2.01786430                9.99344210               18.01711903                1.00000000               -0.03035355               -0.03031498                0.10120235                0.00052784                0.01602897               -0.00388287
               3.01756579                9.99161359               18.01569914                0.01000000               -0.28334683               -0.02920770                0.09779707                0.30235786                0.11458468               -0.00420834
               4.01219736                9.99582282               18.01631544                0.01000001               -0.43618772                0.09781509                0.10295362                0.24366940                0.20034975               -0.01256193
               5.00884203                9.99781743               18.01749707                0.01000000               -0.30082845                0.06887166                0.10975950                0.08356888                0.22830992                0.01018918
               6.00618079                9.99905054               18.01916420                0.01000001               -0.25735117                0.05557857                0.11861219                0.03217393                0.27390324                0.02406027
               7.00369501                9.99964877               18.02160495                0.01000014               -0.25685880                0.04891851                0.13089353               -0.00274282                0.36719685                0.04300127
               8.00104361                9.99981519               18.02542915                0.01000000               -0.27624065                0.07364347                0.14943828               -0.09764441                0.48534006                0.10689270
               8.99817019                9.99803189               18.03051364                0.99999999               -0.16967879               -0.05214775                0.17372749               -0.06993281                0.26862187                0.00123588
               9.99765004                9.99764905               18.03025040                1.00000000               -0.05201565               -0.05192460                0.17305662                0.00013208                0.00111598               -0.00111591
               0.00124066                0.00169891               19.01575004                1.00000000               -0.02547457               -0.02537103                0.08505587               -0.00020620               -0.00365648                0.00341286
               1.00098592                0.00086478               19.01572525                1.00000000               -0.02542644               -0.02526342                0.08470786               -0.00006011               -0.00407085               -0.00107747
               2.00073214                0.00002746               19.01569408                0.01000000               -0.00780692               -0.02515729                0.08436050                0.02211374                0.04341829               -0.00170409
               3.00082978               -0.00036980               19.01662004                0.01000000                0.00254274               -0.02824737                0.09002682                0.01579530                0.10165815               -0.00344381
               4.00078299                0.00021483               19.01769554                0.01000001               -0.02322208               -0.02040618                0.09607915                0.04624855                0.12637532               -0.01130275
               5.00036534                0.00199631               19.01909976                0.01000001               -0.10173116               -0.01513447                0.10271438                0.11971402                0.16380623               -0.01842500
               5.99874837                0.00553486               19.02099932                0.29202449               -0.09738569               -0.03318655                0.11103448                0.12642951                0.09854354               -0.00097439
               6.99841763                0.00654087               19.02146617                0.99999999               -0.03364773               -0.03354044                0.11314862                0.00013844                0.01684489               -0.00422655
               7.99807541                0.00754247               19.02172712                0.99999999               -0.03451251               -0.03412501                0.11502902                0.00031510                0.00820286               -0.00047206
               8.99772738                0.00853621               19.02201839                1.00000000               -0.03511044               -0.03471440                0.11701369                0.00031067                0.00781576                0.00092335
               9.99737320                0.00952212               19.02227057                1.00000000               -0.03541713               -0.03532764                0.11899803                0.00072003                0.00582960                0.00531971
               0.00207274                1.00144520               19.01578855                1.00000000               -0.02516950               -0.02522760                0.08407430               -0.00015618                0.00101653                0.00368113
               1.00182104                1.00061214               19.01576506                0.01000000               -0.02510883               -0.02511438                0.08372417               -0.00001059                0.00267966               -0.00280202
               2.00157056                0.99977589               19.01577480                0.01000000               -0.04634959               -0.03419270                0.08337720               -0.00005470                0.04900157                0.01871930
               3.00089405                0.99934773               19.01667669                0.01000001               -0.07540707               -0.02511785                0.09006468                0.03429375                0.08938636               -0.00413594
               4.00006242                1.00001077               19.01757773                0.01000000               -0.09957940               -0.02038518                0.09536742                0.09971266                0.09460651               -0.01394342
               4.99890246                1.00184497               19.01870205                0.01000000               -0.11610182               -0.02459354                0.10103697                0.19603960                0.12471498               -0.02060391
               5.99774038                1.00520300               19.02039388                0.01000001               -0.07436295               -0.09767162                0.10846642                0.18069444                0.07952905               -0.03829030
               6.99741520                1.00620547               19.02078125                1.00000000               -0.03297437               -0.03314121                0.11049476               -0.00003673                0.00765609               -0.00420822
               7.99708090                1.00720122               19.02103200                0.99999999               -0.03372730               -0.03374069                0.11244364                0.00002652                0.00123003               -0.00038069
               8.99674066                1.00818906               19.02128906                0.99999999               -0.03432026               -0.03432890                0.11443139                0.00002082                0.00106796                0.00056630
               9.99639449                1.00916884               19.02153650                1.00000000               -0.03461670               -0.03494375                0.11641726                0.00039900                0.00050513                0.00659256
               0.00290366                2.00119436               19.01583390                0.01000001               -0.02486394               -0.03591052                0.08309511               -0.01861690                0.00154855                0.03875396
               1.00265502                2.00036249               19.01577080                0.01000000               -0.04541008               -0.04842352                0.08273975               -0.02525141                0.02942683                0.03017886
               2.00199546                1.99934361               19.01626342                0.01000001               -0.06871201               -0.05102491                0.08787632                0.00369544                0.05301532                0.02630157
               3.00128078                1.99912785               19.01671222                0.01000000               -0.08577274               -0.03727644                0.09103745                0.09078397                0.05815629               -0.00300441
               4.00028000                1.99980712               19.01737751                0.01000000               -0.10934386               -0.03358450                0.09528236                0.18274961                0.07093749               -0.01517843
               4.99909390                2.00150444               19.01821221                0.01000001               -0.11391223               -0.05241063                0.09970176                0.25606844                0.07091315               -0.02215110
               5.99800176                2.00358143               19.01903841                0.01000000               -0.13376192               -0.12307012                0.10367313                0.28076090                0.07574727               -0.05092850
               6.99641866                2.00587805               19.02009342                0.01000000               -0.09547052               -0.08288541                0.10785303                0.17468032                0.03608050               -0.01923026
               7.99609235                2.00686766               19.02033728                0.06997582               -0.03292469               -0.03306888                0.10984725                0.00067765               -0.00585092                0.00250815
               8.99576017                2.00784963               19.02055288                0.99999999               -0.03353627               -0.03354181                0.11186355                0.00004639               -0.00423498               -0.00177941
               9.99542162                2.00882325               19.02082998                1.00000000               -0.03385479               -0.03418507                0.11384946                0.00040721               -0.00128893                0.00653193
               0.00336414                3.00072699               19.01657357                0.01000001               -0.01973747               -0.03848620                0.08882925               -0.01158114                0.00536668                0.07546250
               1.00316677                2.99964367               19.01646878                0.01000001               -0.02425128               -0.08443347                0.08925013                0.00332076                0.01332772                0.05162991
               2.00287912                2.99875539               19.01651799                0.01000000               -0.04602758               -0.07872421                0.09056992                0.07221979                0.03195286                0.01296993
               3.00224622                2.99860220               19.01678210                0.01000000               -0.07691510               -0.06792686                0.09307005                0.16214031                0.04848693               -0.00366670
               4.00134081                2.99933908               19.01721983                0.01000004               -0.09983434               -0.06223368                0.09597503                0.24949133                0.05915585               -0.01066839
               5.00024953                3.00079676               19.01780517                0.01000000               -0.11794082               -0.07652827                0.09925098                0.31713830                0.06482122               -0.01040513
               5.99898200                3.00274159               19.01849069                0.01000001               -0.13134740               -0.09288032                0.10256022                0.33429664                0.05847937               -0.00124383
               6.99762258                3.00454776               19.01910579                0.01000000               -0.19295647               -0.11323794                0.10513376                0.35880703                0.04569563               -0.00589703
               7.99512287                3.00653984               19.01969947                0.01000001               -0.14182905               -0.09209408                0.10440721                0.29884976                0.00023672                0.02335247
               8.99478600                3.00751823               19.01977789                0.01000002               -0.03337325               -0.10941515                0.10930963                0.23347589               -0.01357376                0.03421081
               9.99445540                3.00848514               19.02009775                0.25757193               -0.03305965               -0.21931065                0.11127287                0.27088163               -0.00168118                0.02712824
               0.00483867                4.00042464               19.01731143                0.01000000               -0.01456392               -0.04208805                0.09437069                0.03518395                0.00020926                0.07872425
               1.00469304                3.99867382               19.01698165                0.01000000               -0.01786734               -0.11242005                0.09389089                0.08132279                0.00907149                0.03595051
               2.00448133                3.99776913               19.01680237                0.01000000               -0.03765668               -0.10971259                0.09412003                0.16474311                0.02868580                0.00596717
               3.00393990                3.99776931               19.01685616                0.01000004               -0.07030278               -0.09328424                0.09528447                0.24011285                0.04981162               -0.00817867
               4.00307527                3.99856245               19.01715433                0.01000000               -0.09528747               -0.08683676                0.09737979                0.30786794                0.06659426               -0.00637374
               5.00203415                3.99997388               19.01765278                0.01000001               -0.10692917               -0.09025091                0.10014431                0.35591248                0.07584655                0.00647686
               6.00093669                4.00172382               19.01826660                0.01000000               -0.11187995               -0.10592917                0.10316813                0.39025670                0.07637633                0.02487700
               6.99979655                4.00361329               19.01890629                0.01000001               -0.09189066               -0.11817257                0.10582975                0.40011747                0.06476036                0.04906005
               7.99909888                4.00502578               19.01942219                0.01000001               -0.06560813               -0.15863667                0.10846009                0.43580081                0.04695738                0.06383213
               8.99848439                4.00566133               19.01976364                0.01000000               -0.00967260               -0.18885338                0.11057728                0.31590423                0.02084768                0.08278338
               9.99890542                4.00443703               19.01980719                0.01000001                0.04210330               -0.29490143                0.11196637                0.23950789                0.01201715                0.05094027
               0.00756945                4.99988523               19.01810472                0.01000001               -0.01207178               -0.11367036                0.09981858                0.11875137                0.00183933                0.09244958
               1.00744873                4.99739527               19.01749244                0.01000000               -0.02454805               -0.12514289                0.09833939                0.19314303                0.01238628                0.02774383
               2.00707849                4.99656114               19.01705012                0.01000001               -0.05967944               -0.11390231                0.09739426                0.24762107                0.03548406               -0.00857645
               3.00625515                4.99673651               19.01694041                0.01000000               -0.08924445               -0.10893949                0.09759755                0.30574871                0.06303325               -0.01574888
               4.00529360                4.99760234               19.01718051                0.01000001               -0.10243694               -0.09705573                0.09924204                0.34433336                0.08735379               -0.00490046
               5.00420641                4.99899174               19.01769684                0.01000000               -0.10729410               -0.09868174                0.10197413                0.36902689                0.10294538                0.01729231
               6.00314772                5.00062301               19.01839471                0.01000002               -0.09417161               -0.11161417                0.10537015                0.37133927                0.10852127                0.04799123
               7.00232298                5.00218431               19.01915133                0.01000001               -0.06784366               -0.14066229                0.10899296                0.35699273                0.10297426                0.08175838
               8.00179085                5.00336711               19.01982071                0.01000000               -0.03150730               -0.16484243                0.11231216                0.30453795                0.08362162                0.11311144
               9.00169283                5.00374116               19.02022340                0.01000000               -0.00483496               -0.17551222                0.11471829                0.20904980                0.04980161                0.12708488
              10.00169415                5.00258711               19.02017922                0.01000000                0.00013191               -0.13081167                0.11539551                0.10298131                0.03000295                0.10897448
               0.01219362                5.99815123               19.01920435                0.77937541               -0.03136331               -0.10266384                0.10615733                0.13208327               -0.00345507                0.05457266
               1.01187999                5.99617096               19.01804732                0.01000000               -0.10505566               -0.07686808                0.10330487                0.18723533                0.01218455                0.01049509
               2.01009251                5.99549108               19.01721164                0.01000000               -0.14331562               -0.13398987                0.09992693                0.29427867                0.04023220               -0.03346718
               3.00901367                5.99559052               19.01699220                0.01000001               -0.11928959               -0.10202678                0.09966005                0.32659831                0.08590414               -0.02487447
               4.00770672                5.99662134               19.01726426                0.01000000               -0.13098265               -0.09632636                0.10124210                0.35551079                0.11765295               -0.00748223
               5.00639402                5.99800024               19.01788883                0.01000002               -0.12679051               -0.09103377                0.10437811                0.35099166                0.13943341                0.02213362
               6.00517090                5.99949154               19.01878267                0.01000001               -0.11008578               -0.09909237                0.10864959                0.31540136                0.15174322                0.06217008
               7.00419231                6.00080004               19.01980769                0.01000000               -0.07690608               -0.12453619                0.11348278                0.25462578                0.14945510                0.11020260
               8.00363278                6.00172893               19.02076050                0.01000000               -0.03734609               -0.15230897                0.11806973                0.18713776                0.12646127                0.15818154
               9.00344538                6.00215108               19.02136068                0.01000001               -0.01798214               -0.14675128                0.12129347                0.10530866                0.07676814                0.19334689
              10.00327314                6.00182080               19.02129805                0.01000001               -0.01722438               -0.05540633                0.12196498                0.05142930                0.04470469                0.19346391
               0.01417165                6.99783195               19.01966485                0.99999999               -0.03180590               -0.03205416                0.10752620                0.00001848               -0.00338829                0.02280692
               1.01385359                6.99585791               19.01839586                0.99999999               -0.03135705               -0.03135610                0.10437023               -0.00031646               -0.00585477                0.00142743
               2.01354451                6.99388134               19.01708415                0.01000000               -0.10983690               -0.09570257                0.10152630                0.21305266                0.05462478               -0.03568088
               3.01165685                6.99469598               19.01703330                0.01000000               -0.17752086               -0.10456120                0.10105686                0.32303660                0.11953614               -0.03441723
               4.00999409                6.99567581               19.01735115                0.01000000               -0.16504080               -0.09305749                0.10300335                0.34820634                0.14888448               -0.01802564
               5.00835604                6.99717106               19.01814784                0.01000001               -0.16690728               -0.06052064                0.10690413                0.32377166                0.18075555                0.02067876
               6.00665595                6.99864116               19.01933576                0.01000000               -0.15889687               -0.05776986                0.11244148                0.24111337                0.20298078                0.06711527
               7.00517810                6.99969358               19.02079869                0.01000000               -0.12366917               -0.08105951                0.11917832                0.13498652                0.20851870                0.12634480
               8.00418256                7.00032093               19.02226907                0.01000000               -0.07354846               -0.11921922                0.12599004                0.03864611                0.18424490                0.21183331
               9.00370713                7.00080613               19.02333904                0.01000002               -0.03996324               -0.13083202                0.13122156               -0.00747760                0.11371248                0.28258535
              10.00338330                7.00147899               19.02341833                0.01000000               -0.03238325               -0.04200339                0.13251567               -0.01718570                0.06397856                0.32517143
               0.01614208                7.99751015               19.02013445                1.00000000               -0.03178080               -0.03220904                0.10747706                0.00001560               -0.00073364                0.02314639
               1.01582427                7.99554384               19.01877789                1.00000000               -0.03132927               -0.03139755                0.10451837               -0.00001156               -0.00044222                0.00295232
               2.01551549                7.99357703               19.01743088                0.01000001               -0.10721670               -0.03045420                0.10153649                0.09441514                0.04480189               -0.01641160
               3.01367994                7.99349929               19.01698513                0.01000001               -0.16598672               -0.16910989                0.10139612                0.33517589                0.11594119               -0.08747324
               4.01219576                7.99476019               19.01732771                0.01000066               -0.18879144               -0.05459684                0.10392060                0.36904130                0.18117081               -0.02792133
               5.00990411                7.99678983               19.01839642                0.01000000               -0.23625530               -0.00264232                0.10906955                0.29068386                0.22352107                0.01517934
               6.00747065                7.99833614               19.01991077                0.01000000               -0.23459199                0.00006223                0.11608431                0.16406887                0.25328675                0.05967573
               7.00521227                7.99917885               19.02189820                0.01000000               -0.20887478               -0.01471569                0.12514012                0.02705702                0.29075151                0.11883894
               8.00329316                7.99934454               19.02443349                0.01000002               -0.15372449               -0.04842070                0.13656261               -0.10864809                0.27896407                0.21897671
               9.00213778                7.99953444               19.02638801                0.01000001               -0.08547183               -0.09837752                0.14558660               -0.20145990                0.18494815                0.48628561
              10.00158372                8.00098073               19.02714326                0.01000000               -0.05540577               -0.15234392                0.14977711               -0.14841777                0.12304187                0.47678528
               0.01810457                8.99718777               19.02060487                1.00000000               -0.03180940               -0.03226166                0.10752979                0.00001458                0.00226236                0.01827828
               1.01778648                8.99522996               19.01916270                0.99999999               -0.03136070               -0.03137561                0.10453327                0.00000657                0.00103424                0.00171131
               2.01747736                8.99327226               19.01769704                1.00000000               -0.03046338               -0.03048030                0.10151727               -0.00003981               -0.00549348               -0.01224016
               3.01717721                8.99131378               19.01612768                0.01000002               -0.16964887               -0.12403103                0.09844982                0.33811935                0.12709014               -0.07446319
               4.01408438                8.99458388               19.01731959                0.01000000               -0.32917260                0.04527166                0.10418435                0.34619209                0.24505193               -0.02482838
               5.01059376                8.99711822               19.01855988                0.01000000               -0.32680404                0.05479281                0.11037038                0.19331270                0.24820803                0.00937717
               6.00754830                8.99864241               19.02031608                0.01000000               -0.29414609                0.04638161                0.11863819                0.08429196                0.28846635                0.03725982
               7.00471084                8.99939927               19.02276595                0.01000002               -0.29471439                0.03840672                0.12987818               -0.01297513                0.35326830                0.07516346
               8.00165401                8.99935252               19.02615775                0.01000001               -0.33345460                0.04099234                0.14519449               -0.12023943                0.53234736                0.15201056
               8.99804175                8.99883858               19.03252207                0.99999998               -0.20658252               -0.06081394                0.17317895               -0.23045208                0.33042506                0.32138335
               9.99752236                8.99843211               19.03225531                0.99999999               -0.05193831               -0.15344633                0.17314080               -0.22344367               -0.00101124                0.26813899
               0.02005800                9.99686491               19.02097768                1.00000000               -0.03180813               -0.03228601                0.10755837                0.00048378                0.01269573                0.01347797
               1.01973992                9.99491633               19.01952316                1.00000000               -0.03135612               -0.03136307                0.10455963                0.00046889                0.01598937                0.00044816
               2.01943087                9.99296742               19.01813297                0.99999998               -0.03046058               -0.03048375                0.10157180                0.00046861                0.01607446               -0.00391904
               3.01913070                9.99101867               19.01668105                0.01000000               -0.30578555               -0.02951078                0.09856951                0.33025904                0.11880566               -0.00422293
               4.01331516                9.99566562               19.01734875                0.01000001               -0.47094364                0.10817426                0.10375323                0.26642870                0.20881151               -0.01252338
               5.00971183                9.99788569               19.01859762                0.01000000               -0.32198631                0.07674694                0.11039888                0.09171474                0.23815373                0.01102510
               6.00687544                9.99926377               19.02035258                0.01000001               -0.27345891                0.06213670                0.11909467                0.03577856                0.28616832                0.02544406
               7.00424265                9.99994699               19.02291545                0.01000002               -0.27131914                0.05477171                0.13122240               -0.00178774                0.38398474                0.04517600
               8.00144905               10.00016439               19.02692413                0.01000000               -0.28967543                0.08118729                0.14956537               -0.10193724                0.50774643                0.11176420
               8.99844914                9.99831816               19.03225112                0.99999999               -0.17606300               -0.05204209                0.17376837               -0.07188956                0.28092370                0.00123624
               9.99792779                9.99791180               19.03198434                1.00000000               -0.05213500               -0.05203044                0.17373027               -0.00009271                0.00111756               -0.00111680
               0.00123064                0.00169946               20.01660255                1.00000000               -0.02557059               -0.02544470                0.08544048               -0.00028727               -0.00366335                0.00341530
               1.00097493                0.00081910               20.01657346                1.00000000               -0.02549812               -0.02528414                0.08493434               -0.00008781               -0.00406516               -0.00108129
               2.00072068               -0.00006538               20.01653802                0.01000001               -0.00649746               -0.02512982                0.08443334                0.02474441                0.04637600               -0.00169825
               3.00084499               -0.00045766               20.01751872                0.01000000                0.00417298               -0.02779315                0.08972422                0.01852598                0.10722830               -0.00273732
               4.00080414                0.00022362               20.01865370                0.01000001               -0.02493703               -0.01883481                0.09557865                0.05250141                0.13200301               -0.01120210
               5.00034624                0.00221645               20.02012359                0.01000079               -0.11317181               -0.01259051                0.10204736                0.13480827                0.17003834               -0.01877461
               5.99854070                0.00614337               20.02210591                0.27877244               -0.10669643               -0.03298967                0.11024381                0.14354170                0.10164425               -0.00098519
               6.99821232                0.00719640               20.02259458                1.00000000               -0.03345887               -0.03336988                0.11251180                0.00017094                0.01682868               -0.00430419
               7.99787152                0.00824577               20.02287582                0.99999999               -0.03441471               -0.03404997                0.11469868                0.00035944                0.00816966               -0.00047778
               8.99752402                0.00928771               20.02318837                1.00000000               -0.03509997               -0.03472863                0.11698068                0.00035522                0.00783664                0.00092759
               9.99716952                0.01032237               20.02346184                1.00000000               -0.03544972               -0.03543491                0.11926247                0.00074083                0.00584907                0.00533389
               0.00210813                1.00144501               20.01662973                1.00000000               -0.02516529               -0.02525736                0.08416548               -0.00020767                0.00102185                0.00369082
               1.00185648                1.00056625               20.01660189                0.01000000               -0.02508157               -0.02508871                0.08364224               -0.00001768                0.00267452               -0.00281062
               2.00160650                0.99968332               20.01660735                0.01000000               -0.04853660               -0.03471551                0.08313306                0.00169267                0.05252623                0.02145672
               3.00088575                0.99926441               20.01757536                0.01000001               -0.08072006               -0.02464176                0.08969166                0.04058625                0.09518519               -0.00271060
               3.99999210                1.00003527               20.01852886                0.01000000               -0.10756488               -0.01919420                0.09488886                0.11290485                0.09926214               -0.01332298
               4.99873445                1.00209054               20.01970958                0.01000000               -0.12529764               -0.02385934                0.10047876                0.21994447                0.12972705               -0.02053084
               5.99748615                1.00581348               20.02147557                0.01000001               -0.07858107               -0.10545701                0.10783437                0.20213297                0.08215283               -0.03937252
               6.99716283                1.00686270               20.02188395                1.00000000               -0.03283413               -0.03299606                0.11002605               -0.00001743                0.00762932               -0.00426687
               7.99682946                1.00790527               20.02215565                0.99999999               -0.03367753               -0.03368990                0.11227538                0.00002447                0.00122736               -0.00038477
               8.99648928                1.00894042               20.02243402                0.99999999               -0.03435944               -0.03436734                0.11456041                0.00001936                0.00108628                0.00057859
               9.99614227                1.00996802               20.02270276                1.00000000               -0.03470023               -0.03507510                0.11684367                0.00037366                0.00052006                0.00660808
               0.00298400                2.00119431               20.01666378                0.01000001               -0.02477268               -0.03487234                0.08288795               -0.01692429                0.00154822                0.04220914
               1.00273627                2.00031732               20.01659626                0.01000000               -0.04638129               -0.05037815                0.08234327               -0.02408571                0.03217501                0.03405596
               2.00205638                1.99924031               20.01713929                0.01000001               -0.07157567               -0.05317862                0.08740457                0.00841744                0.05736184                0.03099067
               3.00130476                1.99904951               20.01762101                0.01000000               -0.09101376               -0.03834646                0.09070359                0.10468813                0.06172983               -0.00048712
               4.00023610                1.99983973               20.01832807                0.01000000               -0.11689185               -0.03431643                0.09488116                0.20584752                0.07454522               -0.01372105
               4.99896692                2.00173926               20.01920705                0.01000001               -0.12124464               -0.05556366                0.09928887                0.28595990                0.07390259               -0.02143473
               5.99781121                2.00403423               20.02007321                0.01000000               -0.14233756               -0.13446155                0.10329810                0.31113775                0.07825579               -0.05176567
               6.99612017                2.00653648               20.02117053                0.01000000               -0.10084593               -0.08847270                0.10755096                0.19218623                0.03714391               -0.01930457
               7.99579429                2.00757197               20.02143577                0.07299785               -0.03292552               -0.03306820                0.10984195                0.00069964               -0.00581579                0.00115544
               8.99546166                2.00860036               20.02167296                0.99999999               -0.03362419               -0.03362628                0.11215351                0.00004830               -0.00420190               -0.00175354
               9.99512181                2.00962087               20.02197136                1.00000000               -0.03398572               -0.03436539                0.11443693                0.00038346               -0.00127408                0.00654354
               0.00352362                3.00074757               20.01746102                0.01000000               -0.01948552               -0.03715884                0.08867577               -0.00942285                0.00599197                0.08221876
               1.00332877                2.99955869               20.01736053                0.01000001               -0.02404808               -0.08965020                0.08910965                0.00885098                0.01438666                0.05831161
               2.00304266                2.99861975               20.01742301                0.01000000               -0.04743433               -0.08376631                0.09041215                0.08580692                0.03396627                0.01714679
               3.00238008                2.99849748               20.01771141                0.01000000               -0.08116854               -0.07192180                0.09283555                0.18443134                0.05108079               -0.00063468
               4.00141929                2.99934894               20.01817807                0.01000001               -0.10604695               -0.06587594                0.09570649                0.27948378                0.06186032               -0.00855557
               5.00025914                3.00097927               20.01879616                0.01000000               -0.12538020               -0.08204409                0.09897694                0.35223738                0.06740413               -0.00880262
               5.99891169                3.00312425               20.01951506                0.01000001               -0.13951661               -0.10030880                0.10234649                0.36875872                0.06040060                0.00032225
               6.99746881                3.00509324               20.02015664                0.01000001               -0.20660594               -0.12230398                0.10509067                0.39316632                0.04538923               -0.00475056
               7.99477957                3.00724391               20.02074582                0.01000001               -0.15137306               -0.09790992                0.10494221                0.32584992                0.00037657                0.02521906
               8.99444135                3.00826790               20.02087322                0.01000000               -0.03353170               -0.11619266                0.10975950                0.25359868               -0.01217516                0.03610754
               9.99410894                3.00928071               20.02121416                0.27419708               -0.03324151               -0.23539432                0.11202204                0.29417375               -0.00168240                0.02870469
               0.00517329                4.00045114               20.01825562                0.01000000               -0.01321778               -0.04400697                0.09448241                0.04149466                0.00022614                0.08547351
               1.00504111                3.99852432               20.01792141                0.01000000               -0.01697834               -0.12088441                0.09408170                0.09461160                0.00941568                0.04139021
               2.00483372                3.99756498               20.01774392                0.01000000               -0.03884592               -0.11740467                0.09422705                0.18800512                0.02978643                0.01010346
               3.00426420                3.99761107               20.01780880                0.01000000               -0.07448692               -0.09924324                0.09526105                0.27014339                0.05172027               -0.00522063
               4.00334399                3.99852221               20.01812737                0.01000000               -0.10139153               -0.09239317                0.09724099                0.34306411                0.06911544               -0.00393656
               5.00223636                4.00009838               20.01865328                0.01000001               -0.11357882               -0.09641984                0.09997536                0.39393373                0.07862836                0.00892063
               6.00107241                4.00202806               20.01929756                0.01000001               -0.11862634               -0.11367594                0.10305735                0.42941096                0.07890552                0.02771182
               6.99986384                4.00409040               20.01996459                0.01000001               -0.09678875               -0.12674847                0.10588753                0.43790693                0.06685909                0.05275798
               7.99913664                4.00561377               20.02050765                0.01000001               -0.06835022               -0.17036232                0.10870606                0.47494134                0.04867805                0.06966021
               8.99849683                4.00627651               20.02087152                0.01000000               -0.00784915               -0.20237099                0.11106137                0.34355593                0.02188115                0.08737764
               9.99897965                4.00491298               20.02093016                0.01000001                0.04828184               -0.31724133                0.11267875                0.26023329                0.01291519                0.05431659
               0.00820715                4.99986743               20.01910572                0.01000001               -0.00999955               -0.12670256                0.10041569                0.13522823                0.00167157                0.09959773
               1.00810716                4.99714100               20.01847904                0.01000000               -0.02455698               -0.13501048                0.09901540                0.21877203                0.01246658                0.03320258
               2.00771601                4.99627165               20.01802671                0.01000001               -0.06407193               -0.12126138                0.09791996                0.27854865                0.03619503               -0.00518469
               3.00682572                4.99651262               20.01791753                0.01000000               -0.09613742               -0.11574099                0.09778950                0.34103615                0.06479155               -0.01310521
               4.00579326                4.99750108               20.01817301                0.01000001               -0.10968723               -0.10294981                0.09922195                0.38183213                0.09023073               -0.00242636
               5.00463197                4.99905087               20.01871612                0.01000001               -0.11426857               -0.10495407                0.10186927                0.40743597                0.10654750                0.02017738
               6.00350789                5.00085073               20.01944795                0.01000000               -0.09953702               -0.11904605                0.10529541                0.40845219                0.11240325                0.05178542
               7.00264123                5.00255827               20.02024120                0.01000000               -0.07078047               -0.15034572                0.10902267                0.39122193                0.10669550                0.08685437
               8.00209228                5.00383666               20.02094449                0.01000000               -0.03139840               -0.17610737                0.11250614                0.33253449                0.08669848                0.11926780
               9.00201327                5.00422048               20.02137229                0.01000000               -0.00258119               -0.18727219                0.11512554                0.22756589                0.05166668                0.13365672
              10.00204066                5.00293588               20.02133616                0.01000000                0.00273946               -0.13871052                0.11606065                0.11195680                0.03114029                0.11468422
               0.01333070                5.99791708               20.02027234                0.75333320               -0.03183728               -0.11362447                0.10741952                0.15141622               -0.00340988                0.05874676
               1.01301233                5.99582411               20.01908882                0.01000000               -0.11488079               -0.08171645                0.10496942                0.21077175                0.01164400                0.01384904
               2.01103308                5.99513975               20.01821549                0.01000000               -0.15784163               -0.14285709                0.10084545                0.32713220                0.04011961               -0.03092844
               3.00985550                5.99529625               20.01799166                0.01000001               -0.12953571               -0.10783829                0.10013818                0.36139162                0.08804985               -0.02276782
               4.00844237                5.99646322               20.01827773                0.01000001               -0.14100316               -0.10179204                0.10134347                0.39228995                0.12128343               -0.00520534
               5.00703543                5.99799930               20.01893261                0.01000008               -0.13541583               -0.09619399                0.10432156                0.38658627                0.14425378                0.02515816
               6.00573405                5.99964714               20.01986885                0.01000005               -0.11665448               -0.10494604                0.10857773                0.34718968                0.15724267                0.06645056
               7.00470234                6.00108348               20.02094232                0.01000000               -0.08044657               -0.13214355                0.11347158                0.28028798                0.15496964                0.11613826
               8.00412512                6.00209163               20.02194150                0.01000000               -0.03767067               -0.16155146                0.11817804                0.20577134                0.13115298                0.16581485
               9.00394893                6.00253106               20.02257481                0.01000001               -0.01685747               -0.15501055                0.12159309                0.11545173                0.07961586                0.20221837
              10.00378797                6.00213877               20.02252015                0.01000001               -0.01609556               -0.05630540                0.12252143                0.05622821                0.04639945                0.20236302
               0.01542143                6.99759494               20.02074472                0.99999999               -0.03215042               -0.03227745                0.10844349               -0.00005625               -0.00365049                0.02346164
               1.01509992                6.99550667               20.01944583                1.00000000               -0.03174569               -0.03172014                0.10562838               -0.00031743               -0.00597397                0.00198547
               2.01478651                6.99341451               20.01810728                0.01000000               -0.11849187               -0.10168645                0.10311107                0.23453623                0.05560109               -0.03467346
               3.01273009                6.99435585               20.01804856                0.01000001               -0.19252497               -0.11115538                0.10189853                0.35516905                0.12217824               -0.03320786
               4.01093601                6.99546523               20.01838330                0.01000000               -0.17751538               -0.09820993                0.10329840                0.38212496                0.15347753               -0.01624428
               5.00917978                6.99712699               20.01921764                0.01000128               -0.17842547               -0.06303273                0.10694251                0.35542652                0.18699258                0.02352620
               6.00736751                6.99875181               20.02046011                0.01000000               -0.16886384               -0.06004354                0.11239890                0.26574457                0.21039264                0.07143062
               7.00580250                6.99991540               20.02199014                0.01000000               -0.13036891               -0.08484384                0.11912933                0.15079565                0.21633486                0.13271639
               8.00476013                7.00060563               20.02352872                0.01000000               -0.07636715               -0.12502091                0.12598374                0.04610440                0.19120676                0.22138262
               9.00427516                7.00112027               20.02465162                0.01000002               -0.04051558               -0.13629328                0.13134742               -0.00541305                0.11801961                0.29479473
              10.00394982                7.00180978               20.02474519                0.01000000               -0.03253434               -0.04042286                0.13290829               -0.01726344                0.06645640                0.33910162
               0.01750610                7.99727153               20.02121115                1.00000000               -0.03196944               -0.03230148                0.10787095               -0.00003669               -0.00073173                0.02312610
               1.01718641                7.99518971               20.01982699                0.99999995               -0.03157330               -0.03162299                0.10530558                0.00001414               -0.00045604                0.00298884
               2.01687463                7.99310602               20.01845210                0.01005430               -0.11391262               -0.03080734                0.10271025                0.10259217                0.04599617               -0.01648003
               3.01490815                7.99307314               20.01800297                0.01000001               -0.17804538               -0.18176838                0.10246537                0.36573656                0.11946165               -0.08840609
               4.01331373                7.99449902               20.01837072                0.01000000               -0.20253810               -0.05690855                0.10459324                0.40304517                0.18703018               -0.02688472
               5.01085739                7.99673865               20.01948881                0.01000000               -0.25265943               -0.00059703                0.10931916                0.31776678                0.23126514                0.01750106
               6.00826054                7.99844627               20.02107213                0.01000000               -0.24964805                0.00231694                0.11615472                0.18092165                0.26269972                0.06340327
               7.00586443                7.99938660               20.02314939                0.01000000               -0.22090942               -0.01348963                0.12511311                0.03354509                0.30196551                0.12464001
               8.00384235                7.99959121               20.02579823                0.01000002               -0.16139526               -0.04886539                0.13641502               -0.11195462                0.28985178                0.22856281
               9.00263652                7.99980520               20.02784316                0.01000007               -0.08893324               -0.10011686                0.14547601               -0.21193303                0.19224086                0.50667129
              10.00206368                8.00133031               20.02864156                0.01000000               -0.05728404               -0.15598910                0.14991030               -0.15601990                0.12811649                0.49677663
               0.01958435                8.99694891               20.02168003                1.00000000               -0.03186344               -0.03223390                0.10750140               -0.00004200                0.00226443                0.01832603
               1.01926572                8.99487421               20.02020988                0.99999999               -0.03147164               -0.03147835                0.10490107                0.00002043                0.00102992                0.00170007
               2.01895492                8.99279836               20.01871610                1.00000000               -0.03069475               -0.03070785                0.10229458               -0.00002370               -0.00552605               -0.01229225
               3.01865182                8.99072048               20.01711818                0.01000001               -0.18117517               -0.13253835                0.09965190                0.36733345                0.13123159               -0.07579296
               4.01533142                8.99432706               20.01836547                0.01000000               -0.35319784                0.05075057                0.10501214                0.37689312                0.25323398               -0.02446218
               5.01158787                8.99711505               20.01966632                0.01000000               -0.34967186                0.06119021                0.11091243                0.21074823                0.25722508                0.01075904
               6.00833798                8.99879815               20.02150395                0.01000000               -0.31297030                0.05200841                0.11893642                0.09281767                0.29958163                0.03953893
               7.00532846                8.99964561               20.02406515                0.01000002               -0.31177694                0.04333531                0.12997769               -0.01155522                0.36741175                0.07879129
               8.00210244                8.99962832               20.02760902                0.01000001               -0.35155320                0.04632512                0.14507679               -0.12535795                0.55416606                0.15854812
               8.99829740                8.99911793               20.03425051                0.99999998               -0.21616241               -0.06033334                0.17250980               -0.24231966                0.34414259                0.33457428
               9.99777919                8.99868999               20.03398651                0.99999999               -0.05182041               -0.15808313                0.17310007               -0.23568067               -0.00101361                0.27930966
               0.02165464                9.99662686               20.02205102                1.00000000               -0.03172869               -0.03220500                0.10710431                0.00035730                0.01273530                0.01351284
               1.02133736                9.99456014               20.02056849                1.00000000               -0.03133762               -0.03140760                0.10450324                0.00041432                0.01603959                0.00044203
               2.02102789                9.99249187               20.01915046                1.00000000               -0.03056173               -0.03064977                0.10192312                0.00040902                0.01612652               -0.00394029
               3.02072612                9.99042238               20.01767053                0.01000000               -0.32854370               -0.02981065                0.09932226                0.35853805                0.12286662               -0.00423698
               4.01445702                9.99551403               20.01839051                0.01000002               -0.50624243                0.11869659                0.10470293                0.28956372                0.21700419               -0.01236855
               5.01060127                9.99796245               20.01970505                0.01000000               -0.34353415                0.08473953                0.11116938                0.09996096                0.24759601                0.01188033
               6.00758633                9.99948643               20.02154610                0.01000001               -0.28990638                0.06882889                0.11964818                0.03937853                0.29798457                0.02682180
               7.00480315               10.00025331               20.02422940                0.01000004               -0.28617307                0.06076996                0.13159259               -0.00096754                0.40025021                0.04730188
               8.00186287               10.00051771               20.02842046                0.01000001               -0.30373420                0.08893873                0.14971237               -0.10669571                0.52956747                0.11645641
               8.99872846                9.99859853               20.03398901                0.99999999               -0.18284666               -0.05193963                0.17381083               -0.07434657                0.29286557                0.00123915
               9.99820594                9.99816865               20.03372500                0.99999999               -0.05225226               -0.05213450                0.17440032               -0.00031358                0.00111642               -0.00111913
               0.00122558                0.00171286               21.01745885                1.00000000               -0.02564258               -0.02550774                0.08584246               -0.00033131               -0.00366703                0.00344598
               1.00096915                0.00078629               21.01742393                1.00000000               -0.02555875               -0.02531482                0.08514716               -0.00012611               -0.00408135               -0.00111242
               2.00071440               -0.00014517               21.01738275                0.01000000               -0.00552448               -0.02510746                0.08449058                0.02711678                0.04926161               -0.00169388
               3.00085866               -0.00053782               21.01841453                0.01000000                0.00518893               -0.02709481                0.08947347                0.02104034                0.11249285               -0.00196802
               4.00081818                0.00024046               21.01960711                0.01000001               -0.02723824               -0.01705198                0.09514829                0.05885864                0.13727162               -0.01107376
               5.00031390                0.00244883               21.02114071                0.01000000               -0.12539606               -0.00979425                0.10140728                0.15040926                0.17583223               -0.01910662
               5.99831026                0.00677584               21.02320420                0.26616844               -0.11648007               -0.03275925                0.10936901                0.16124209                0.10444192               -0.00099809
               6.99798429                0.00787605               21.02371641                0.99999999               -0.03326193               -0.03318663                0.11183193                0.00021247                0.01674778               -0.00437410
               7.99764502                0.00897326               21.02402109                0.99999999               -0.03431000               -0.03396831                0.11434464                0.00040647                0.00813913               -0.00048304
               8.99729809                0.01006346               21.02435800                1.00000000               -0.03508799               -0.03474182                0.11694244                0.00040249                0.00785527                0.00093150
               9.99694326                0.01114695               21.02465582                1.00000000               -0.03548346               -0.03554690                0.11954019                0.00076391                0.00586658                0.00534680
               0.00214884                1.00145779               21.01747186                1.00000000               -0.02519328               -0.02528064                0.08423450               -0.00025982                0.00098370                0.00371950
               1.00189691                1.00053314               21.01743790                0.01000000               -0.02506088               -0.02506534                0.08356020               -0.00000872                0.00270308               -0.00284307
               2.00164762                0.99960375               21.01743746                0.01000000               -0.05103322               -0.03535276                0.08293336                0.00308162                0.05602442                0.02430234
               3.00087624                0.99919123               21.01847052                0.01000001               -0.08670935               -0.02400648                0.08937705                0.04670676                0.10090446               -0.00115932
               3.99991344                1.00006995               21.01947551                0.01000000               -0.11629729               -0.01784838                0.09449558                0.12631732                0.10371230               -0.01261324
               4.99855030                1.00235089               21.02071162                0.01000000               -0.13521830               -0.02298305                0.09996526                0.24456122                0.13442126               -0.02040037
               5.99720907                1.00644825               21.02255057                0.01000001               -0.08312929               -0.11346080                0.10712245                0.22432146                0.08449884               -0.04038469
               6.99688771                1.00754418               21.02298177                1.00000000               -0.03268464               -0.03283895                0.10951847                0.00000031                0.00754029               -0.00431993
               7.99655538                1.00863357               21.02327751                0.99999999               -0.03362191               -0.03363303                0.11208716                0.00002213                0.00122477               -0.00038855
               8.99621527                1.00971604               21.02358027                0.99999999               -0.03439824               -0.03440532                0.11468788                0.00001768                0.00110284                0.00058989
               9.99586741                1.01079148               21.02387337                1.00000000               -0.03478610               -0.03521165                0.11728698                0.00034766                0.00053358                0.00662234
               0.00306968                2.00120725               21.01749166                0.01000000               -0.02466662               -0.03391287                0.08271341               -0.01542080                0.00157518                0.04587847
               1.00282301                2.00028498               21.01741767                0.01000000               -0.04758673               -0.05241936                0.08192355               -0.02319376                0.03504335                0.03816317
               2.00211794                1.99914777               21.01801151                0.01000001               -0.07482052               -0.05550254                0.08707808                0.01284978                0.06194989                0.03605413
               3.00132660                1.99898205               21.01852629                0.01000000               -0.09665406               -0.03947575                0.09044269                0.11861241                0.06526901                0.00223957
               4.00018486                1.99988350               21.01927514                0.01000000               -0.12498944               -0.03506395                0.09460330                0.22934818                0.07800792               -0.01213041
               4.99882681                2.00198917               21.02019799                0.01000001               -0.12907339               -0.05882088                0.09894828                0.31667289                0.07668721               -0.02064089
               5.99760339                2.00450663               21.02110437                0.01000000               -0.15139174               -0.14622844                0.10296749                0.34252792                0.08054350               -0.05250228
               6.99579898                2.00721927               21.02224444                0.01000000               -0.10648967               -0.09427465                0.10721437                0.21029295                0.03807422               -0.01929406
               7.99547360                2.00830060               21.02253412                0.07556031               -0.03292171               -0.03306111                0.10982057                0.00072623               -0.00578365                0.00003488
               8.99514054                2.00937536               21.02279595                0.99999999               -0.03371290               -0.03371130                0.11244550                0.00004995               -0.00417160               -0.00172978
               9.99479934                2.01044271               21.02311872                0.99999999               -0.03412006               -0.03455197                0.11504478                0.00035913               -0.00126047                0.00655429
               0.00368497                3.00077953               21.01834709                0.01000001               -0.01924559               -0.03589230                0.08853692               -0.00738100                0.00662089                0.08933421
               1.00349251                2.99948475               21.01825098                0.01000001               -0.02387089               -0.09509361                0.08900345                0.01421044                0.01541530                0.06556056
               2.00320755                2.99849370               21.01832623                0.01000000               -0.04898745               -0.08901424                0.09029884                0.09943425                0.03585692                0.02176785
               3.00251277                2.99840171               21.01863881                0.01000000               -0.08571393               -0.07616326                0.09271662                0.20696126                0.05353062                0.00266473
               4.00149327                2.99936867               21.01913396                0.01000006               -0.11260704               -0.06973565                0.09554698                0.31004981                0.06437595               -0.00636214
               5.00026062                3.00117447               21.01978471                0.01000000               -0.13318717               -0.08784202                0.09880288                0.38823633                0.06981564               -0.00719631
               5.99882953                3.00352368               21.02053762                0.01000001               -0.14805110               -0.10807310                0.10221185                0.40421578                0.06220535                0.00186454
               6.99729960                3.00565869               21.02120760                0.01000001               -0.22078568               -0.13176933                0.10518506                0.42866715                0.04524593               -0.00357159
               7.99441382                3.00797235               21.02179832                0.01000001               -0.16127236               -0.10401408                0.10565973                0.35375153                0.00044446                0.02706842
               8.99407416                3.00904182               21.02197308                0.01000004               -0.03369697               -0.12327740                0.11021488                0.27435223               -0.01101255                0.03796722
               9.99373988                3.01010044               21.02233819                0.29153230               -0.03342779               -0.25206761                0.11279514                0.31821774               -0.00168349                0.03020039
               0.00551162                4.00048941               21.01920108                0.01000000               -0.01185663               -0.04595329                0.09462510                0.04793359                0.00014013                0.09280194
               1.00539305                3.99838311               21.01886328                0.01000000               -0.01609750               -0.12964180                0.09432173                0.10813196                0.00956642                0.04749689
               2.00518967                3.99736749               21.01868691                0.01000000               -0.04010949               -0.12539106                0.09441117                0.21160142                0.03056953                0.01474291
               3.00459086                3.99745878               21.01876138                0.01000006               -0.07882845               -0.10550817                0.09529630                0.30066086                0.05328481               -0.00209901
               4.00361310                3.99848878               21.01909915                0.01000000               -0.10771693               -0.09826062                0.09717133                0.37899518                0.07137968               -0.00155085
               5.00243652                4.00023233               21.01965229                0.01000001               -0.12048025               -0.10292565                0.09988734                0.43290861                0.08125276                0.01121649
               6.00120349                4.00234517               21.02032774                0.01000001               -0.12564352               -0.12181279                0.10305077                0.46963609                0.08136249                0.03037997
               6.99992365                4.00458388               21.02102405                0.01000004               -0.10189945               -0.13575108                0.10608353                0.47679477                0.06890866                0.05626531
               7.99916550                4.00622032               21.02159631                0.01000004               -0.07120751               -0.18268687                0.10913585                0.51529177                0.05034038                0.07505097
               8.99849950                4.00690981               21.02198486                0.01000000               -0.00595244               -0.21654044                0.11168741                0.37206887                0.02285195                0.09176886
               9.99904645                4.00540136               21.02206076                0.01000001                0.05469537               -0.34048153                0.11351013                0.28162236                0.01375579                0.05747125
               0.00885624                4.99986046               21.02011303                0.01000000               -0.00791659               -0.14011178                0.10104443                0.15218755                0.00130770                0.10756953
               1.00877707                4.99689191               21.01947274                0.01000000               -0.02461663               -0.14509745                0.09973132                0.24510437                0.01218445                0.03966416
               2.00836391                4.99598588               21.01900852                0.01000001               -0.06861948               -0.12877690                0.09844054                0.31010128                0.03630816               -0.00127629
               3.00740468                4.99629155               21.01889620                0.01000000               -0.10321403               -0.12273229                0.09794950                0.37695733                0.06600864               -0.01040632
               4.00629963                4.99740345               21.01916495                0.01000001               -0.11711347               -0.10909245                0.09914677                0.42013744                0.09281685               -0.00021677
               5.00506241                4.99911596               21.01973422                0.01000001               -0.12144631               -0.11152212                0.10177895                0.44677109                0.11003663                0.02273894
               6.00387070                5.00108743               21.02050062                0.01000001               -0.10510329               -0.12683878                0.10530091                0.44651336                0.11623595                0.05526889
               7.00296035                5.00294367               21.02133178                0.01000001               -0.07384860               -0.16050066                0.10917396                0.42632949                0.11037223                0.09161981
               8.00239373                5.00431862               21.02207083                0.01000000               -0.03129315               -0.18796619                0.11283755                0.36125947                0.08972815                0.12507637
               9.00233449                5.00471101               21.02252591                0.01000000               -0.00022566               -0.19968442                0.11568599                0.24658720                0.05350538                0.13986874
              10.00238922                5.00329081               21.02250043                0.01000000                0.00547292               -0.14711628                0.11689462                0.12117954                0.03227166                0.12005802
               0.01449247                5.99768717               21.02135275                0.72629446               -0.03227439               -0.12490436                0.10863798                0.17140752               -0.00338423                0.06346907
               1.01416972                5.99548116               21.02014671                0.01000001               -0.12502045               -0.08662308                0.10658789                0.23496281                0.01057972                0.01789656
               2.01199206                5.99479195               21.01922855                0.01000000               -0.17286452               -0.15173104                0.10171554                0.36064381                0.03907017               -0.02766181
               3.01071243                5.99500413               21.01899496                0.01000001               -0.14003111               -0.11355156                0.10027530                0.39673490                0.08951154               -0.02073021
               4.00919144                5.99630694               21.01929113                0.01000001               -0.15122313               -0.10727620                0.10119169                0.42963454                0.12463135               -0.00330116
               5.00768797                5.99800189               21.01997526                0.01000001               -0.14426922               -0.10152873                0.10416318                0.42290619                0.14904771                0.02774571
               6.00630605                5.99980839               21.02095422                0.01000002               -0.12344580               -0.11104658                0.10852981                0.37962877                0.16274038                0.07035108
               7.00521905                6.00137387               21.02207712                0.01000000               -0.08413494               -0.14014152                0.11356172                0.30642196                0.16042686                0.12169153
               8.00462335                6.00246099               21.02312406                0.01000000               -0.03800010               -0.17133823                0.11842539                0.22468697                0.13577017                0.17300481
               9.00445905                6.00291612               21.02379254                0.01000001               -0.01564528               -0.16386654                0.12205008                0.12573089                0.08242581                0.21059895
              10.00431045                6.00245904               21.02374847                0.01000001               -0.01486049               -0.05756007                0.12324917                0.06109614                0.04808357                0.21078182
               0.01669641                6.99736238               21.02183372                0.99999999               -0.03248621               -0.03249097                0.10934033               -0.00012700               -0.00396881                0.02413746
               1.01637155                6.99515945               21.02050843                1.00000000               -0.03213041               -0.03207935                0.10687801               -0.00033210               -0.00613578                0.00255886
               2.01605381                6.99295126               21.01914637                0.01000000               -0.12735791               -0.10766724                0.10470034                0.25642221                0.05594645               -0.03309885
               3.01382439                6.99402052               21.01907127                0.01000001               -0.20796218               -0.11712961                0.10216012                0.38723924                0.12400761               -0.03154154
               4.01189456                6.99525793               21.01941711                0.01000004               -0.19026558               -0.10333050                0.10311208                0.41619735                0.15773600               -0.01466495
               5.01001908                6.99708539               21.02028669                0.01000001               -0.19016342               -0.06553616                0.10674422                0.38742995                0.19321952                0.02602762
               6.00809129                6.99886650               21.02158374                0.01000000               -0.17914477               -0.06240121                0.11232388                0.29067343                0.21779439                0.07543441
               7.00643619                7.00014084               21.02318127                0.01000000               -0.13730378               -0.08886142                0.11916127                0.16658885                0.22401334                0.13870800
               8.00534522                7.00089185               21.02478874                0.01000000               -0.07925645               -0.13127459                0.12610167                0.05329565                0.19798785                0.23038486
               9.00485106                7.00143368               21.02596598                0.01000002               -0.04099580               -0.14235716                0.13161298               -0.00360144                0.12221971                0.30633691
              10.00452530                7.00213961               21.02607649                0.01000000               -0.03257556               -0.03920503                0.13344239               -0.01746736                0.06889959                0.35237673
               0.01889577                7.99703735               21.02229187                1.00000000               -0.03215748               -0.03239727                0.10826462               -0.00008984               -0.00073515                0.02308208
               1.01857420                7.99483957               21.02088401                0.99999999               -0.03181685               -0.03184980                0.10609302                0.00003556               -0.00047193                0.00302167
               2.01825944                7.99263860               21.01948509                0.01000000               -0.12118269               -0.03116032                0.10388420                0.11133483                0.04709230               -0.01651162
               3.01615055                7.99266154               21.01903444                0.01000001               -0.19044611               -0.19450799                0.10374355                0.39649025                0.12166996               -0.08818329
               4.01445052                7.99424033               21.01941957                0.01000004               -0.21612718               -0.05915397                0.10472023                0.43679933                0.19208882               -0.02588115
               5.01182800                7.99669117               21.02058281                0.01000000               -0.26932239                0.00158877                0.10927323                0.34503704                0.23889639                0.01971539
               6.00906407                7.99856037               21.02223386                0.01000000               -0.26512629                0.00463620                0.11621561                0.19776423                0.27193531                0.06699086
               7.00652548                7.99959664               21.02440046                0.01000000               -0.23338210               -0.01228768                0.12514649                0.03964743                0.31284409                0.13014582
               8.00439643                7.99983550               21.02716179                0.01000002               -0.16931052               -0.04952997                0.13636290               -0.11604547                0.30032757                0.23760214
               9.00313927                8.00006898               21.02929753                0.01000007               -0.09235918               -0.10247299                0.14545052               -0.22322579                0.19925427                0.52605030
              10.00254924                8.00167494               21.03014146                0.01000000               -0.05900245               -0.16023723                0.15011738               -0.16416444                0.13303606                0.51599125
               0.02109018                8.99671443               21.02275489                1.00000000               -0.03191656               -0.03220724                0.10746890               -0.00009858                0.00227040                0.01839021
               1.02077101                8.99452246               21.02126072                0.99999999               -0.03158232               -0.03158156                0.10526762                0.00003400                0.00103724                0.00170636
               2.02045853                8.99232805               21.01974293                1.00000000               -0.03092676               -0.03093570                0.10307281               -0.00000845               -0.00553351               -0.01231149
               3.02015248                8.99013036               21.01812071                0.01000002               -0.19288027               -0.14161489                0.10085573                0.39721224                0.13501505               -0.07697322
               4.01660093                8.99407485               21.01941983                0.01000000               -0.37763473                0.05639221                0.10589847                0.40785077                0.26083194               -0.02400045
               5.01259978                8.99711716               21.02077813                0.01000000               -0.37299115                0.06773363                0.11141835                0.22822650                0.26578287                0.01213495
               6.00914110                8.99895922               21.02269481                0.01000001               -0.33228898                0.05777731                0.11925497                0.10123159                0.31027069                0.04180853
               7.00595400                8.99989508               21.02536551                0.01000002               -0.32945637                0.04839428                0.13013483               -0.01050765                0.38102992                0.08227214
               8.00255198                8.99990125               21.02905929                0.01000002               -0.37034482                0.05175677                0.14501084               -0.13132460                0.57511147                0.16472480
               8.99854711                8.99938422               21.03597227                0.99999998               -0.22609409               -0.06015088                0.17185032               -0.25518684                0.35726763                0.34713238
               9.99803009                8.99893486               21.03571731                0.99999993               -0.05170124               -0.16312447                0.17305589               -0.24849083               -0.00101419                0.29002277
               0.02327775                9.99639321               21.02311977                1.00000000               -0.03164926               -0.03212252                0.10664845                0.00023075                0.01278415                0.01356406
               1.02296126                9.99420794               21.02161322                1.00000000               -0.03131922               -0.03145172                0.10444732                0.00035883                0.01609925                0.00045010
               2.02265137                9.99201989               21.02017143                1.00000000               -0.03066334               -0.03081631                0.10227633                0.00034886                0.01618437               -0.00394721
               3.02234799                9.98982924               21.01866750                0.01000000               -0.35153197               -0.03011131                0.10007894                0.38696559                0.12687520               -0.00425059
               4.01562073                9.99536817               21.01944280                0.01000000               -0.54199150                0.12933193                0.10593800                0.31280988                0.22505481               -0.01222241
               5.01150816                9.99804584               21.02082101                0.01000000               -0.36549763                0.09286782                0.11210289                0.10822520                0.25656813                0.01273956
               6.00831078                9.99971591               21.02274554                0.01000001               -0.30674349                0.07566929                0.12027466                0.04290169                0.30930123                0.02820986
               7.00537329               10.00056453               21.02554730                0.01000000               -0.30149880                0.06694435                0.13200965               -0.00033489                0.41599554                0.04938315
               8.00228080               10.00087064               21.02991838                0.01000002               -0.31856874                0.09693845                0.14989687               -0.11204610                0.55080457                0.12096312
               8.99900192                9.99886596               21.03572733                0.99999999               -0.19013312               -0.05182598                0.17385461               -0.07742827                0.30442831                0.00122855
               9.99847814                9.99841245               21.03547235                0.99999999               -0.05237810               -0.05224155                0.17506386               -0.00054686                0.00113040               -0.00111521
               0.00122713                0.00174235               22.01831940                1.00000000               -0.02577235               -0.02557561                0.08617696               -0.00048492               -0.00372624                0.00332910
               1.00096941                0.00076891               22.01827640                1.00000000               -0.02559087               -0.02532508                0.08537982                0.00000224               -0.00391705               -0.00113075
               2.00071531               -0.00020868               22.01822783                0.01000000               -0.00494642               -0.02507190                0.08454068                0.02901000                0.05217669               -0.00151849
               3.00087048               -0.00060900               22.01930819                0.01000000                0.00540379               -0.02615367                0.08933939                0.02323176                0.11751681               -0.00119343
               4.00082339                0.00026535               22.02055667                0.01000001               -0.03023404               -0.01503689                0.09484409                0.06525991                0.14215105               -0.01089488
               5.00026580                0.00269249               22.02215174                0.01000000               -0.13847737               -0.00672316                0.10084173                0.16646849                0.18106131               -0.01938548
               5.99805384                0.00743068               22.02429330                0.25420631               -0.12677100               -0.03250713                0.10843112                0.17949808                0.10687005               -0.00100825
               6.99773038                0.00857819               22.02483122                0.99999999               -0.03305654               -0.03299232                0.11111402                0.00026058                0.01661779               -0.00443604
               7.99739271                0.00972328               22.02516271                0.99999999               -0.03419875               -0.03388067                0.11396906                0.00045600                0.00811155               -0.00048780
               8.99704640                0.01086181               22.02552722                1.00000000               -0.03507445               -0.03475404                0.11689932                0.00045226                0.00787157                0.00093506
               9.99669122                0.01199419               22.02585264                1.00000000               -0.03551812               -0.03566306                0.11982967                0.00078903                0.00588206                0.00535829
               0.00219572                1.00148659               22.01831442                1.00000000               -0.02507798               -0.02528456                0.08436029               -0.00027631                0.00104513                0.00387313
               1.00194495                1.00051566               22.01827310                0.01010693               -0.02506777               -0.02506982                0.08347637                0.00009434                0.00244606               -0.00303972
               2.00169437                0.99954060               22.01826602                0.01000000               -0.05395804               -0.03593518                0.08275612                0.00426201                0.05961984                0.02730687
               3.00086578                0.99912946               22.01936290                0.01000001               -0.09345634               -0.02324958                0.08920750                0.05252068                0.10654927                0.00053194
               3.99982524                1.00011498               22.02041878                0.01000000               -0.12589844               -0.01633399                0.09424524                0.13984860                0.10790080               -0.01178395
               4.99834782                1.00262526               22.02170889                0.01000000               -0.14596340               -0.02195654                0.09954044                0.26981335                0.13865030               -0.02017047
               5.99690597                1.00710561               22.02361802                0.01000001               -0.08805639               -0.12167768                0.10635144                0.24723937                0.08649592               -0.04125869
               6.99658669                1.00824826               22.02407432                1.00000000               -0.03252566               -0.03267127                0.10897615                0.00001930                0.00740395               -0.00436713
               7.99625546                1.00938447               22.02439739                0.99999999               -0.03356089               -0.03357068                0.11188079                0.00001977                0.00122239               -0.00039198
               8.99591547                1.01051427               22.02472778                0.99999999               -0.03443659               -0.03444284                0.11481384                0.00001590                0.00111755                0.00060015
               9.99556673                1.01163756               22.02504850                1.00000000               -0.03487401               -0.03535283                0.11774540                0.00032105                0.00054563                0.00663510
               0.00316348                2.00123666               22.01831805                0.01000001               -0.02461930               -0.03308843                0.08254604               -0.01428806                0.00167896                0.04994346
               1.00291729                2.00026751               22.01823473                0.01000000               -0.04883646               -0.05456828                0.08146876               -0.02255272                0.03833473                0.04248789
               2.00218675                1.99907262               22.01888085                0.01000001               -0.07853849               -0.05804495                0.08672472                0.01680449                0.06642867                0.04114713
               3.00134652                1.99892601               22.01942986                0.01000000               -0.10310934               -0.04068858                0.09043769                0.13216126                0.06868595                0.00521125
               4.00012456                1.99993867               22.02022013                0.01000000               -0.13375428               -0.03586464                0.09448651                0.25315138                0.08122413               -0.01039176
               4.99867143                2.00225336               22.02118602                0.01000001               -0.13744698               -0.06221071                0.09874155                0.34812222                0.07918827               -0.01972979
               5.99737562                2.00499713               22.02213256                0.01000000               -0.16097627               -0.15837224                0.10271875                0.37491648                0.08251004               -0.05305478
               6.99545191                2.00792476               22.02331482                0.01000000               -0.11242602               -0.10030283                0.10684642                0.22905414                0.03881345               -0.01910048
               7.99512710                2.00905186               22.02363218                0.07766094               -0.03291369               -0.03306890                0.10978467                0.00078533               -0.00575468               -0.00074515
               8.99479363                2.01017295               22.02392187                0.99999998               -0.03380232               -0.03379686                0.11273948                0.00005137               -0.00414428               -0.00170816
               9.99445106                2.01128713               22.02427226                0.99999999               -0.03425748               -0.03474417                0.11567092                0.00033415               -0.00124823                0.00656391
               0.00384826                3.00082482               22.01923176                0.01000001               -0.01903267               -0.03477157                0.08841698               -0.00564275                0.00728287                0.09675679
               1.00365793                2.99942429               22.01914059                0.01000001               -0.02381470               -0.10075113                0.08898713                0.01921010                0.01641391                0.07342745
               2.00337196                2.99837970               22.01922898                0.01000000               -0.05074863               -0.09475366                0.09040507                0.11258320                0.03766865                0.02675631
               3.00264296                2.99831569               22.01956575                0.01000000               -0.09055242               -0.08071504                0.09277879                0.22945608                0.05574488                0.00610163
               4.00156092                2.99939768               22.02008901                0.01000001               -0.11955814               -0.07392301                0.09558978                0.34107315                0.06664212               -0.00411894
               5.00025180                3.00138104               22.02077222                0.01000000               -0.14140074               -0.09400813                0.09881176                0.42509374                0.07198557               -0.00558080
               5.99873290                3.00393817               22.02155929                0.01000001               -0.15693803               -0.11622332                0.10222855                0.44067206                0.06385995                0.00342287
               6.99711304                3.00624221               22.02226034                0.01000001               -0.23549612               -0.14166215                0.10532622                0.46532325                0.04522154               -0.00224883
               7.99402298                3.00872309               22.02285902                0.01000001               -0.17159048               -0.11047901                0.10713653                0.38258215                0.00026053                0.02901633
               8.99368123                3.00983833               22.02307752                0.01000000               -0.03389668               -0.13069481                0.11067589                0.29576839               -0.01019434                0.03986595
               9.99334505                3.01094268               22.02347006                0.30954051               -0.03361809               -0.26934870                0.11358971                0.34303017               -0.00168448                0.03166991
               0.00585169                4.00054123               22.02014812                0.01000000               -0.01050820               -0.04788363                0.09479007                0.05440721               -0.00006831                0.10069076
               1.00574661                3.99825249               22.01980784                0.01000000               -0.01523382               -0.13867159                0.09463370                0.12168696                0.00950898                0.05421108
               2.00554702                3.99717754               22.01963214                0.01000000               -0.04144775               -0.13376053                0.09469977                0.23529859                0.03099553                0.01974503
               3.00491766                3.99731170               22.01971473                0.01000003               -0.08331729               -0.11223917                0.09549632                0.33145815                0.05448439                0.00102678
               4.00388067                3.99846021               22.02007079                0.01000000               -0.11424162               -0.10464643                0.09728485                0.41560770                0.07337715                0.00060676
               5.00263282                4.00037320               22.02065103                0.01000001               -0.12763844               -0.10991812                0.10000229                0.47288506                0.08371480                0.01328010
               6.00132790                4.00267266               22.02135858                0.01000001               -0.13296891               -0.13042705                0.10323948                0.51102353                0.08373937                0.03288975
               6.99997345                4.00509152               22.02208626                0.01000001               -0.10726391               -0.14523050                0.10649654                0.51675253                0.07091067                0.05960578
               7.99918262                4.00684228               22.02269036                0.01000001               -0.07420149               -0.19563288                0.10965263                0.55686377                0.05191720                0.08005159
               8.99848942                4.00755905               22.02310527                0.01000000               -0.00398285               -0.23140799                0.11247640                0.40152086                0.02369557                0.09606367
               9.99910297                4.00590016               22.02320036                0.01000000                0.06135513               -0.36466717                0.11449115                0.30371069                0.01448867                0.06050940
               0.00951388                4.99986715               22.02112661                0.01000000               -0.00585261               -0.15377245                0.10165291                0.16954039                0.00074323                0.11633296
               1.00945535                4.99665086               22.02047367                0.01000000               -0.02475803               -0.15530660                0.10046024                0.27194246                0.01149969                0.04704079
               2.00901872                4.99570449               22.01999552                0.01000001               -0.07329474               -0.13644375                0.09898856                0.34196311                0.03578603                0.00292283
               3.00798946                4.99607091               22.01987652                0.01000000               -0.11035710               -0.13025635                0.09811726                0.41328748                0.06666593               -0.00818000
               4.00681158                4.99730476               22.02015594                0.01000001               -0.12462094               -0.11575872                0.09917376                0.45929037                0.09516833                0.00129818
               5.00549704                4.99918268               22.02075170                0.01000001               -0.12882643               -0.11857268                0.10184455                0.48726705                0.11356387                0.02471176
               6.00423505                5.00132963               22.02155397                0.01000004               -0.11092873               -0.13508145                0.10552177                0.48570078                0.12011139                0.05836159
               7.00327847                5.00333760               22.02242468                0.01000005               -0.07711654               -0.17118472                0.10953811                0.46242013                0.11401078                0.09607218
               8.00269272                5.00481043               22.02320124                0.01000000               -0.03123497               -0.20042355                0.11337841                0.39075244                0.09269337                0.13056675
               9.00265377                5.00521017               22.02368601                0.01000000                0.00221644               -0.21280420                0.11644465                0.26612569                0.05531277                0.14577708
              10.00273705                5.00364933               22.02367406                0.01000000                0.00832807               -0.15609067                0.11796117                0.13065720                0.03338861                0.12516615
               0.01567509                5.99746578               22.02244510                0.69848309               -0.03269667               -0.13642937                0.10977279                0.19199547               -0.00335305                0.06872856
               1.01534812                5.99514636               22.02122058                0.01000001               -0.13544274               -0.09151520                0.10812773                0.25960465                0.00893293                0.02261219
               2.01296623                5.99444867               22.02024980                0.01000000               -0.18824897               -0.16042504                0.10249462                0.39420512                0.03673973               -0.02389510
               3.01158314                5.99470658               22.01999717                0.01000001               -0.15057654               -0.11926810                0.10031064                0.43231983                0.09018022               -0.01979234
               4.00995470                5.99614503               22.02030156                0.01000001               -0.16149233               -0.11306324                0.10078549                0.46794484                0.12821664               -0.00285122
               5.00835330                5.99800174               22.02101587                0.01000004               -0.15338497               -0.10713398                0.10408658                0.46032511                0.15430505                0.02941763
               6.00688700                5.99997103               22.02203945                0.01000000               -0.13061278               -0.11743873                0.10865249                0.41299233                0.16849735                0.07373869
               7.00574104                6.00166782               22.02321355                0.01000000               -0.08809513               -0.14856873                0.11387802                0.33310411                0.16592437                0.12686521
               8.00512510                6.00283381               22.02431001                0.01000000               -0.03840040               -0.18174161                0.11890287                0.24387988                0.14032112                0.17980548
               9.00497303                6.00330297               22.02501581                0.01000001               -0.01436575               -0.17340764                0.12273475                0.13612837                0.08518237                0.21853647
              10.00483779                6.00277835               22.02498513                0.01000001               -0.01352466               -0.05925052                0.12423080                0.06602482                0.04974287                0.21874631
               0.01799263                6.99713856               22.02293152                0.99999999               -0.03280768               -0.03268885                0.11018287               -0.00019960               -0.00433268                0.02482899
               1.01766456                6.99482055               22.02158339                1.00000000               -0.03250162               -0.03242555                0.10808338               -0.00034758               -0.00634013                0.00314609
               2.01734260                6.99249599               22.02020128                0.01000000               -0.13625318               -0.11347209                0.10625890                0.27823998                0.05517984               -0.03091949
               3.01493949                6.99368554               22.02009176                0.01000001               -0.22336458               -0.12232720                0.10063933                0.41857123                0.12547720               -0.03211413
               4.01287531                6.99504349               22.02044554                0.01000021               -0.20309762               -0.10831754                0.10258245                0.45034473                0.16322837               -0.01496248
               5.01087754                6.99704000               22.02135252                0.01000005               -0.20232475               -0.06801138                0.10634489                0.42025464                0.20045583                0.02767284
               6.00882882                6.99898085               22.02270659                0.01000000               -0.18998854               -0.06480103                0.11239045                0.31604030                0.22559938                0.07905956
               7.00707777                7.00036622               22.02437337                0.01000000               -0.14468221               -0.09312697                0.11939803                0.18235499                0.23170812                0.14433091
               8.00593517                7.00117560               22.02605075                0.01000000               -0.08229850               -0.13805533                0.12644609                0.06012618                0.20461606                0.23887178
               9.00543180                7.00174202               22.02728388                0.01000002               -0.04141897               -0.14915257                0.13209707               -0.00211882                0.12631091                0.31721996
              10.00510679                7.00246432               22.02741403                0.01000005               -0.03250090               -0.03845129                0.13420217               -0.01783156                0.07129991                0.36496403
               0.02030712                7.99681200               22.02337644                1.00000000               -0.03233725               -0.03248785                0.10863368               -0.00014198               -0.00074385                0.02301090
               1.01998374                7.99449785               22.02194885                0.99999999               -0.03205358               -0.03207152                0.10686102                0.00005463               -0.00049023                0.00304957
               2.01966604                7.99217923               22.02052979                0.01000000               -0.12883386               -0.03151002                0.10504489                0.12019221                0.04800357               -0.01650951
               3.01740707                7.99226003               22.02007784                0.01000001               -0.20294532               -0.20687903                0.10406696                0.42675948                0.12556577               -0.09032156
               4.01560714                7.99397868               22.02046513                0.01000002               -0.22930190               -0.06098336                0.10327576                0.46984043                0.19855016               -0.02570850
               5.01282103                7.99664152               22.02167428                0.01000000               -0.28627748                0.00397726                0.10920478                0.37236656                0.24730936                0.02181289
               6.00988159                7.99867501               22.02339644                0.01000000               -0.28138200                0.00708938                0.11634458                0.21454858                0.28143832                0.07042803
               7.00719339                7.99980528               22.02565232                0.01000000               -0.24648798               -0.01110031                0.12536208                0.04522527                0.32350221                0.13538400
               8.00495183                8.00007271               22.02852549                0.01000002               -0.17757263               -0.05046878                0.13649718               -0.12113154                0.31041951                0.24608373
               9.00364194                8.00031992               22.03075217                0.01000007               -0.09576430               -0.10556210                0.14558764               -0.23552292                0.20601744                0.54435417
              10.00303654                8.00200932               22.03164391                0.01000000               -0.06053926               -0.16523789                0.15046692               -0.17295767                0.13784525                0.53435344
               0.02261811                8.99648881               22.02382941                1.00000000               -0.03196822               -0.03218061                0.10743032               -0.00015326                0.00227957                0.01846902
               1.02229842                8.99417912               22.02231523                0.99999999               -0.03169242               -0.03168541                0.10563285                0.00004588                0.00105458                0.00172885
               2.02198426                8.99186579               22.02077756                1.00000000               -0.03115974               -0.03116514                0.10385359                0.00000492               -0.00551789               -0.01230016
               3.02167523                8.98954796               22.01913530                0.01000001               -0.20468103               -0.15081181                0.10206530                0.42716104                0.13847418               -0.07792195
               4.01789064                8.99382382               22.02048344                0.01000000               -0.40233446                0.06224735                0.10687804                0.43845228                0.26789122               -0.02373329
               5.01362854                8.99711955               22.02189469                0.01000000               -0.39673101                0.07449829                0.11191412                0.24538429                0.27402571                0.01370962
               6.00995602                8.99912264               22.02388905                0.01000001               -0.35219782                0.06370790                0.11964372                0.10945764                0.32070500                0.04407318
               7.00658458                9.00014422               22.02666785                0.01000002               -0.34790553                0.05360541                0.13041368               -0.00997916                0.39418696                0.08562995
               8.00299791                9.00016623               22.03050924                0.01000002               -0.38999283                0.05730392                0.14508751               -0.13831701                0.59520187                0.17050804
               8.99878473                8.99963078               22.03768752                0.99999998               -0.23645363               -0.06034690                0.17117233               -0.26927676                0.36975804                0.35890579
               9.99826883                8.99915956               22.03744763                1.00000000               -0.05158934               -0.16865268                0.17301434               -0.26202228               -0.00102753                0.30023889
               0.02492342                9.99616839               22.02418398                1.00000000               -0.03157392               -0.03204191                0.10620368                0.00010597                0.01284180                0.01362880
               1.02460768                9.99386414               22.02265744                1.00000000               -0.03130565               -0.03149875                0.10440767                0.00030222                0.01616789                0.00047089
               2.02429730                9.99155592               22.02119599                1.00000000               -0.03077125               -0.03098664                0.10265027                0.00028772                0.01624769               -0.00394061
               3.02399225                9.98924380               22.01967211                0.01000000               -0.37463528               -0.03041653                0.10086120                0.41508762                0.13100404               -0.00426397
               4.01680460                9.99522363               22.02050927                0.01000000               -0.57811772                0.13998040                0.10741514                0.33578040                0.23298108               -0.01229303
               5.01242990                9.99813148               22.02194711                0.01000000               -0.38792635                0.10119339                0.11311886                0.11641308                0.26478585                0.01358788
               6.00904607                9.99994917               22.02395159                0.01000001               -0.32398412                0.08265326                0.12093572                0.04630115                0.32006872                0.02965814
               7.00595022               10.00087739               22.02686960                0.01000001               -0.31735714                0.07331771                0.13247979                0.00004394                0.43125248                0.05142840
               8.00269893               10.00121878               22.03141840                0.01000002               -0.33435770                0.10525571                0.15010980               -0.11811829                0.57146528                0.12520874
               8.99926306                9.99911298               22.03746610                0.99999996               -0.19802059               -0.05177944                0.17389652               -0.08129228                0.31564857                0.00129277
               9.99873852                9.99863627               22.03722628                0.99999998               -0.05245449               -0.05232975                0.17573925               -0.00070293                0.00106296               -0.00114061
               0.00123704                0.00178941               23.01918239                1.00000000               -0.02546605               -0.02528117                0.08618036               -0.00037863               -0.00350736                0.00365535
               1.00098238                0.00077028               23.01913153                1.00000000               -0.02554442               -0.02562614                0.08555755               -0.00088227               -0.00384224               -0.00117667
               2.00072615               -0.00025193               23.01907356                0.01000000               -0.00511123               -0.02512073                0.08478205                0.03033686                0.05501233               -0.00163321
               3.00088015               -0.00067112               23.02020132                0.01000000                0.00457499               -0.02486907                0.08943556                0.02494593                0.12233299               -0.00042538
               4.00081765                0.00029835               23.02150399                0.01000001               -0.03408296               -0.01275502                0.09473429                0.07167756                0.14653509               -0.01062940
               5.00019850                0.00294682               23.02315754                0.01000000               -0.15247406               -0.00336160                0.10037000                0.18295020                0.18556881               -0.01957142
               5.99776817                0.00810623               23.02537282                0.24292523               -0.13756322               -0.03224141                0.10744521                0.19825409                0.10885364               -0.00102297
               6.99744723                0.00930113               23.02593869                1.00000000               -0.03284588               -0.03278837                0.11036280                0.00031426                0.01643202               -0.00449064
               7.99711125                0.01049414               23.02630047                0.99999999               -0.03408159               -0.03378779                0.11357429                0.00050780                0.00808682               -0.00049203
               8.99676560                0.01168105               23.02669599                1.00000000               -0.03505944               -0.03476539                0.11685177                0.00050431                0.00788563                0.00093822
               9.99641006                0.01286239               23.02705241                1.00000000               -0.03555356               -0.03578293                0.12012947                0.00081600                0.00589549                0.00536831
               0.00225238                1.00153660               23.01915907                1.00000000               -0.02581548               -0.02503150                0.08432512               -0.00061446                0.00121271                0.00407806
               1.00199423                1.00051402               23.01910743                0.01000000               -0.02510805               -0.02515209                0.08345674                0.00023951                0.00308659               -0.00301163
               2.00175022                0.99949686               23.01909258                0.01000000               -0.05698766               -0.03701604                0.08284311                0.00457010                0.06371133                0.02996465
               3.00085447                0.99908019               23.02025467                0.01000001               -0.10123794               -0.02227305                0.08930904                0.05774125                0.11211780                0.00243994
               3.99972546                1.00017080               23.02136041                0.01000000               -0.13652065               -0.01464633                0.09418932                0.15342709                0.11169446               -0.01080802
               4.99812406                1.00291320               23.02270243                0.01000000               -0.15759534               -0.02077839                0.09923221                0.29563339                0.14226504               -0.01977916
               5.99657355                1.00778382               23.02467759                0.01000001               -0.09338211               -0.13009858                0.10553505                0.27083343                0.08806125               -0.04192328
               6.99625642                1.00897324               23.02516129                1.00000000               -0.03235919               -0.03249427                0.10840310                0.00004186                0.00721325               -0.00440887
               7.99592637                1.01015626               23.02551513                1.00000000               -0.03349499               -0.03350350                0.11165823                0.00001753                0.00122018               -0.00039486
               8.99558652                1.01133339               23.02587654                0.99999999               -0.03447447               -0.03447993                0.11493833                0.00001414                0.00113052                0.00060948
               9.99523688                1.01250456               23.02622828                1.00000000               -0.03496366               -0.03549814                0.11821712                0.00029398                0.00055628                0.00664622
               0.00326991                2.00128878               23.01914258                0.01000001               -0.02430009               -0.03260024                0.08229120               -0.01412520                0.00172681                0.05398221
               1.00302690                2.00026724               23.01904704                0.01000000               -0.05092613               -0.05669205                0.08123391               -0.02258438                0.04149994                0.04736383
               2.00225138                1.99900775               23.01974601                0.01000001               -0.08329319               -0.06096639                0.08708511                0.02008668                0.07089135                0.04643018
               3.00136104                1.99888342               23.02033505                0.01000000               -0.10990977               -0.04206569                0.09060232                0.14554189                0.07206070                0.00843679
               4.00005319                2.00000543               23.02116487                0.01000000               -0.14314443               -0.03675882                0.09460925                0.27710039                0.08405198               -0.00843654
               4.99849815                2.00253125               23.02217282                0.01000001               -0.14641970               -0.06576774                0.09871591                0.38024111                0.08131061               -0.01860342
               5.99712479                2.00550426               23.02315875                0.01000000               -0.17112659               -0.17088476                0.10258736                0.40825237                0.08401891               -0.05327857
               6.99507562                2.00865124               23.02438137                0.01000000               -0.11866699               -0.10654863                0.10645041                0.24838543                0.03928988               -0.01874733
               7.99475145                2.00982407               23.02472982                0.08006052               -0.03290178               -0.03308821                0.10973554                0.00078423               -0.00572865               -0.00052247
               8.99441758                2.01099145               23.02505074                0.99999998               -0.03389222               -0.03388278                0.11303504                0.00005287               -0.00412001               -0.00168829
               9.99407361                2.01215243               23.02543214                0.99999999               -0.03439755               -0.03494142                0.11631333                0.00030874               -0.00123756                0.00657209
               0.00401296                3.00088459               23.02011542                0.01000001               -0.01893871               -0.03402056                0.08834151               -0.00439639                0.00789383                0.10451986
               1.00382357                2.99938018               23.02003072                0.01000001               -0.02385913               -0.10664943                0.08914574                0.02326240                0.01742712                0.08193349
               2.00353577                2.99827754               23.02013433                0.01000000               -0.05279669               -0.10059537                0.09066829                0.12550058                0.03935777                0.03224067
               3.00276763                2.99823888               23.02049439                0.01000000               -0.09580641               -0.08574391                0.09314009                0.25194745                0.05763482                0.00967811
               4.00161964                2.99943563               23.02104576                0.01000001               -0.12687914               -0.07857199                0.09592044                0.37250572                0.06860031               -0.00173194
               5.00023005                3.00159784               23.02176094                0.01000000               -0.15005191               -0.10063969                0.09908951                0.46276861                0.07382347               -0.00383716
               5.99861861                3.00436612               23.02258219                0.01000001               -0.16628695               -0.12479850                0.10246804                0.47813422                0.06517956                0.00511998
               6.99690431                3.00684227               23.02331413                0.01000001               -0.25083790               -0.15197933                0.10561998                0.50314193                0.04568813               -0.00060687
               7.99360185                3.00949450               23.02394105                0.01000001               -0.18225468               -0.11724734                0.10852915                0.41234252               -0.00018037                0.03112467
               8.99325922                3.01065574               23.02418660                0.01000000               -0.03403743               -0.13844310                0.11114161                0.31785318               -0.01038232                0.04188219
               9.99292110                3.01180573               23.02460998                0.32817533               -0.03381195               -0.28724345                0.11440348                0.36862133               -0.00168601                0.03318299
               0.00619080                4.00060837               23.02109688                0.01000000               -0.00915944               -0.04972253                0.09497816                0.06078981               -0.00038922                0.10908867
               1.00609921                3.99813425               23.02075596                0.01000000               -0.01440540               -0.14800917                0.09504905                0.13510292                0.00922668                0.06144535
               2.00590270                3.99699584               23.02058091                0.01000000               -0.04286555               -0.14254281                0.09520113                0.25876487                0.03106767                0.02499181
               3.00524190                3.99716854               23.02067131                0.01000001               -0.08791797               -0.11966858                0.09600284                0.36240473                0.05532472                0.00410839
               4.00414434                3.99843399               23.02104484                0.01000000               -0.12094337               -0.11184891                0.09777080                0.45290386                0.07505027                0.00260809
               5.00282303                4.00051845               23.02165233                0.01000001               -0.13506434               -0.11762462                0.10047833                0.51399573                0.08594417                0.01520265
               6.00144305                4.00300829               23.02239253                0.01000001               -0.14064759               -0.13961661                0.10374293                0.55372695                0.08594509                0.03537308
               7.00001008                4.00561166               23.02315398                0.01000003               -0.11291064               -0.15522255                0.10714704                0.55799098                0.07265978                0.06299785
               7.99918484                4.00747913               23.02378936                0.01000001               -0.07733325               -0.20920964                0.11034048                0.59976748                0.05329759                0.08432905
               8.99846341                4.00822259               23.02423439                0.01000000               -0.00193951               -0.24698632                0.11340381                0.43185688                0.02448111                0.10041551
               9.99914605                4.00640756               23.02435059                0.01000000                0.06826324               -0.38981862                0.11565148                0.32648732                0.01506249                0.06357848
               0.01017698                4.99989014               23.02214609                0.01000000               -0.00388318               -0.16757702                0.10221679                0.18716785               -0.00001500                0.12581386
               1.01013815                4.99642000               23.02148195                0.01000000               -0.02501027               -0.16552856                0.10121140                0.29905064                0.01039362                0.05518175
               2.00967678                4.99542668               23.02098829                0.01000001               -0.07802837               -0.14437782                0.09966817                0.37365383                0.03458949                0.00725503
               3.00857758                4.99584551               23.02085854                0.01000000               -0.11744829               -0.13877478                0.09860607                0.44971723                0.06673835               -0.00650036
               4.00732781                4.99719865               23.02114843                0.01000001               -0.13209594               -0.12368388                0.09959243                0.49962851                0.09740253                0.00184976
               5.00593567                4.99924535               23.02177111                0.01000001               -0.13639352               -0.12645169                0.10235182                0.52941440                0.11707305                0.02614246
               6.00459994                5.00157379               23.02261105                0.01000000               -0.11711855               -0.14388708                0.10614633                0.52638699                0.12397682                0.06115171
               7.00359330                5.00373782               23.02352255                0.01000001               -0.08068381               -0.18245829                0.11023453                0.49967118                0.11749914                0.10033267
               8.00298627                5.00531031               23.02433840                0.01000000               -0.03126862               -0.21357700                0.11419760                0.42104359                0.09548068                0.13595637
               9.00296792                5.00571601               23.02485480                0.01000000                0.00473184               -0.22668044                0.11744298                0.28616065                0.05700836                0.15148981
              10.00308090                5.00400936               23.02485966                0.01000000                0.01129803               -0.16567871                0.11930548                0.14036539                0.03446073                0.13013090
               0.01687445                5.99725683               23.02354820                0.66996661               -0.03307677               -0.14812653                0.11077121                0.21313740               -0.00332260                0.07447332
               1.01654369                5.99482368               23.02230926                0.01000001               -0.14620954               -0.09629463                0.10953818                0.28441475                0.00672319                0.02792905
               2.01395026                5.99410829               23.02127844                0.01000000               -0.20397057               -0.16869005                0.10329669                0.42708118                0.03317745               -0.01996452
               3.01246427                5.99439305               23.02100118                0.01000001               -0.16066001               -0.12739707                0.10023484                0.46820582                0.09033643               -0.02172449
               4.01073706                5.99596031               23.02130684                0.01000001               -0.17140469               -0.12017697                0.10078072                0.50834622                0.13189625               -0.00428572
               5.00903618                5.99798942               23.02205699                0.01000008               -0.16293711               -0.11324565                0.10447501                0.50008632                0.16051242                0.02978254
               6.00747832                6.00013055               23.02312727                0.01000079               -0.13845983               -0.12415478                0.10922599                0.44777816                0.17450303                0.07673725
               7.00626698                6.00196249               23.02435468                0.01000000               -0.09254016               -0.15745672                0.11458334                0.36049632                0.17136181                0.13179059
               8.00562752                6.00320759               23.02550212                0.01000000               -0.03897052               -0.19282527                0.11969933                0.26336237                0.14468727                0.18633684
               9.00548757                6.00368898               23.02624724                0.01000001               -0.01304297               -0.18371470                0.12370430                0.14662368                0.08780394                0.22613111
              10.00536666                6.00309399               23.02623309                0.01000001               -0.01209158               -0.06146250                0.12553700                0.07100545                0.05132924                0.22632785
               0.01930603                6.99692761               23.02403738                0.99999999               -0.03310373               -0.03285746                0.11093714               -0.00026888               -0.00473605                0.02555148
               1.01897499                6.99449411               23.02267010                1.00000000               -0.03284956               -0.03274793                0.10921321               -0.00036827               -0.00657950                0.00376344
               2.01864904                6.99205288               23.02127155                0.01000000               -0.14426554               -0.11880741                0.10775598                0.29718592                0.05202492               -0.02813498
               3.01608968                6.99329757               23.02108406                0.01000001               -0.23753342               -0.12907395                0.10004941                0.45022370                0.12477711               -0.03750504
               4.01389837                6.99479511               23.02146876                0.01000098               -0.21612611               -0.11360249                0.10194000                0.48854442                0.17342100               -0.02044475
               5.01176716                6.99698044               23.02241359                0.01000008               -0.21579661               -0.07020817                0.10641073                0.45511382                0.20902208                0.02871574
               6.00958243                6.99909069               23.02383155                0.01000000               -0.20204867               -0.06720406                0.11286858                0.34223584                0.23402869                0.08230645
               7.00772618                7.00058869               23.02556923                0.01000000               -0.15277047               -0.09763253                0.12003940                0.19812996                0.23932825                0.14971225
               8.00652703                7.00145380               23.02731766                0.01000001               -0.08560932               -0.14544473                0.12712733                0.06652416                0.21100562                0.24694762
               9.00601400                7.00204172               23.02860793                0.01000002               -0.04180125               -0.15682786                0.13287576               -0.00100335                0.13022251                0.32753245
              10.00569100                7.00278011               23.02876054                0.01000001               -0.03229963               -0.03827889                0.13527498               -0.01836041                0.07360526                0.37688218
               0.02173609                7.99659968               23.02446454                1.00000000               -0.03250383               -0.03256704                0.10895806               -0.00019023               -0.00075748                0.02291674
               1.02141105                7.99416872               23.02302123                1.00000000               -0.03227862               -0.03228307                0.10759233                0.00007144               -0.00051159                0.00307379
               2.02109052                7.99173214               23.02158599                0.01039726               -0.13422681               -0.03185178                0.10617766                0.12609573                0.04786732               -0.01647753
               3.01872652                7.99181157               23.02111578                0.01000001               -0.21327209               -0.21599595                0.10043240                0.45412610                0.14800163               -0.11428257
               4.01682508                7.99368826               23.02148509                0.01000000               -0.24418216               -0.06195324                0.10286534                0.50373402                0.20876784               -0.02429839
               5.01384287                7.99658526               23.02276690                0.01000000               -0.30551444                0.00690419                0.10923825                0.40028674                0.25787048                0.02348500
               6.01071479                7.99878647               23.02456076                0.01000000               -0.29882003                0.00974224                0.11681294                0.23120951                0.29121563                0.07385015
               7.00786647                8.00000984               23.02690770                0.01000001               -0.26049105               -0.00991391                0.12592525                0.05017978                0.33396020                0.14042762
               8.00550497                8.00029869               23.02989173                0.01000002               -0.18626385               -0.05176495                0.13693768               -0.12740501                0.32008934                0.25410843
               9.00414120                8.00055242               23.03220928                0.01000007               -0.09911519               -0.10966581                0.14599557               -0.24902032                0.21250190                0.56156246
              10.00352266                8.00232841               23.03315080                0.01000000               -0.06185324               -0.17114200                0.15105862               -0.18248537                0.14256542                0.55177616
               0.02416413                8.99627627               23.02490350                1.00000000               -0.03201760               -0.03215217                0.10738121               -0.00020340                0.00229145                0.01855978
               1.02384396                8.99384844               23.02337338                0.99999999               -0.03180158               -0.03178916                0.10599530                0.00005644                0.00108091                0.00176540
               2.02352810                8.99141584               23.02182001                1.00000000               -0.03139398               -0.03139652                0.10463837                0.00001673               -0.00548137               -0.01226117
               3.02321608                8.98897765               23.02016202                0.01000000               -0.21643711               -0.15706109                0.10328458                0.45342395                0.14165496               -0.07778113
               4.01919936                8.99355605               23.02155739                0.01000000               -0.42706966                0.06911940                0.10794976                0.46605741                0.27379408               -0.02295735
               5.01467469                8.99711852               23.02301641                0.01000000               -0.42086599                0.08137521                0.11250398                0.26240873                0.28210534                0.01539398
               6.01078204                8.99928554               23.02508769                0.01000001               -0.37285664                0.06987631                0.12019475                0.11733787                0.33095576                0.04643722
               7.00721755                9.00039041               23.02797378                0.01000002               -0.36728491                0.05898830                0.13091547               -0.01009878                0.40694627                0.08892243
               8.00343634                9.00041850               23.03196104                0.01000002               -0.41068399                0.06288973                0.14540145               -0.14666870                0.61433952                0.17586174
               8.99900387                8.99984840               23.03939572                0.99999998               -0.24735104               -0.06088831                0.17069731               -0.28477087                0.38192043                0.36956652
               9.99848932                8.99935727               23.03917759                0.99999999               -0.05145512               -0.17480332                0.17300300               -0.27629439               -0.00068115                0.31018114
               0.02658768                9.99595664               23.02524384                1.00000000               -0.03150706               -0.03196359                0.10578241               -0.00001494                0.01290728                0.01370565
               1.02627261                9.99353294               23.02370138                1.00000000               -0.03130153               -0.03155037                0.10439907                0.00024385                0.01624438                0.00050306
               2.02596165                9.99110421               23.02222444                1.00000000               -0.03089077               -0.03116354                0.10306208                0.00022519                0.01631578               -0.00392182
               3.02565480                9.98867035               23.02068472                0.01000000               -0.39781501               -0.03072991                0.10168875                0.44219365                0.13529262               -0.00427715
               4.01800535                9.99507065               23.02159111                0.01000001               -0.61466192                0.15146030                0.10881778                0.35771960                0.24085431               -0.01297158
               5.01336156                9.99821276               23.02308339                0.01000000               -0.41078449                0.10942377                0.11394651                0.12435429                0.27199997                0.01432272
               6.00978966               10.00018399               23.02516426                0.01000001               -0.34150120                0.08984543                0.12155188                0.04960425                0.33032003                0.03125506
               7.00653153               10.00118961               23.02819689                0.01000001               -0.33380301                0.07991973                0.13301462                0.00002270                0.44606814                0.05346419
               8.00311360               10.00155649               23.03292058                0.01000002               -0.35122611                0.11379827                0.15040418               -0.12502172                0.59156850                0.12912315
               8.99950701                9.99933466               23.03920526                0.99999997               -0.20672807               -0.05137464                0.17391047               -0.08589344                0.32590508                0.00076486
               9.99897904                9.99883234               23.03898713                0.99999997               -0.05279717               -0.05249301                0.17620857               -0.00125977                0.00072520               -0.00072497
               0.00125870                0.00186209               24.02004301                1.00000000               -0.02573127               -0.02541300                0.08570335               -0.00039694               -0.00328848                0.00398161
               1.00100139                0.00079357               24.01998756                1.00000000               -0.02564643               -0.02536634                0.08556058                0.00010396               -0.00376741               -0.00122260
               2.00074577               -0.00027938               24.01992347                0.01000000               -0.00573405               -0.02531704                0.08537582                0.03166864                0.05759828               -0.00174791
               3.00088671               -0.00072422               24.02109690                0.01000002                0.00260458               -0.02312511                0.08983030                0.02632479                0.12659280                0.00042739
               4.00079787                0.00033992               24.02245136                0.01000001               -0.03891822               -0.01019751                0.09483975                0.07812593                0.15020131               -0.01026128
               5.00010834                0.00321129               24.02415914                0.01000000               -0.16740464                0.00031140                0.09998889                0.19979715                0.18916329               -0.01961000
               5.99744977                0.00880068               24.02644220                0.23235243               -0.14884882               -0.03194599                0.10638009                0.21745041                0.11031019               -0.00104913
               6.99713137                0.01004316               24.02703848                1.00000000               -0.03263124               -0.03257584                0.10958230                0.00037792                0.01619708               -0.00453824
               7.99679715                0.01128413               24.02743420                0.99999999               -0.03395933               -0.03369032                0.11316282                0.00056167                0.00806473               -0.00049570
               8.99645218                0.01251946               24.02786426                1.00000000               -0.03504313               -0.03477597                0.11680026                0.00055841                0.00789749                0.00094098
               9.99609628                0.01374981               24.02825523                0.99999999               -0.03558963               -0.03590604                0.12043821                0.00084465                0.00590698                0.00537697
               0.00232326                1.00160796               24.02000092                0.99999999               -0.02500901               -0.02510742                0.08380053               -0.00028670                0.00138030                0.00428301
               1.00207317                1.00053991               24.01994223                0.01000000               -0.02509504               -0.02510367                0.08357097                0.00009768                0.00372715               -0.00298354
               2.00182136                0.99946745               24.01992288                0.01000000               -0.06164295               -0.03805754                0.08350511                0.00377121                0.06758386                0.03302651
               3.00084031                0.99904453               24.02114908                0.01000001               -0.11049918               -0.02103789                0.08971089                0.06263281                0.11719172                0.00439494
               3.99961137                1.00023794               24.02230256                0.01000000               -0.14821866               -0.01276653                0.09434670                0.16699182                0.11489292               -0.00962599
               4.99787593                1.00321440               24.02369353                0.01000000               -0.17015168               -0.01942538                0.09904177                0.32193481                0.14508752               -0.01914914
               5.99620834                1.00848122               24.02572872                0.01000001               -0.09912567               -0.13868623                0.10464073                0.29503417                0.08910087               -0.04227501
               6.99589342                1.00971740               24.02624239                1.00000000               -0.03218617               -0.03230903                0.10780292                0.00006376                0.00697520               -0.00444525
               7.99556461                1.01094723               24.02663056                1.00000000               -0.03342479               -0.03343211                0.11142140                0.00001537                0.00121811               -0.00039730
               8.99522492                1.01217170               24.02702654                0.99999999               -0.03451190               -0.03451659                0.11506139                0.00001257                0.00114175                0.00061782
               9.99487438                1.01339075               24.02741284                1.00000000               -0.03505480               -0.03564711                0.11870040                0.00026666                0.00056556                0.00665588
               0.00338908                2.00135995               24.01996387                0.01000000               -0.02452244               -0.03235239                0.08190013               -0.01423037                0.00177467                0.05817884
               1.00314386                2.00029150               24.01985940                0.01000000               -0.05362527               -0.05929292                0.08147718               -0.02430366                0.04506926                0.05239242
               2.00231658                1.99895947               24.02062255                0.01000001               -0.08874933               -0.06389178                0.08778787                0.02188100                0.07555552                0.05210486
               3.00136887                1.99885502               24.02124191                0.01000000               -0.11743726               -0.04357693                0.09104690                0.15845188                0.07479340                0.01191553
               3.99996783                2.00008459               24.02211232                0.01000000               -0.15325545               -0.03774379                0.09499061                0.30113763                0.08648807               -0.00615071
               4.99830376                2.00282278               24.02316034                0.01000001               -0.15601897               -0.06948071                0.09888779                0.41291330                0.08291423               -0.01711276
               5.99684745                2.00602696               24.02418430                0.01000000               -0.18185641               -0.18372198                0.10258206                0.44245876                0.08492525               -0.05296490
               6.99466663                2.00939698               24.02544383                0.01000000               -0.12521472               -0.11299704                0.10602975                0.26815298                0.03941523               -0.01803355
               7.99434316                2.01061549               24.02582690                0.08286414               -0.03288625               -0.03305939                0.10967437                0.00072159               -0.00570555               -0.00003296
               8.99400891                2.01182913               24.02618257                0.99999998               -0.03398234               -0.03396880                0.11333159                0.00005498               -0.00409857               -0.00167030
               9.99366351                2.01303687               24.02659852                1.00000000               -0.03453984               -0.03514321                0.11697014                0.00028322               -0.00122822                0.00657912
               0.00417555                3.00096092               24.02099859                0.01000001               -0.01879766               -0.03338056                0.08831954               -0.00385268                0.00849772                0.11263961
               1.00398757                2.99935405               24.02092351                0.01000001               -0.02400477               -0.11306660                0.08949528                0.02659803                0.01825359                0.09078959
               2.00369545                2.99818961               24.02104235                0.01000000               -0.05516716               -0.10680268                0.09119944                0.13776923                0.04079269                0.03775640
               3.00288423                2.99817299               24.02142855                0.01000000               -0.10145409               -0.09126530                0.09383367                0.27423984                0.05931725                0.01373781
               4.00166637                2.99948307               24.02200742                0.01000000               -0.13461977               -0.08374444                0.09659221                0.40423061                0.07013920                0.00103122
               5.00019183                3.00182479               24.02275401                0.01000000               -0.15915293               -0.10778494                0.09970031                0.50119858                0.07520928               -0.00170389
               5.99848331                3.00480678               24.02360866                0.01000001               -0.17619427               -0.13378455                0.10290480                0.51651938                0.06607676                0.00718023
               6.99666795                3.00745746               24.02437274                0.01000001               -0.26682055               -0.16269631                0.10618232                0.54212200                0.04604139                0.00152357
               7.99314690                3.01028604               24.02502960                0.01000002               -0.19316508               -0.12419881                0.10878349                0.44299327               -0.00079789                0.03347462
               8.99280464                3.01149232               24.02530035                0.01000000               -0.03411731               -0.14649851                0.11161061                0.34053748               -0.01084069                0.04406847
               9.99246455                3.01268789               24.02575813                0.34744627               -0.03400908               -0.30574079                0.11523438                0.39497236               -0.00168770                0.03482697
               0.00652576                4.00069234               24.02204769                0.01000000               -0.00786425               -0.05144029                0.09519883                0.06709888               -0.00080030                0.11793554
               1.00644712                3.99803017               24.02170883                0.01000000               -0.01363716               -0.15764319                0.09559349                0.14822676                0.00877630                0.06910720
               2.00625302                3.99682342               24.02153616                0.01000000               -0.04434532               -0.15187768                0.09598465                0.28190073                0.03086871                0.03068688
               3.00556021                3.99702972               24.02163478                0.01000000               -0.09261856               -0.12809820                0.09692540                0.39330747                0.05580049                0.00750849
               4.00440065                3.99840970               24.02202621                0.01000000               -0.12780975               -0.12016566                0.09876654                0.49090274                0.07632359                0.00487225
               5.00300402                4.00066708               24.02266060                0.01000001               -0.14277434               -0.12619560                0.10144020                0.55628067                0.08773182                0.01741518
               6.00154516                4.00335127               24.02343344                0.01000001               -0.14871030               -0.14944308                0.10464620                0.59779094                0.08773668                0.03813486
               7.00002981                4.00614305               24.02422920                0.01000002               -0.11885006               -0.16569576                0.10798736                0.60067047                0.07401875                0.06657731
               7.99916816                4.00813152               24.02489717                0.01000002               -0.08060008               -0.22346198                0.11133191                0.64396394                0.05430431                0.08851854
               8.99841781                4.00889916               24.02537335                0.01000000                0.00018330               -0.26326033                0.11442973                0.46292854                0.02501615                0.10495113
               9.99917183                4.00692206               24.02551339                0.01000002                0.07540151               -0.41592215                0.11699033                0.34989001                0.01548106                0.06686030
               0.01084186                4.99993211               24.02317095                0.01000002               -0.00208391               -0.18141885                0.10272176                0.20494481               -0.00092817                0.13590587
               1.01082102                4.99620119               24.02249790                0.01000000               -0.02539741               -0.17566872                0.10200054                0.32625881                0.00896661                0.06397183
               2.01033391                4.99515206               24.02198889                0.01000001               -0.08284656               -0.15286457                0.10066809                0.40473447                0.03291033                0.01177707
               3.00916409                4.99561103               24.02184864                0.01000000               -0.12434268               -0.14915698                0.09983034                0.48644742                0.06636111               -0.00524822
               4.00784706                4.99707975               24.02214779                0.01000001               -0.13941075               -0.13353586                0.10084314                0.54130053                0.09924183                0.00224570
               5.00637588                4.99930087               24.02279873                0.01000001               -0.14419539               -0.13560817                0.10356818                0.57386297                0.12030118                0.02756542
               6.00496315                5.00181792               24.02367689                0.01000032               -0.12373859               -0.15329925                0.10732465                0.56884439                0.12745141                0.06407672
               7.00390111                5.00414355               24.02462937                0.01000002               -0.08465392               -0.19430522                0.11134646                0.53812488                0.12054416                0.10469813
               8.00327007                5.00581680               24.02548519                0.01000000               -0.03142159               -0.22751157                0.11525749                0.45208475                0.09787495                0.14137780
               9.00327267                5.00622712               24.02603487                0.01000000                0.00732409               -0.24133437                0.11867944                0.30664854                0.05845964                0.15715645
              10.00341656                5.00436945               24.02606017                0.01000000                0.01438827               -0.17590158                0.12093533                0.15027500                0.03540523                0.13508644
               0.01808651                5.99706396               24.02466053                0.64078710               -0.03341629               -0.15994275                0.11161133                0.23481394               -0.00328863                0.08064178
               1.01775235                5.99451679               24.02341134                0.01000001               -0.15743208               -0.10086624                0.11080050                0.30899696                0.00407337                0.03374723
               2.01493787                5.99376612               24.02231573                0.01000000               -0.21954392               -0.17631586                0.10427345                0.45825054                0.02825991               -0.01576266
               3.01336147                5.99404658               24.02200186                0.01000001               -0.17005279               -0.13950937                0.10115960                0.50232925                0.08964831               -0.02459835
               4.01153681                5.99573898               24.02231717                0.01000001               -0.18091781               -0.13117039                0.10189144                0.55377362                0.13614701               -0.00745822
               5.00974311                5.99795492               24.02310537                0.01000180               -0.17287186               -0.11982327                0.10587398                0.54328086                0.16688341                0.02978620
               6.00807938                6.00028528               24.02422397                0.01000000               -0.14748423               -0.13122128                0.11051289                0.48463149                0.18025669                0.07974061
               7.00679343                6.00225695               24.02550522                0.01000000               -0.09765453               -0.16680511                0.11580045                0.38865609                0.17632405                0.13676919
               8.00612629                6.00358128               24.02670399                0.01000000               -0.03976447               -0.20459306                0.12087688                0.28310174                0.14860907                0.19277019
               9.00599814                6.00407247               24.02748989                0.01000001               -0.01168085               -0.19482481                0.12497708                0.15717219                0.09015459                0.23351646
              10.00589267                6.00340403               24.02749587                0.01000001               -0.01054706               -0.06425955                0.12718497                0.07601144                0.05276827                0.23363539
               0.02063248                6.99673326               24.02515027                0.99999999               -0.03336792               -0.03298732                0.11157771               -0.00033542               -0.00517486                0.02631222
               1.02029880                6.99418386               24.02376765                1.00000000               -0.03316679               -0.03303766                0.11024171               -0.00038977               -0.00685098                0.00441791
               2.01996914                6.99162574               24.02235640                0.01000000               -0.15304882               -0.12324529                0.10916341                0.31139734                0.04874518               -0.02486768
               3.01723782                6.99282084               24.02209275                0.01000001               -0.24774725               -0.15750792                0.09874148                0.49685652                0.12512478               -0.04977539
               4.01501419                6.99445635               24.02248434                0.01000002               -0.22713122               -0.11674471                0.10319739                0.53390651                0.18482633               -0.02768187
               5.01269520                6.99690441               24.02348074                0.01000001               -0.23302233               -0.07232615                0.10755100                0.49484033                0.21896531                0.02918867
               6.01035375                6.99919350               24.02496396                0.01000000               -0.21584854               -0.06946999                0.11416714                0.36943809                0.24233079                0.08561416
               7.00837822                7.00080745               24.02677416                0.01000000               -0.16185794               -0.10238310                0.12122134                0.21398179                0.24652393                0.15506578
               8.00711659                7.00172494               24.02859330                0.01000001               -0.08924240               -0.15348922                0.12819527                0.07244625                0.21690428                0.25480122
               9.00659338                7.00233062               24.02994140                0.01000002               -0.04214562               -0.16545471                0.13397550               -0.00029603                0.13382452                0.33743444
              10.00627368                7.00308426               24.03011953                0.01000000               -0.03196999               -0.03881199                0.13669015               -0.01902906                0.07574509                0.38822933
               0.02317859                7.99640421               24.02555561                1.00000000               -0.03265277               -0.03262779                0.10921947               -0.00023218               -0.00077562                0.02280192
               1.02285206                7.99385604               24.02410069                0.99999992               -0.03248775               -0.03247893                0.10827117                0.00008744               -0.00053565                0.00309488
               2.02252884                7.99130122               24.02265334                0.01275665               -0.11920343               -0.03218137                0.10726877                0.10786153                0.04360693               -0.01641788
               3.02046800                7.99089642               24.02208648                0.01000002               -0.21987313               -0.21987200                0.10337184                0.48179970                0.17068629               -0.13811108
               4.01813137                7.99340409               24.02252244                0.01000008               -0.27826124               -0.05988438                0.10263404                0.55549518                0.22388636               -0.02573993
               5.01490277                7.99650839               24.02385904                0.01000000               -0.32831372                0.01032657                0.11008909                0.42684738                0.26883113                0.02567199
               6.01156510                7.99889588               24.02573270                0.01000000               -0.31805771                0.01271944                0.11800469                0.24824563                0.30109356                0.07737936
               7.00854162                8.00020929               24.02817083                0.01000001               -0.27565334               -0.00869859                0.12693337                0.05437762                0.34393147                0.14541045
               8.00605203                8.00051150               24.03126424                0.01000002               -0.19543563               -0.05351630                0.13776438               -0.13498704                0.32921717                0.26185859
               9.00463290                8.00076338               24.03367208                0.01000007               -0.10236077               -0.11522472                0.14671858               -0.26352569                0.21863233                0.57801576
              10.00400482                8.00262779               24.03466508                0.01000000               -0.06280863               -0.17786997                0.15193797               -0.19267017                0.14708139                0.56833484
               0.02572418                8.99608070               24.02597704                1.00000000               -0.03206419               -0.03211968                0.10731784               -0.00024665                0.00230584                0.01866147
               1.02540354                8.99353428               24.02443513                0.99999999               -0.03190951               -0.03189180                0.10635353                0.00006613                0.00111548                0.00181495
               2.02508599                8.99098212               24.02287032                0.99999997               -0.03162965               -0.03162980                0.10542831                0.00002779               -0.00542554               -0.01219666
               3.02477094                8.98842340               24.02120099                0.01000002               -0.22869327               -0.13917838                0.10451778                0.45699918                0.14458343               -0.07347719
               4.02051212                8.99325866               24.02264243                0.01000000               -0.45152976                0.07463357                0.10925448                0.48895917                0.27897400               -0.02426547
               5.01574035                8.99711094               24.02414477                0.01000000               -0.44471796                0.08877967                0.11318484                0.27916018                0.28973714                0.01769831
               6.01161776                8.99944788               24.02629294                0.01000001               -0.39450955                0.07626260                0.12104812                0.12482011                0.34098471                0.04897123
               7.00785016                9.00063347               24.02928616                0.01000002               -0.38775024                0.06455820                0.13173366               -0.01098133                0.41925931                0.09216793
               8.00386276                9.00065462               24.03341727                0.01000002               -0.43217905                0.06853329                0.14598264               -0.15687243                0.63270510                0.18100395
               8.99920658                9.00002613               24.04110147                0.99999998               -0.25856520               -0.06270942                0.17068287               -0.30230268                0.39360980                0.37970446
               9.99869146                8.99952686               24.04090769                0.99999996               -0.05151214               -0.18125454                0.17304071               -0.29070379               -0.00033490                0.31964388
               0.02826650                9.99576182               24.02629963                1.00000000               -0.03145240               -0.03188822                0.10539532               -0.00013009                0.01297960                0.01379329
               1.02795197                9.99321820               24.02474542                1.00000000               -0.03131095               -0.03160804                0.10443455                0.00018358                0.01632774                0.00054564
               2.02764028                9.99066862               24.02325723                1.00000000               -0.03102675               -0.03134932                0.10352712                0.00016112                0.01638798               -0.00389183
               3.02733144                9.98811285               24.02170588                0.01000000               -0.42086290               -0.03105483                0.10257929                0.46745596                0.13957463               -0.00429027
               4.01922302                9.99489676               24.02268562                0.01000000               -0.65173429                0.16381000                0.10907998                0.37964615                0.24813755               -0.01389047
               5.01429675                9.99828399               24.02422604                0.01000000               -0.43420250                0.11730470                0.11425453                0.13185878                0.27832670                0.01504192
               6.01053897               10.00042113               24.02638263                0.01000001               -0.35907462                0.09732496                0.12209109                0.05294364                0.34029610                0.03299994
               7.00711526               10.00150045               24.02952989                0.01000000               -0.35085187                0.08669794                0.13364801               -0.00043845                0.46059246                0.05547767
               8.00352193               10.00188217               24.03442648                0.01000002               -0.37003239                0.12275496                0.15087600               -0.13364616                0.61116569                0.13285315
               8.99971461                9.99950919               24.04094431                0.99999996               -0.21663237               -0.05169389                0.17387328               -0.09317030                0.33584040                0.00023699
               9.99918928                9.99900269               24.04075045                0.99999999               -0.05253269               -0.05241623                0.17623184               -0.00086667                0.00038750               -0.00030940
               0.00128217                0.00195322               25.02089645                1.00000000               -0.02556040               -0.02518248                0.08489517               -0.00015533               -0.00334766                0.00386477
               1.00102657                0.00083648               25.02084274                1.00000000               -0.02566988               -0.02539733                0.08550867                0.00007735               -0.00360309               -0.00124093
               2.00076877               -0.00028571               25.02078108                0.01000001               -0.00712218               -0.02559775                0.08616088                0.03245730                0.05976447               -0.00157252
               3.00088413               -0.00076693               25.02199792                0.01000000               -0.00046671               -0.02099855                0.09043236                0.02727159                0.12993997                0.00141768
               4.00075944                0.00039071               25.02340079                0.01000001               -0.04466036               -0.00733916                0.09509354                0.08457994                0.15291263               -0.00974970
               4.99999092                0.00348582               25.02515732                0.01000000               -0.18322054                0.00431977                0.09965469                0.21694791                0.19162800               -0.01943916
               5.99709503                0.00951220               25.02750043                0.22248366               -0.16058723               -0.03159937                0.10518253                0.23700569                0.11116957               -0.00108666
               6.99677917                0.01080255               25.02813033                1.00000000               -0.03241297               -0.03235599                0.10877675                0.00045653                0.01594276               -0.00457863
               7.99644677                0.01209151               25.02856373                0.99999998               -0.03383265               -0.03358883                0.11273724                0.00061727                0.00804479               -0.00049894
               8.99610252                0.01337529               25.02903199                1.00000000               -0.03502558               -0.03478577                0.11674519                0.00061443                0.00790697                0.00094327
               9.99574626                0.01465470               25.02946117                1.00000000               -0.03562610               -0.03603188                0.12075430                0.00087493                0.00591662                0.00538447
               0.00239736                1.00170139               25.02083508                0.99999999               -0.02505534               -0.02492635                0.08311495               -0.00028061                0.00144175                0.00443671
               1.00214681                1.00058250               25.02077885                0.01000000               -0.02511542               -0.02513306                0.08374941               -0.00000204                0.00347017               -0.00318021
               2.00189505                0.99945831               25.02076268                0.01000000               -0.06640895               -0.03919523                0.08443139                0.00258984                0.07049831                0.03602727
               3.00081863                0.99902308               25.02204889                0.01000001               -0.12080929               -0.01954022                0.09032576                0.06710167                0.12131621                0.00653529
               3.99947887                1.00031732               25.02324735                0.01000000               -0.16094877               -0.01065788                0.09466946                0.18055058                0.11728150               -0.00819246
               4.99759965                1.00352902               25.02468327                0.01000000               -0.18360727               -0.01786505                0.09892809                0.34862091                0.14690334               -0.01818430
               5.99580672                1.00919621               25.02677041                0.01000001               -0.10527835               -0.14735890                0.10361478                0.31973763                0.08953501               -0.04220455
               6.99549409                1.01047899               25.02731735                1.00000000               -0.03200732               -0.03211676                0.10717956                0.00007868                0.00672069               -0.00447611
               7.99516657                1.01175562               25.02774355                0.99999998               -0.03335083               -0.03335691                0.11117210                0.00001335                0.00121608               -0.00039966
               8.99482707                1.01302743               25.02817777                0.99999999               -0.03454883               -0.03455275                0.11518292                0.00001128                0.00115134                0.00062490
               9.99447560                1.01429438               25.02860229                1.00000000               -0.03514713               -0.03579918                0.11919360                0.00023926                0.00057370                0.00666464
               0.00351434                2.00145469               25.02078058                0.01000001               -0.02447291               -0.03239079                0.08142160               -0.01530206                0.00187847                0.06272067
               1.00326961                2.00033381               25.02067659                0.01000000               -0.05671739               -0.06179756                0.08194044               -0.02631164                0.04835697                0.05715036
               2.00237999                1.99893038               25.02150176                0.01000001               -0.09512318               -0.06696278                0.08827923                0.02299926                0.07971953                0.05776144
               3.00136715                1.99884226               25.02215598                0.01000000               -0.12577356               -0.04511621                0.09182008                0.17087270                0.07711721                0.01568911
               3.99986452                2.00017756               25.02306468                0.01000000               -0.16413486               -0.03874806                0.09557112                0.32521778                0.08824837               -0.00340782
               4.99808445                2.00312852               25.02415057                0.01000001               -0.16623566               -0.07327552                0.09921491                0.44604092                0.08389315               -0.01506499
               5.99653981                2.00656503               25.02521039                0.01000000               -0.19315570               -0.19678084                0.10268073                0.47731942                0.08508599               -0.05195428
               6.99422133                2.01016022               25.02650196                0.01000000               -0.13206053               -0.11958110                0.10558775                0.28847296                0.03911402               -0.01686915
               7.99389860                2.01142437               25.02692330                0.08557696               -0.03286753               -0.03309539                0.10960273                0.00078624               -0.00568553                0.00033009
               8.99356398                2.01268424               25.02731737                0.99999998               -0.03407261               -0.03405491                0.11362864                0.00005738               -0.00407972               -0.00165479
               9.99321714                2.01393872               25.02777154                1.00000000               -0.03468402               -0.03534889                0.11763964                0.00025754               -0.00121984                0.00658598
               0.00433307                3.00105358               25.02188182                0.01000001               -0.01881880               -0.03299833                0.08833132               -0.00379357                0.00910613                0.12114440
               1.00414488                2.99934655               25.02182063                0.01000001               -0.02432407               -0.11959032                0.08996116                0.02910626                0.01895644                0.09972829
               2.00384659                2.99811905               25.02195832                0.01000000               -0.05779862               -0.11336709                0.09203463                0.14941652                0.04193369                0.04376753
               3.00298891                2.99812076               25.02237106                0.01000000               -0.10748091               -0.09718208                0.09476804                0.29620132                0.06055218                0.01830474
               4.00169697                2.99954236               25.02297760                0.01000003               -0.14279532               -0.08932477                0.09755283                0.43616106                0.07118887                0.00448905
               5.00013300                3.00206351               25.02375495                0.01000000               -0.16877796               -0.11532433                0.10056518                0.54021109                0.07597801                0.00113558
               5.99832141                3.00526059               25.02464029                0.01000001               -0.18644018               -0.14311398                0.10367246                0.55566182                0.06645871                0.00986352
               6.99640420                3.00808737               25.02543777                0.01000001               -0.28315652               -0.17368238                0.10637404                0.58192524                0.04526980                0.00430805
               7.99265828                3.01109371               25.02611672                0.01000002               -0.20451642               -0.13152337                0.11016814                0.47435734               -0.00228362                0.03635785
               8.99231387                3.01234634               25.02641881                0.01000004               -0.03432482               -0.15485730                0.11208194                0.36386135               -0.01117717                0.04646448
               9.99197178                3.01358741               25.02691467                0.36713861               -0.03420870               -0.32479923                0.11608071                0.42202887               -0.00168959                0.03667439
               0.00685252                4.00079472               25.02300086                0.01000000               -0.00662602               -0.05290777                0.09542094                0.07330095               -0.00122891                0.12717346
               1.00678626                3.99794201               25.02266783                0.01000000               -0.01292014               -0.16748161                0.09623664                0.16114899                0.00828234                0.07717214
               2.00659411                3.99666304               25.02250060                0.01000000               -0.04591954               -0.16181993                0.09700396                0.30471353                0.03049595                0.03695552
               3.00586787                3.99689862               25.02260981                0.01000003               -0.09745594               -0.13736486                0.09826225                0.42425084                0.05598977                0.01185980
               4.00464499                3.99839106               25.02302017                0.01000000               -0.13487134               -0.12948820                0.10019567                0.52944968                0.07706998                0.00821123
               5.00317044                4.00082203               25.02368114                0.01000001               -0.15079079               -0.13558110                0.10283626                0.59956346                0.08885189                0.02052021
               6.00162918                4.00370275               25.02448546                0.01000001               -0.15718602               -0.15979015                0.10589170                0.64307301                0.08875560                0.04165972
               7.00002672                4.00668657               25.02531372                0.01000000               -0.12512007               -0.17658015                0.10910745                0.64414223                0.07478987                0.07058755
               7.99912678                4.00879391               25.02601600                0.01000001               -0.08395994               -0.23813356                0.11194140                0.68902546                0.05486073                0.09361778
               8.99834752                4.00958709               25.02652299                0.01000000                0.00244012               -0.28018707                0.11548627                0.49485499                0.02520674                0.10982619
               9.99917558                4.00744273               25.02669039                0.01000000                0.08280604               -0.44293984                0.11849472                0.37389647                0.01573767                0.07049872
               0.01150452                4.99999542               25.02420053                0.01000000               -0.00049745               -0.19521889                0.10315658                0.22287653               -0.00189857                0.14650117
               1.01149954                4.99599692               25.02352196                0.01000000               -0.02601368               -0.18565690                0.10282856                0.35354636                0.00748070                0.07329491
               2.01098424                4.99488266               25.02300166                0.01000001               -0.08768188               -0.16187608                0.10204585                0.43536837                0.03135847                0.01699313
               3.00974590                4.99537346               25.02285515                0.01000000               -0.13108442               -0.16208233                0.10163904                0.52289370                0.06564452               -0.00253345
               4.00836255                4.99695260               25.02316529                0.01000001               -0.14666593               -0.14582337                0.10301061                0.58449601                0.10035486                0.00399821
               5.00681259                4.99935188               25.02384248                0.01000001               -0.15221118               -0.14594437                0.10552917                0.62044036                0.12244537                0.03025612
               6.00531833                5.00206479               25.02475755                0.01000002               -0.13083511               -0.16322253                0.10899853                0.61291569                0.12996777                0.06775429
               7.00419588                5.00455577               25.02574948                0.01000000               -0.08900320               -0.20667381                0.11281567                0.57764880                0.12267690                0.10955796
               8.00353827                5.00633104               25.02664355                0.01000000               -0.03168719               -0.24195132                0.11668953                0.48375357                0.09962145                0.14692068
               9.00356214                5.00674259               25.02722839                0.01000000                0.01000782               -0.25671535                0.12013124                0.32744164                0.05959186                0.16293707
              10.00373842                5.00472861               25.02727836                0.01000000                0.01762835               -0.18677045                0.12280612                0.16032596                0.03616454                0.14015064
               0.01930705                5.99689035               25.02578043                0.61104706               -0.03371017               -0.17183217                0.11226967                0.25701429               -0.00325503                0.08715084
               1.01896995                5.99422887               25.02452527                0.01000001               -0.16910559               -0.10519044                0.11189254                0.33337321                0.00116807                0.03993405
               2.01592494                5.99342552               25.02336391                0.01000000               -0.23570752               -0.18323690                0.10584128                0.48713550                0.02287713               -0.01126412
               3.01425580                5.99365698               25.02302437                0.01000001               -0.17842224               -0.15780118                0.10476872                0.53837019                0.08904123               -0.02829175
               4.01235649                5.99547459               25.02334467                0.01000001               -0.18943722               -0.14581935                0.10495271                0.60452580                0.13878453               -0.00836915
               5.01046705                5.99790314               25.02417447                0.01000001               -0.18364419               -0.12706695                0.10835529                0.59089816                0.17213881                0.03084264
               6.00868361                6.00043830               25.02533753                0.01000000               -0.15768061               -0.13852741                0.11254995                0.52336242                0.18458752                0.08364157
               7.00731344                6.00255309               25.02667069                0.01000000               -0.10342938               -0.17656860                0.11747635                0.41740094                0.18026720                0.14207727
               8.00661502                6.00395488               25.02791966                0.01000000               -0.04073273               -0.21707342                0.12235810                0.30296461                0.15176809                0.19932277
               9.00649879                6.00445278               25.02874678                0.01000002               -0.01024765               -0.20671853                0.12650856                0.16772804                0.09205250                0.24081412
              10.00641007                6.00370733               25.02877679                0.01000001               -0.00887176               -0.06765602                0.12910809                0.08101469                0.05397172                0.24076340
               0.02196775                6.99655878               25.02626893                0.99999999               -0.03359199               -0.03306989                0.11207697               -0.00039895               -0.00564897                0.02710582
               1.02163183                6.99389311               25.02487493                1.00000000               -0.03344524               -0.03328652                0.11114268               -0.00040996               -0.00715367                0.00510284
               2.02129885                6.99121792               25.02345482                0.01000000               -0.15837990               -0.12678297                0.11045497                0.31881291                0.04243976               -0.02130815
               3.01846423                6.99221744               25.02305889                0.01000001               -0.25459717               -0.18579365                0.10098507                0.54168208                0.12107882               -0.06230880
               4.01620690                6.99403621               25.02353271                0.01000001               -0.23986932               -0.12296111                0.10753719                0.58834306                0.20037719               -0.03714207
               5.01366685                6.99681054               25.02456461                0.01000000               -0.25356370               -0.07342400                0.11045655                0.54001043                0.22664861                0.03127730
               6.01113563                6.99929424               25.02611489                0.01000000               -0.23197640               -0.07166141                0.11635821                0.39775586                0.24925935                0.08949634
               7.00902732                7.00102439               25.02799366                0.01000000               -0.17188804               -0.10735237                0.12287309                0.22977269                0.25255498                0.16061325
               8.00769787                7.00198957               25.02988157                0.01000001               -0.09315328               -0.16214912                0.12960183                0.07784326                0.22201487                0.26259845
               9.00716425                7.00260822               25.03128744                0.01000002               -0.04241180               -0.17500571                0.13533458                0.00000673                0.13697382                0.34707905
              10.00684963                7.00337549               25.03149434                0.01000001               -0.03146211               -0.04001895                0.13836683               -0.01986250                0.07764404                0.39910072
               0.02463040                7.99622895               25.02664893                1.00000000               -0.03277960               -0.03266509                0.10940168               -0.00026566               -0.00079735                0.02266761
               1.02430261                7.99356314               25.02518665                1.00000000               -0.03267679               -0.03265464                0.10888299                0.00010306               -0.00056141                0.00311283
               2.02397687                7.99088986               25.02373136                0.01555676               -0.10157308               -0.03249500                0.10830587                0.08664263                0.04490518               -0.01633124
               3.02227115                7.98994110               25.02318322                0.01000002               -0.22233101               -0.21643667                0.12166730                0.49984580                0.22107798               -0.20606800
               4.01953025                7.99301537               25.02353777                0.01000001               -0.31309582               -0.05643311                0.10385497                0.60608599                0.23773331               -0.01907361
               5.01600923                7.99643466               25.02496868                0.01000000               -0.35526860                0.01474744                0.11320200                0.45708835                0.27973859                0.02784773
               6.01242488                7.99900507               25.02692085                0.01000000               -0.33978341                0.01603974                0.11976597                0.26480483                0.30970604                0.08119838
               7.00921356                8.00040605               25.02944637                0.01000001               -0.29184088               -0.00748449                0.12840198                0.05789630                0.35287586                0.15042401
               8.00658806                8.00071190               25.03264702                0.01000002               -0.20502775               -0.05566160                0.13890260               -0.14380537                0.33763697                0.26952173
               9.00511301                8.00095267               25.03514366                0.01000007               -0.10548853               -0.12189808                0.14769531               -0.27917796                0.22431064                0.59405815
              10.00447829                8.00290695               25.03618956                0.01000000               -0.06347189               -0.18553541                0.15302544               -0.20354513                0.15127733                0.58411665
               0.02729405                8.99590548               25.02704986                1.00000000               -0.03210734               -0.03208195                0.10723721               -0.00028092                0.00232259                0.01877411
               1.02697298                8.99324002               25.02550045                0.99999998               -0.03201586               -0.03199278                0.10670636                0.00007503                0.00115792                0.00187732
               2.02665374                8.99056802               25.02392857                1.00000000               -0.03186708               -0.03186522                0.10622460                0.00003828               -0.00535115               -0.01210777
               3.02633564                8.98788870               25.02225237                0.01000001               -0.24093364               -0.11831723                0.10576938                0.45431403                0.14744104               -0.07469414
               4.02183506                8.99290755               25.02374248                0.01000000               -0.47583599                0.08455433                0.10937599                0.50672440                0.28209279               -0.02243604
               5.01681892                8.99710549               25.02528011                0.01000000               -0.46873598                0.09581993                0.11426190                0.29646724                0.29706431                0.02080269
               6.01246034                8.99961504               25.02750865                0.01000001               -0.41702511                0.08297767                0.12229177                0.13180338                0.35047034                0.05135055
               7.00847842                9.00087471               25.03060845                0.01000002               -0.40926030                0.07028289                0.13285314               -0.01263643                0.43094634                0.09538558
               8.00427514                9.00087634               25.03488069                0.01000003               -0.45463859                0.07416091                0.14683030               -0.16850043                0.65042829                0.18614078
               8.99938564                9.00017026               25.04280937                0.99999998               -0.27024812               -0.06494787                0.17087194               -0.32123582                0.40467237                0.38991444
               9.99887018                8.99966478               25.04263841                0.99999996               -0.05154690               -0.18831548                0.17310843               -0.30573709               -0.00034864                0.32842807
               0.02995570                9.99558731               25.02735175                1.00000000               -0.03141347               -0.03181667                0.10505283               -0.00023766                0.01305791                0.01389114
               1.02964157                9.99292328               25.02579007                1.00000000               -0.03133771               -0.03167333                0.10452638                0.00012098                0.01641691                0.00059826
               2.02932895                9.99025256               25.02429498                1.00000000               -0.03118348               -0.03154620                0.10405938                0.00009475                0.01646347               -0.00385120
               3.02901790                9.98757476               25.02273631                0.04299525               -0.44404995               -0.03139463                0.10354818                0.49092094                0.14280317               -0.00430310
               4.02044795                9.99470646               25.02377271                0.01000001               -0.68934050                0.17989098                0.10804393                0.40010359                0.25490516               -0.01497094
               5.01523109                9.99835106               25.02536848                0.01000000               -0.45781079                0.12455684                0.11409776                0.13912493                0.28499043                0.01617109
               6.01129173               10.00066462               25.02760608                0.01000001               -0.37657796                0.10495839                0.12265424                0.05617090                0.35054405                0.03478375
               7.00769953               10.00181170               25.03086985                0.01000000               -0.36846193                0.09369983                0.13446730               -0.00136420                0.47488133                0.05735732
               8.00392249               10.00219511               25.03593810                0.01000002               -0.38998373                0.13187715                0.15148435               -0.14316404                0.63025578                0.13656138
               8.99989985                9.99965371               25.04268273                0.99999996               -0.22739924               -0.05165502                0.17380833               -0.10130303                0.34607672                0.00030133
               9.99937451                9.99914064               25.04251177                0.99999995               -0.05253443               -0.05241438                0.17604850               -0.00087416                0.00032027               -0.00033501
               0.00129918                0.00206214               26.02174091                1.00000000               -0.02544729               -0.02495678                0.08401938               -0.00002327               -0.00335132                0.00389553
               1.00104470                0.00089653               26.02169773                1.00000000               -0.02566480               -0.02540791                0.08547656                0.00021739               -0.00361923               -0.00127208
               2.00078588               -0.00027404               26.02164669                0.01000000               -0.00894529               -0.02586528                0.08693885                0.03282346                0.06137882               -0.00156813
               3.00086580               -0.00079780               26.02290555                0.01000000               -0.00445809               -0.01850280                0.09108246                0.02790905                0.13237228                0.00250281
               4.00069672                0.00045181               26.02435323                0.01000001               -0.05122660               -0.00416032                0.09537749                0.09101097                0.15455824               -0.00906157
               4.99984127                0.00377061               26.02615223                0.01000003               -0.19982835                0.00868490                0.09929483                0.23432588                0.19280322               -0.01901489
               5.99670015                0.01023898               26.02854585                0.21322197               -0.17271749               -0.03118138                0.10380910                0.25682720                0.11139837               -0.00112283
               6.99638692                0.01157755               26.02921401                1.00000000               -0.03218845               -0.03213027                0.10795086                0.00055367                0.01573475               -0.00461086
               7.99605638                0.01291451               26.02968894                0.99999998               -0.03370197               -0.03348451                0.11229975                0.00067423                0.00802652               -0.00050215
               8.99571288                0.01424677               26.03019916                1.00000000               -0.03500658               -0.03479530                0.11668666                0.00067216                0.00791348                0.00094471
               9.99535625                0.01557527               26.03067031                1.00000000               -0.03566256               -0.03615958                0.12107591                0.00090657                0.00592396                0.00539096
               0.00246455                1.00181257               26.02166322                0.99999999               -0.02495836               -0.02472590                0.08248608               -0.00023884                0.00140363                0.00446550
               1.00221497                1.00064246               26.02161722                0.01000000               -0.02516341               -0.02519030                0.08392609               -0.00000766                0.00349880               -0.00321269
               2.00196128                0.99946731               26.02161151                0.01000000               -0.07165002               -0.04034509                0.08538024                0.00102038                0.07281947                0.03875203
               3.00078197                0.99901717               26.02295559                0.01000001               -0.13193293               -0.01777855                0.09101469                0.07126979                0.12444209                0.00882842
               3.99932262                1.00041020               26.02419595                0.01000000               -0.17455142               -0.00828165                0.09504760                0.19408881                0.11872267               -0.00646465
               4.99729094                1.00385746               26.02567210                0.01000000               -0.19788350               -0.01604081                0.09881904                0.37558056                0.14754276               -0.01682588
               5.99536495                1.00992717               26.02780102                0.01000001               -0.11181246               -0.15604958                0.10241654                0.34482090                0.08931637               -0.04159427
               6.99505469                1.01125625               26.02838598                1.00000000               -0.03182186               -0.03191877                0.10653726                0.00007895                0.00651652               -0.00450067
               7.99472852                1.01257966               26.02885400                1.00000000               -0.03327363               -0.03327899                0.11091275                0.00001102                0.00121409               -0.00040193
               8.99438922                1.01389882               26.02933020                0.99999999               -0.03458524               -0.03458885                0.11530336                0.00001065                0.00115967                0.00063036
               9.99403681                1.01521368               26.02979671                1.00000000               -0.03524044               -0.03595325                0.11969482                0.00021247                0.00058115                0.00667318
               0.00363464                2.00156762               26.02159231                0.01000000               -0.02448215               -0.03245236                0.08095025               -0.01671449                0.00190549                0.06717184
               1.00338981                2.00039273               26.02149821                0.01000000               -0.06015320               -0.06425388                0.08236871               -0.02866668                0.05110460                0.06193739
               2.00243157                1.99891906               26.02238814                0.01000001               -0.10207567               -0.07005910                0.08902214                0.02381530                0.08318560                0.06331198
               3.00134830                1.99884663               26.02307831                0.01000000               -0.13466814               -0.04659590                0.09264529                0.18305655                0.07870205                0.01974937
               3.99973821                2.00028617               26.02402374                0.01000000               -0.17561931               -0.03964258                0.09623003                0.34934001                0.08924467               -0.00014894
               4.99783591                2.00344979               26.02514463                0.01000001               -0.17702136               -0.07702636                0.09957619                0.47947906                0.08417169               -0.01237791
               5.99619778                2.00711799               26.02623792                0.01000000               -0.20499578               -0.20990908                0.10283467                0.51270443                0.08445371               -0.04987845
               6.99373600                2.01093918               26.02755558                0.01000000               -0.13918725               -0.12621924                0.10512882                0.30865827                0.03832702               -0.01569433
               7.99341404                2.01224893               26.02801895                0.09100195               -0.03284612               -0.03295791                0.10952051                0.00037436               -0.00566760                0.00209888
               8.99307908                2.01355499               26.02845515                0.99999998               -0.03416301               -0.03414069                0.11392488                0.00006047               -0.00406385               -0.00164273
               9.99273078                2.01485621               26.02895132                1.00000000               -0.03482999               -0.03555754                0.11832050                0.00023301               -0.00121284                0.00659492
               0.00448005                3.00116353               26.02276521                0.01000001               -0.01898541               -0.03252642                0.08830386               -0.00398391                0.00961170                0.13005664
               1.00429020                2.99935738               26.02272273                0.01000001               -0.02481811               -0.12602275                0.09044018                0.03129075                0.01949661                0.10875986
               2.00398369                2.99806613               26.02288304                0.01000000               -0.06071052               -0.11999358                0.09289647                0.16086280                0.04273548                0.05007255
               3.00307598                2.99808526               26.02332391                0.01000000               -0.11387138               -0.10319035                0.09580583                0.31816795                0.06129887                0.02352320
               4.00170626                2.99961735               26.02395848                0.01000097               -0.15136404               -0.09499687                0.09858494                0.46820969                0.07162434                0.00879191
               5.00004870                3.00231693               26.02476531                0.01000000               -0.17882991               -0.12299196                0.10152774                0.57957475                0.07620902                0.00489804
               5.99812966                3.00572899               26.02568210                0.01000001               -0.19758949               -0.15253920                0.10450015                0.59524191                0.06588550                0.01332159
               6.99609691                3.00873186               26.02650022                0.01000001               -0.30047364               -0.18480369                0.10748297                0.62252952                0.04518993                0.00789060
               7.99212019                3.01192051               26.02723296                0.01000002               -0.21568839               -0.13859434                0.10640476                0.50631071               -0.00325309                0.03919492
               8.99178315                3.01321600               26.02754199                0.01000000               -0.03405753               -0.16344463                0.11255147                0.38752483               -0.01292884                0.04905372
               9.99143904                3.01450253               26.02807975                0.38764321               -0.03441086               -0.34439349                0.11694296                0.44970203               -0.00169584                0.03880471
               0.00716725                4.00091709               26.02395610                0.01000003               -0.00542262               -0.05404799                0.09557088                0.07956656               -0.00154972                0.13679446
               1.00711303                3.99787227               26.02363356                0.01000000               -0.01231512               -0.17738714                0.09686068                0.17407036                0.00784093                0.08562370
               2.00692095                3.99651919               26.02347624                0.01000000               -0.04762956               -0.17187561                0.09808393                0.32773771                0.03012606                0.04403318
               3.00616044                3.99678282               26.02360003                0.01000085               -0.10251130               -0.14697265                0.09966164                0.45522047                0.05585182                0.01743305
               4.00487072                3.99838624               26.02403012                0.01000000               -0.14223297               -0.13910640                0.10176393                0.56838530                0.07720052                0.01314958
               5.00331578                4.00098996               26.02471732                0.01000001               -0.15915180               -0.14521353                0.10433827                0.64323972                0.08913512                0.02504623
               6.00168769                4.00406721               26.02555127                0.01000001               -0.16603539               -0.17040261                0.10733366                0.68894976                0.08902577                0.04601803
               6.99999507                4.00724310               26.02641135                0.01000001               -0.13157880               -0.18770612                0.11019752                0.68907832                0.07441637                0.07551552
               7.99905611                4.00947704               26.02713600                0.01000002               -0.08737584               -0.25344737                0.11350198                0.73531974                0.05466940                0.09794688
               8.99824755                4.01028610               26.02768307                0.01000000                0.00478267               -0.29769691                0.11656059                0.52689219                0.02551586                0.11510139
               9.99915177                4.00796834               26.02788329                0.01000004                0.09042145               -0.47082322                0.12015377                0.39826739                0.01588816                0.07458174
               0.01216102                5.00008257               26.02523408                0.01000000                0.00084852               -0.20892627                0.10346353                0.24093013               -0.00278940                0.15742866
               1.01216951                4.99580964               26.02455447                0.01000000               -0.02665651               -0.19548856                0.10359265                0.38126259                0.00636182                0.08325998
               2.01162789                4.99462862               26.02402981                0.01000001               -0.09280801               -0.17157539                0.10346898                0.46557661                0.02997474                0.02368545
               3.01031335                4.99514580               26.02388142                0.01000000               -0.13805295               -0.17529074                0.10384434                0.56038526                0.06499457                0.00374546
               4.00886683                4.99683522               26.02420800                0.01000001               -0.15404088               -0.15910288                0.10530868                0.62792686                0.10049720                0.00919340
               5.00723253                4.99941266               26.02490932                0.01000001               -0.16056616               -0.15701607                0.10774401                0.66814812                0.12308022                0.03519540
               6.00565551                5.00232093               26.02585687                0.01000000               -0.13819432               -0.17332201                0.11081240                0.65761499                0.13093547                0.07277426
               7.00446864                5.00497774               26.02688569                0.01000153               -0.09359617               -0.21943948                0.11450802                0.61761010                0.12384598                0.11488377
               8.00378359                5.00685156               26.02781898                0.01000000               -0.03194747               -0.25736618                0.11825135                0.51568819                0.10057188                0.15310925
               9.00382969                5.00726206               26.02843750                0.01000000                0.01281597               -0.27281944                0.12176826                0.34845041                0.06010522                0.16888921
              10.00403991                5.00508606               26.02851629                0.01000000                0.02102120               -0.19825105                0.12480147                0.17041588                0.03662581                0.14534682
               0.02053172                5.99673857               26.02690592                0.58087699               -0.03394885               -0.18378474                0.11271173                0.27971716               -0.00322497                0.09389361
               1.02019223                5.99396250               26.02564919                0.01000001               -0.18177006               -0.10925468                0.11278014                0.35747216               -0.00142520                0.04633564
               2.01689632                5.99308768               26.02443256                0.01000000               -0.25153483               -0.18982448                0.10770697                0.51602964                0.02019026               -0.00458125
               3.01516153                5.99327701               26.02409724                0.01000001               -0.18669571               -0.18649934                0.10765745                0.56923253                0.08809608               -0.02388844
               4.01316240                5.99520418               26.02441623                0.01000001               -0.19842514               -0.16574100                0.10929144                0.66109026                0.13857262               -0.00235954
               5.01119303                5.99784963               26.02527248                0.01000008               -0.19437463               -0.13384601                0.11097862                0.64050209                0.17307026                0.03606208
               6.00927491                6.00060077               26.02647497                0.01000001               -0.16881922               -0.14604163                0.11486909                0.56295282                0.18668606                0.08878212
               7.00781664                6.00285431               26.02785474                0.01000000               -0.10946776               -0.18668561                0.11931160                0.44614806                0.18271281                0.14789436
               8.00708555                6.00432972               26.02915116                0.01000000               -0.04172947               -0.23010052                0.12401197                0.32274605                0.15398085                0.20590686
               9.00698206                6.00482971               26.03002007                0.01000002               -0.00867343               -0.21933679                0.12816767                0.17819935                0.09342826                0.24806714
              10.00691209                6.00400332               26.03007803                0.01000001               -0.00699700               -0.07162813                0.13115084                0.08600308                0.05487397                0.24773264
               0.02330750                6.99640687               26.02739180                0.99999999               -0.03376610               -0.03309661                0.11240366               -0.00045866               -0.00615587                0.02792213
               1.02296984                6.99362454               26.02599051                1.00000000               -0.03367600               -0.03348640                0.11188820               -0.00042853               -0.00748542                0.00580765
               2.02263398                6.99083213               26.02456550                0.01000000               -0.16941687               -0.12934216                0.11160666                0.31626657                0.03966596               -0.01803312
               3.01958150                6.99141582               26.02411245                0.01000001               -0.25589833               -0.28477197                0.11621841                0.63049467                0.12101219               -0.04198522
               4.01751601                6.99352040               26.02463509                0.01000001               -0.24677577               -0.11956651                0.10993289                0.66290503                0.19915432               -0.03150261
               5.01464599                6.99673574               26.02568987                0.01000001               -0.28030625               -0.07498931                0.11460806                0.59005653                0.22818812                0.03589861
               6.01190989                6.99940010               26.02729112                0.01000000               -0.24916673               -0.07373353                0.11871958                0.42574565                0.25298447                0.09427374
               7.00966265                7.00124403               26.02923162                0.01000000               -0.18233890               -0.11256696                0.12474323                0.24528839                0.25695297                0.16648732
               8.00826311                7.00224955               26.03118534                0.01000001               -0.09712845               -0.17134532                0.13116046                0.08266156                0.22615031                0.27046387
               9.00772008                7.00287533               26.03264809                0.01000002               -0.04251789               -0.18535547                0.13682323               -0.00007634                0.13958143                0.35655733
              10.00741275                7.00365350               26.03288687                0.01000001               -0.03073298               -0.04186350                0.14014200               -0.02085925                0.07925250                0.40952830
               0.02608720                7.99607664               26.02774364                1.00000000               -0.03287999               -0.03267545                0.10948994               -0.00028878               -0.00082244                0.02251561
               1.02575840                7.99329277               26.02627835                1.00000000               -0.03284146               -0.03280655                0.10941462                0.00011731               -0.00058776                0.00312754
               2.02543037                7.99050084               26.02481946                0.03788251               -0.03376279               -0.03278917                0.10927652               -0.00590719                0.05747885               -0.01621754
               3.02508315                7.98758157               26.02451983                0.01000002               -0.21648992               -0.20196944                0.09188440                0.53181840                0.19815214               -0.17214393
               4.02110058                7.99281285               26.02459954                0.01000002               -0.39843419               -0.04727011                0.11634773                0.71892554                0.22536871               -0.01863159
               5.01711446                7.99634985               26.02612308                0.01000000               -0.39095204                0.01957271                0.11557082                0.47913631                0.28542999                0.03141226
               6.01328153                7.99912609               26.02812802                0.01000000               -0.36207492                0.01947832                0.12201581                0.28210333                0.31514565                0.08502613
               7.00987296                8.00060297               26.03073887                0.01000001               -0.30870242               -0.00631646                0.13005133                0.06055561                0.36055190                0.15555958
               8.00710749                8.00090281               26.03404230                0.01000002               -0.21481943               -0.05815974                0.14020714               -0.15365384                0.34517982                0.27718873
               9.00557658                8.00112260               26.03662599                0.01000007               -0.10844651               -0.12949922                0.14878563               -0.29572703                0.22949817                0.60970060
              10.00493856                8.00316605               26.03772559                0.01000000               -0.06380204               -0.19401453                0.15418037               -0.21497210                0.15516113                0.59908506
               0.02886945                8.99575336               26.02812178                1.00000000               -0.03214658               -0.03203895                0.10713707               -0.00030449                0.00234136                0.01889721
               1.02854798                8.99296841               26.02656926                0.99999998               -0.03212038               -0.03209223                0.10705317                0.00008280                0.00120805                0.00195224
               2.02822704                8.99017634               26.02499482                1.00000000               -0.03210621               -0.03210285                0.10702755                0.00004743               -0.00525791               -0.01199573
               3.02790586                8.98737643               26.02331638                0.01000000               -0.25503983               -0.02613220                0.10703992                0.40126423                0.14883276               -0.08714856
               4.02312624                8.99257500               26.02482995                0.01000000               -0.49951964                0.08620173                0.10804724                0.51695719                0.28763909               -0.01736930
               5.01791547                8.99712720               26.02643001                0.01000000               -0.49137080                0.10404117                0.11584312                0.31316951                0.30357785                0.02200390
               6.01329883                8.99978967               26.02873878                0.01000001               -0.44092106                0.08979279                0.12375510                0.13787220                0.35883994                0.05374161
               7.00909704                9.00111770               26.03194322                0.01000002               -0.43142115                0.07609133                0.13417601               -0.01477068                0.44180091                0.09849160
               8.00467041                9.00108635               26.03635387                0.01000003               -0.47773696                0.07978822                0.14784175               -0.18128351                0.66733358                0.19126097
               8.99954231                9.00028534               26.04451891                0.99999998               -0.28219952               -0.06770461                0.17104362               -0.34136232                0.41539566                0.39988153
               9.99902641                8.99977321               26.04436986                1.00000000               -0.05158904               -0.19583864                0.17317833               -0.32126082               -0.00034989                0.33678442
               0.03165102                9.99543586               26.02840069                1.00000000               -0.03139375               -0.03175042                0.10476550               -0.00033606                0.01314127                0.01399840
               1.03133708                9.99265093               26.02683595                1.00000000               -0.03138547               -0.03174809                0.10468652                0.00005576                0.01651039                0.00066068
               2.03102331                9.98985878               26.02533842                1.00000000               -0.03136529               -0.03175612                0.10467226                0.00002631                0.01654016               -0.00380109
               3.03070977                9.98705892               26.02377685                0.06819703               -0.46671786               -0.03175017                0.10461073                0.51429650                0.14463561               -0.00431882
               4.02168895                9.99453688               26.02484650                0.01000001               -0.72732921                0.19618814                0.10728127                0.42485782                0.25989295               -0.01292199
               5.01616319                9.99843067               26.02650799                0.01000000               -0.48202373                0.13034749                0.11400541                0.14402561                0.29337455                0.01767200
               6.01204847               10.00092195               26.02883571                0.01000001               -0.39411618                0.11322831                0.12345534                0.05967108                0.36095770                0.03597580
               7.00828086               10.00212480               26.03221923                0.01000000               -0.38671513                0.10070999                0.13549233               -0.00278663                0.48884888                0.05918674
               8.00431417               10.00249858               26.03745617                0.01000002               -0.41091956                0.14122235                0.15218805               -0.15343788                0.64870506                0.14015336
               9.00006247                9.99976851               26.04442048                1.00000000               -0.23882822               -0.05168350                0.17374193               -0.11044824                0.35595905                0.00029093
               9.99953761                9.99924928               26.04427142                0.99999999               -0.05248661               -0.05239342                0.17587588               -0.00080406                0.00033459               -0.00033143
               0.00130151                0.00218651               27.02257684                1.00000000               -0.02531010               -0.02472041                0.08316078                0.00014586               -0.00335817                0.00389808
               1.00104841                0.00097205               27.02255227                1.00000000               -0.02564865               -0.02542844                0.08543072                0.00034687               -0.00361349               -0.00127591
               2.00078854               -0.00024672               27.02251985                0.01000001               -0.01116877               -0.02613797                0.08770128                0.03300213                0.06249731               -0.00156228
               3.00082503               -0.00081697               27.02381957                0.01000001               -0.00923065               -0.01561374                0.09168497                0.02833727                0.13388409                0.00360445
               4.00060392                0.00052403               27.02530834                0.01000000               -0.05853366               -0.00065152                0.09557224                0.09742766                0.15510214               -0.00821938
               4.99965436                0.00406579               27.02714322                0.01000002               -0.21713550                0.01343062                0.09883243                0.25187748                0.19261999               -0.01834024
               5.99626121                0.01097941               27.02957661                0.20433845               -0.18517922               -0.03071585                0.10231626                0.27682658                0.11101552               -0.00112913
               6.99595077                0.01236641               27.03028935                1.00000000               -0.03195282               -0.03189996                0.10710867                0.00066294                0.01565376               -0.00463496
               7.99562216                0.01375136               27.03080973                0.99999998               -0.03356774               -0.03337778                0.11185235                0.00073182                0.00800978               -0.00050430
               8.99527942                0.01513210               27.03136572                1.00000000               -0.03498629               -0.03480452                0.11662532                0.00073110                0.00791613                0.00094606
               9.99492243                0.01650972               27.03188269                1.00000000               -0.03569896               -0.03628771                0.12140099                0.00093903                0.00592752                0.00539430
               0.00251743                1.00193931               27.02248480                1.00000000               -0.02489358               -0.02451894                0.08183495               -0.00019771                0.00140900                0.00447535
               1.00226849                1.00071776               27.02245737                0.01000000               -0.02521796               -0.02524985                0.08410269                0.00000277                0.00349376               -0.00322132
               2.00201307                0.99949190               27.02247029                0.01000000               -0.07727317               -0.04140931                0.08637370               -0.00079015                0.07463388                0.04123899
               3.00072303                0.99902689               27.02386918                0.01000001               -0.14381248               -0.01570446                0.09167840                0.07530863                0.12653344                0.01118851
               3.99913682                1.00051752               27.02514830                0.01000000               -0.18887927               -0.00559891                0.09536045                0.20761851                0.11916629               -0.00449590
               4.99694544                1.00420009               27.02665965                0.01000000               -0.21288259               -0.01390226                0.09862314                0.40270412                0.14690965               -0.01509576
               5.99487917                1.01067225               27.02881874                0.01000001               -0.11870050               -0.16465223                0.10110725                0.37020186                0.08844683               -0.04037619
               6.99457143                1.01204741               27.02944810                0.99999999               -0.03162686               -0.03171626                0.10588008                0.00006969                0.00644239               -0.00451750
               7.99424663                1.01341758               27.02996181                1.00000000               -0.03319426               -0.03319835                0.11064532                0.00000839                0.00121373               -0.00040505
               8.99390755                1.01478405               27.03048384                0.99999999               -0.03462158               -0.03462529                0.11542352                0.00000935                0.00116690                0.00063297
               9.99355420                1.01614684               27.03099619                1.00000000               -0.03533497               -0.03610692                0.12020184                0.00018488                0.00058716                0.00668060
               0.00374064                2.00169613               27.02239958                0.01000002               -0.02447659               -0.03241971                0.08051151               -0.01826584                0.00190522                0.07166958
               1.00349587                2.00046705               27.02232396                0.01000000               -0.06385135               -0.06656809                0.08277388               -0.03112715                0.05360254                0.06669800
               2.00246361                1.99892509               27.02328221                0.01000001               -0.10951412               -0.07297491                0.08975959                0.02444682                0.08610085                0.06871620
               3.00130559                1.99886894               27.02400889                0.01000000               -0.14402602               -0.04786926                0.09342821                0.19516914                0.07954899                0.02402190
               3.99958309                2.00041205               27.02498928                0.01000000               -0.18759422               -0.04028493                0.09679410                0.37350196                0.08940011                0.00353005
               4.99755370                2.00378774               27.02614210                0.01000001               -0.18825777               -0.08056576                0.09980914                0.51312132                0.08373497               -0.00906630
               5.99581793                2.00768637               27.02726708                0.01000000               -0.21734287               -0.22292906                0.10291047                0.54846931                0.08305428               -0.04684551
               6.99320684                2.01173208               27.02860454                0.01000000               -0.14661263               -0.13289982                0.10465507                0.32933636                0.03703471               -0.01313304
               7.99288568                2.01308739               27.02911371                0.09239422               -0.03282527               -0.03285083                0.10943230                0.00061634               -0.00565068               -0.00139814
               8.99255034                2.01443959               27.02959587                0.99999997               -0.03425668               -0.03422851                0.11422418                0.00005764               -0.00404861               -0.00163883
               9.99220055                2.01578758               27.03013795                1.00000000               -0.03497933               -0.03576565                0.11900765                0.00020670               -0.00120425                0.00660843
               0.00461027                3.00129091               27.02364789                0.01000000               -0.01932807               -0.03171906                0.08817549               -0.00415195                0.01004676                0.13923376
               1.00441699                2.99938640               27.02362943                0.01000001               -0.02550740               -0.13221532                0.09084247                0.03342777                0.01985705                0.11781989
               2.00410012                2.99803240               27.02381625                0.01000000               -0.06387684               -0.12640762                0.09367665                0.17248294                0.04319255                0.05659840
               3.00313945                2.99806950               27.02428718                0.01000000               -0.12060334               -0.10895823                0.09673524                0.34024275                0.06149951                0.02918623
               4.00168805                2.99971182               27.02494930                0.01000000               -0.16029482               -0.10037638                0.09946076                0.50039490                0.07140707                0.01383179
               4.99993355                3.00258878               27.02578550                0.01000000               -0.18919213               -0.13043965                0.10228532                0.61900727                0.07571432                0.00949739
               5.99790421                3.00621367               27.02673029                0.01000001               -0.20882067               -0.16190114                0.10525587                0.63491846                0.06571314                0.01755646
               6.99575714                3.00938941               27.02758743                0.01000001               -0.31763812               -0.19603360                0.10860603                0.66351789                0.04023100                0.01204367
               7.99155145                3.01276056               27.02824481                0.01000002               -0.22743172               -0.14602824                0.10519930                0.53864167               -0.00522558                0.04292791
               8.99120851                3.01409948               27.02866984                0.01000002               -0.03445479               -0.17229910                0.11302960                0.41155915               -0.00942795                0.05185993
               9.99086235                3.01543153               27.02925353                0.40881037               -0.03461538               -0.36448767                0.11781407                0.47782330               -0.00169977                0.04128344
               0.00746661                4.00106175               27.02491228                0.01000003               -0.00436774               -0.05483663                0.09556968                0.08598353               -0.00179930                0.14667777
               1.00742294                3.99782275               27.02460504                0.01000000               -0.01182233               -0.18699588                0.09733294                0.18746271                0.00743458                0.09431669
               2.00723017                3.99639694               27.02446228                0.01000000               -0.04959552               -0.18161743                0.09897689                0.35118467                0.02965153                0.05168489
               3.00643102                3.99668977               27.02460305                0.01000000               -0.10792274               -0.15591717                0.10085129                0.48678671                0.05538448                0.02429379
               4.00507171                3.99840453               27.02505545                0.01000000               -0.14995165               -0.14807295                0.10302669                0.60728626                0.07673352                0.01934362
               5.00343199                4.00117895               27.02576790                0.01000001               -0.16780226               -0.15440721                0.10555844                0.68677975                0.08867571                0.03077457
               6.00171567                4.00444835               27.02663213                0.01000001               -0.17508382               -0.18085479                0.10855021                0.73444624                0.08846808                0.05124625
               6.99993032                4.00781141               27.02751767                0.01000001               -0.13836112               -0.19896832                0.11150546                0.73360132                0.07436639                0.08000593
               7.99894844                4.01016682               27.02828604                0.01000000               -0.09098815               -0.26912435                0.11522809                0.78143227                0.05406415                0.10701247
               8.99811055                4.01099361               27.02885420                0.01000000                0.00722368               -0.31580496                0.11792083                0.55947186                0.02439069                0.12064440
               9.99909292                4.00849783               27.02909347                0.01000001                0.09823647               -0.49953672                0.12181330                0.42297229                0.01594230                0.07915849
               0.01280795                5.00019418               27.02626980                0.01000000                0.00231051               -0.22256298                0.10355433                0.25970029               -0.00361000                0.16856452
               1.01283105                4.99564649               27.02559381                0.01000000               -0.02755798               -0.20516006                0.10412148                0.40988726                0.00550794                0.09364478
               2.01225679                4.99440005               27.02507104                0.01000001               -0.09817262               -0.17993712                0.10451839                0.49776031                0.02905528                0.03148143
               3.01086760                4.99495116               27.02493204                0.01000000               -0.14560924               -0.18707957                0.10531054                0.59766651                0.06424074                0.01122710
               4.00934460                4.99675036               27.02527146                0.01000001               -0.16211349               -0.17021032                0.10707972                0.67152338                0.09950055                0.01738957
               5.00762533                4.99950063               27.02599736                0.01000001               -0.16919651               -0.16675562                0.10937976                0.71419729                0.12242591                0.04188507
               6.00596067                5.00259658               27.02697379                0.01000000               -0.14573198               -0.18343325                0.11234953                0.70144062                0.13066502                0.07887099
               7.00471069                5.00541005               27.02803964                0.01000000               -0.09813881               -0.23231816                0.11602791                0.65713457                0.12406896                0.12080616
               8.00399789                5.00737807               27.02900857                0.01000000               -0.03218761               -0.27300823                0.11984969                0.54771058                0.10077139                0.15859331
               9.00406694                5.00778338               27.02966376                0.01000000                0.01577328               -0.28950387                0.12342066                0.36963219                0.06017261                0.17495610
              10.00431336                5.00544080               27.02977439                0.01000000                0.02464238               -0.21032168                0.12674122                0.18067604                0.03667077                0.15061071
               0.02175600                5.99661049               27.02803466                0.55045101               -0.03411980               -0.19573399                0.11289548                0.30286962               -0.00320154                0.10078668
               1.02141481                5.99371954               27.02678088                0.01000001               -0.19376539               -0.11331919                0.11342077                0.38325415               -0.00378231                0.05286856
               2.01788070                5.99279820               27.02551805                0.01000000               -0.26903794               -0.19648483                0.10867566                0.54710388                0.01781671                0.00360471
               3.01603405                5.99294818               27.02517752                0.01000001               -0.19639960               -0.19980092                0.10999773                0.60747085                0.08732446               -0.00645460
               4.01395270                5.99500032               27.02553050                0.01000001               -0.20821649               -0.17637541                0.11113115                0.70818126                0.13730417                0.00645977
               5.01186972                5.99784384               27.02639404                0.01000000               -0.20588200               -0.14113598                0.11296997                0.68643039                0.17054843                0.04460997
               6.00983506                6.00077968               27.02763491                0.01000000               -0.17891039               -0.15349576                0.11667244                0.60070549                0.18699467                0.09500032
               7.00829151                6.00316505               27.02905692                0.01000000               -0.11528735               -0.19700133                0.12095764                0.47442269                0.18390450                0.15416107
               8.00752932                6.00470666               27.03039990                0.01000000               -0.04255187               -0.24351817                0.12557496                0.34224963                0.15536723                0.21271940
               9.00744047                6.00520353               27.03131013                0.01000002               -0.00688526               -0.23249670                0.12977863                0.18860751                0.09429273                0.25528693
              10.00739161                6.00429140               27.03139981                0.01000001               -0.00488603               -0.07611492                0.13309380                0.09097442                0.05551127                0.25457822
               0.02464723                6.99627950               27.02851700                0.99999999               -0.03388027               -0.03306029                0.11252686               -0.00051358               -0.00668997                0.02874668
               1.02430843                6.99338010               27.02711269                1.00000000               -0.03385009               -0.03363042                0.11245167               -0.00044568               -0.00784161                0.00651944
               2.02397023                6.99047036               27.02568695                0.01000000               -0.17467663               -0.13310011                0.11259607                0.32896564                0.04698459               -0.01497914
               3.02081489                6.99095514               27.02538325                0.01000001               -0.26788280               -0.28269440                0.11425199                0.65862787                0.12023838               -0.04619447
               4.01861257                6.99322285               27.02573137                0.01000001               -0.26201594               -0.12762230                0.11160281                0.71022194                0.18084676               -0.00889519
               5.01557457                6.99667791               27.02685677                0.01000000               -0.29795017               -0.07605341                0.11651037                0.63117184                0.22735404                0.04131159
               6.01265357                6.99952666               27.02848929                0.01000000               -0.26512050               -0.07608739                0.12073041                0.45345234                0.25383508                0.10010162
               7.01027216                7.00147002               27.03048852                0.01000000               -0.19245821               -0.11797086                0.12644023                0.25999320                0.26001249                0.17269811
               8.00880440                7.00250771               27.03250478                0.01000001               -0.10089074               -0.18097618                0.13266887                0.08693236                0.22939621                0.27844695
               9.00825435                7.00313345               27.03402390                0.01000002               -0.04236397               -0.19638342                0.13829641               -0.00050040                0.14171597                0.36593944
              10.00795712                7.00391850               27.03429718                0.01000002               -0.02972258               -0.04428694                0.14185345               -0.02196075                0.08059239                0.41956392
               0.02754453                7.99594928               27.02883873                1.00000000               -0.03294912               -0.03265645                0.10947134               -0.00030040               -0.00084960                0.02234804
               1.02721504                7.99304694               27.02737494                1.00000000               -0.03297792               -0.03293161                0.10985359                0.00012953               -0.00061489                0.00313931
               2.02688497                7.99013620               27.02591689                0.04533030               -0.03804630               -0.03306079                0.11017145                0.00392963                0.02758602               -0.01608051
               3.02645411                7.98729429               27.02502091                0.01000002               -0.22252989               -0.20332125                0.08700149                0.54869708                0.14445510               -0.09892892
               4.02243437                7.99244787               27.02586472                0.01000000               -0.41323836               -0.04548276                0.11490035                0.74450609                0.24079143               -0.01780021
               5.01818934                7.99632277               27.02728010                0.01000000               -0.41611831                0.02413729                0.11781996                0.51085680                0.27941933                0.03548514
               6.01411201                7.99925793               27.02936117                0.01000000               -0.38395085                0.02277579                0.12382063                0.29766117                0.31965513                0.08904724
               7.01051033                8.00080563               27.03204740                0.01000001               -0.32537350               -0.00529262                0.13167038                0.06281895                0.36677380                0.16083498
               8.00760454                8.00108714               27.03545116                0.01000002               -0.22453245               -0.06100111                0.14152164               -0.16440218                0.35197589                0.28490082
               9.00601968                8.00127587               27.03811937                0.01000007               -0.11111168               -0.13800243                0.14988711               -0.31291286                0.23423977                0.62493684
              10.00538230                8.00340566               27.03927317                0.01000000               -0.06373755               -0.20319297                0.15530200               -0.22681352                0.15880154                0.61327611
               0.03044592                8.99562637               27.02919260                1.00000000               -0.03218117               -0.03199131                0.10701609               -0.00031584                0.00236217                0.01902928
               1.03012411                8.99272147               27.02764151                0.99999998               -0.03222274               -0.03219037                0.10739322                0.00008885                0.00126470                0.00203817
               2.02980146                8.98980914               27.02606912                1.00000000               -0.03234741               -0.03234345                0.10783790                0.00005644               -0.00514840               -0.01186207
               3.02947716                8.98688872               27.02439317                0.01000000               -0.26636223               -0.03634238                0.10833241                0.42262360                0.14867049               -0.05710078
               4.02447422                8.99231320               27.02590342                0.01000000               -0.52477532                0.09835233                0.10821506                0.53761166                0.29309108               -0.01947340
               5.01898165                8.99716066               27.02759697                0.01000000               -0.51751454                0.11128808                0.11709916                0.32945035                0.30971931                0.02359248
               6.01412393                8.99998218               27.02998375                0.01000002               -0.46411545                0.09661674                0.12524607                0.14455737                0.36611396                0.05582135
               7.00969934                9.00136417               27.03329197                0.01000002               -0.45388999                0.08188916                0.13556633               -0.01743840                0.45188053                0.10159707
               8.00504613                9.00128769               27.03783752                0.01000003               -0.50108854                0.08532250                0.14889246               -0.19499743                0.68341540                0.19633964
               8.99967757                9.00037340               27.04623025                0.99999998               -0.29424286               -0.07097376                0.17122664               -0.36244707                0.42573809                0.40949161
               9.99916127                8.99985464               27.04610198                1.00000000               -0.05163007               -0.20373843                0.17324415               -0.33702569               -0.00035320                0.34472114
               0.03334801                9.99530946               27.02944706                1.00000000               -0.03139680               -0.03169119                0.10454349               -0.00042344                0.01322830                0.01411375
               1.03303404                9.99240313               27.02788380                1.00000000               -0.03145806               -0.03183407                0.10492647               -0.00001273                0.01660685                0.00073150
               2.03271885                9.98948933               27.02638843                1.00000000               -0.03157585               -0.03198133                0.10537766               -0.00004532                0.01661735               -0.00374126
               3.03240253                9.98656745               27.02482852                0.09440684               -0.49020945               -0.03212714                0.10577842                0.53881665                0.14557939               -0.00433141
               4.02291466                9.99441492               27.02591833                0.01000002               -0.76465797                0.21017244                0.10766805                0.44309862                0.26377888               -0.00783463
               5.01710937                9.99854853               27.02764859                0.01000000               -0.50575084                0.13878697                0.11465902                0.15153910                0.30233154                0.01875655
               6.01279964               10.00119027               27.03007518                0.01000001               -0.41266596                0.12080896                0.12461177                0.06231608                0.37134500                0.03689253
               7.00885605               10.00244342               27.03357970                0.01000002               -0.40521457                0.10792474                0.13666748               -0.00416346                0.50235629                0.06092886
               8.00469535               10.00279359               27.03898186                0.01000002               -0.43261315                0.15058968                0.15297902               -0.16442864                0.66643606                0.14358332
               9.00020378                9.99985639               27.04615757                1.00000000               -0.25080201               -0.05170118                0.17367749               -0.12051337                0.36549278                0.00029410
               9.99967931                9.99933089               27.04602929                0.99999999               -0.05244720               -0.05237506                0.17569506               -0.00074581                0.00033392               -0.00033424
               0.00128115                0.00232419               28.02340413                1.00000000               -0.02517331               -0.02448484                0.08229487                0.00030671               -0.00335814                0.00390034
               1.00102942                0.00106082               28.02340634                1.00000000               -0.02563136               -0.02544792                0.08538362                0.00047697               -0.00361339               -0.00127678
               2.00076853               -0.00020615               28.02340071                0.01000001               -0.01372120               -0.02641158                0.08847208                0.03307468                0.06309969               -0.00156268
               3.00075500               -0.00082493               28.02473924                0.01000000               -0.01467058               -0.01234436                0.09220683                0.02864474                0.13438286                0.00470520
               4.00047512                0.00060750               28.02626467                0.01000000               -0.06648008                0.00318469                0.09558342                0.10383080                0.15449775               -0.00728925
               4.99942540                0.00437095               28.02812888                0.01000000               -0.23503927                0.01857175                0.09816446                0.26956114                0.19112712               -0.01746099
               5.99577433                0.01173213               28.03059218                0.19560026               -0.19792619               -0.03029649                0.10086510                0.29693173                0.11010050               -0.00112692
               6.99546687                0.01316736               28.03135619                1.00000000               -0.03170638               -0.03166515                0.10625218                0.00076569                0.01571737               -0.00465413
               7.99514020                0.01460026               28.03192599                0.99999998               -0.03343196               -0.03326828                0.11139726                0.00079000                0.00799540               -0.00050422
               8.99479823                0.01602947               28.03253167                1.00000000               -0.03496684               -0.03481369                0.11656291                0.00079026                0.00791312                0.00094745
               9.99444087                0.01745617               28.03309833                0.99999999               -0.03573672               -0.03641439                0.12173025                0.00097008                0.00592207                0.00538824
               0.00254759                1.00207934               28.02329992                1.00000000               -0.02482332               -0.02431316                0.08118845               -0.00015837                0.00140807                0.00447741
               1.00229936                1.00080634               28.02329928                0.01000000               -0.02527205               -0.02530933                0.08427726                0.00001119                0.00349561               -0.00322205
               2.00204215                0.99952974               28.02333898                0.01000000               -0.08323666               -0.04232156                0.08736651               -0.00272899                0.07585910                0.04346714
               3.00063462                0.99905162               28.02478916                0.01000001               -0.15633320               -0.01329986                0.09228166                0.07934078                0.12755033                0.01353804
               3.99891548                1.00063934               28.02610316                0.01000000               -0.20379669               -0.00258635                0.09552168                0.22114630                0.11854811               -0.00239385
               4.99655869                1.00455666               28.02764456                0.01000000               -0.22850215               -0.01141675                0.09822956                0.42986189                0.14500824               -0.01310002
               5.99434544                1.01142917               28.02982316                0.01000001               -0.12591112               -0.17313043                0.09984272                0.39580685                0.08698978               -0.03860856
               6.99404047                1.01285071               28.03050358                0.99999999               -0.03141960               -0.03150899                0.10520670                0.00007969                0.00651081               -0.00452887
               7.99371705                1.01426758               28.03106691                0.99999999               -0.03311447               -0.03311477                0.11037252                0.00000546                0.00121806               -0.00040564
               8.99337818                1.01568133               28.03163867                0.99999999               -0.03465958               -0.03466263                0.11554647                0.00000438                0.00117419                0.00063695
               9.99302386                1.01709203               28.03220075                1.00000000               -0.03543197               -0.03625710                0.12071016                0.00015332                0.00059136                0.00667696
               0.00382398                2.00183792               28.02320254                0.01000000               -0.02447412               -0.03219139                0.08008200               -0.01981301                0.00190572                0.07617288
               1.00357924                2.00055463               28.02315369                0.01000000               -0.06776619               -0.06868194                0.08317024               -0.03354373                0.05583257                0.07132702
               2.00246866                1.99894742               28.02418333                0.01000001               -0.11735181               -0.07558577                0.09042441                0.02510396                0.08846184                0.07383337
               3.00123221                1.99890907               28.02494687                0.01000000               -0.15378292               -0.04884011                0.09410157                0.20733219                0.07961466                0.02830286
               3.99939300                2.00055577               28.02595962                0.01000000               -0.19996988               -0.04057655                0.09717217                0.39770658                0.08863441                0.00743661
               4.99723281                2.00414261               28.02714082                0.01000001               -0.19982893               -0.08377945                0.09977032                0.54685318                0.08248730               -0.00538149
               5.99539642                2.00826952               28.02829613                0.01000000               -0.23013751               -0.23570503                0.10271427                0.58455611                0.08089529               -0.04283042
               6.99263006                2.01253718               28.02964868                0.01000000               -0.15433664               -0.13955517                0.10416380                0.35074925                0.03532053               -0.01053059
               7.99230969                2.01393796               28.03020760                0.09427345               -0.03280970               -0.03304168                0.10934198                0.00076261               -0.00562451               -0.00092354
               8.99197387                2.01533621               28.03073963                0.99999996               -0.03435811               -0.03432268                0.11453491                0.00003804               -0.00403322               -0.00163243
               9.99162253                2.01673103               28.03133147                1.00000000               -0.03513366               -0.03596746                0.11968945                0.00017197               -0.00119972                0.00661448
               0.00471791                3.00143551               28.02452872                0.01000000               -0.01989316               -0.03045876                0.08793521               -0.00419312                0.01042355                0.14851593
               1.00451898                2.99943270               28.02453958                0.01000001               -0.02640624               -0.13802037                0.09112001                0.03574933                0.02005006                0.12672737
               2.00418979                2.99801802               28.02475657                0.01000000               -0.06730303               -0.13246615                0.09430514                0.18447175                0.04328078                0.06306472
               3.00317292                2.99807482               28.02525861                0.01000000               -0.12768559               -0.11426158                0.09745883                0.36262665                0.06111747                0.03503651
               4.00163608                2.99982781               28.02594769                0.01000000               -0.16954606               -0.10524119                0.10008146                0.53268941                0.07042825                0.01920029
               4.99978200                3.00288108               28.02681102                0.01000000               -0.19970398               -0.13745090                0.10257922                0.65835292                0.07455349                0.01458634
               5.99764200                3.00671507               28.02778722                0.01000001               -0.21974922               -0.17104473                0.10550658                0.67446922                0.06477797                0.02237438
               6.99538701                3.01005960               28.02867234                0.01000001               -0.33543638               -0.20730813                0.10970131                0.70450504                0.03849277                0.01698499
               7.99093327                3.01360674               28.02933695                0.01000002               -0.24005727               -0.15422152                0.11215355                0.57132253               -0.00830483                0.04723848
               8.99058587                3.01499487               28.02980258                0.01000001               -0.03478048               -0.18155719                0.11353849                0.43600040               -0.00989881                0.05513673
               9.99023766                3.01637268               28.03043603                0.44466797               -0.03482101               -0.38501923                0.11867238                0.50625768               -0.00171053                0.04403005
               0.00774574                4.00122875               28.02586750                0.01000003               -0.00340261               -0.05520190                0.09537967                0.09269141               -0.00207644                0.15659716
               1.00771172                3.99779422               28.02558022                0.01000000               -0.01148847               -0.19630031                0.09759765                0.20143996                0.00697670                0.10298444
               2.00751597                3.99629810               28.02545578                0.01000000               -0.05183829               -0.19077736                0.09958447                0.37553002                0.02900639                0.05939243
               3.00667495                3.99662384               28.02561705                0.01000000               -0.11377173               -0.16394749                0.10165149                0.51888293                0.05451599                0.03114969
               4.00524054                3.99845095               28.02609065                0.01000000               -0.15811682               -0.15599213                0.10383945                0.64626016                0.07556089                0.02611561
               5.00351261                4.00139359               28.02682849                0.01000001               -0.17666295               -0.16284258                0.10625755                0.72972013                0.08745815                0.03703792
               6.00170728                4.00484863               28.02772227                0.01000001               -0.18420635               -0.19097481                0.10917611                0.77909788                0.08755007                0.05696468
               6.99982849                4.00839102               28.02864146                0.01000000               -0.14532041               -0.21024929                0.11283548                0.77665651                0.07357883                0.08525456
               7.99880087                4.01085353               28.02944056                0.01000000               -0.09502763               -0.28485871                0.11697476                0.82778376                0.05320778                0.11272566
               8.99792793                4.01170507               28.03004149                0.01000000                0.00955997               -0.33448127                0.11979149                0.59292861                0.02330647                0.12651749
               9.99899207                4.00903065               28.03031955                0.01000001                0.10641362               -0.52903708                0.12322630                0.44827743                0.01540856                0.08418406
               0.01344079                5.00033147               28.02730516                0.01000000                0.00376388               -0.23608262                0.10340097                0.27899794               -0.00447801                0.17980283
               1.01347843                4.99550669               28.02663690                0.01000000               -0.02850079               -0.21466151                0.10437668                0.43962430                0.00452211                0.10399796
               2.01287077                4.99420248               28.02612017                0.01000001               -0.10403472               -0.18771191                0.10507240                0.53146074                0.02787318                0.03911505
               3.01139773                4.99479587               28.02598763                0.01000000               -0.15396235               -0.19635692                0.10604918                0.63630573                0.06312198                0.02029043
               4.00979152                4.99670797               28.02634960                0.01000001               -0.17095070               -0.17887384                0.10795971                0.71398860                0.09825234                0.02512638
               5.00797872                4.99962422               28.02709691                0.01000001               -0.17824970               -0.17555878                0.11030056                0.75872858                0.12091830                0.04916005
               6.00622653                5.00289557               28.02810386                0.01000001               -0.15317377               -0.19316748                0.11336535                0.74375204                0.12976380                0.08549541
               7.00491524                5.00585462               28.02920625                0.01000000               -0.10258197               -0.24511848                0.11701782                0.69576290                0.12380899                0.12691918
               8.00417489                5.00790957               28.03021597                0.01000000               -0.03239583               -0.28828139                0.12107524                0.57947219                0.10050171                0.16445512
               9.00426733                5.00830525               28.03090591                0.01000000                0.01885797               -0.30648809                0.12480648                0.39112184                0.05978476                0.18102353
              10.00455205                5.00579194               28.03105111                0.01000000                0.02847248               -0.22292749                0.12839815                0.19121380                0.03652647                0.15607807
               0.02297526                5.99650709               28.02916383                0.51994064               -0.03420596               -0.20768659                0.11277205                0.32646650               -0.00318741                0.10775405
               1.02263320                5.99350099               28.02791761                0.01000001               -0.20596243               -0.11729142                0.11376510                0.41007007               -0.00648932                0.05949909
               2.01885601                5.99254386               28.02660607                0.01000000               -0.28688137               -0.20343891                0.10897875                0.58140232                0.01575774                0.01103291
               3.01689557                5.99269670               28.02629719                0.01000001               -0.20820244               -0.20736669                0.11025993                0.64368618                0.08627227               -0.00172037
               4.01469196                5.99487347               28.02663885                0.01000001               -0.21979925               -0.18498487                0.11124177                0.75268102                0.13393857                0.01566099
               5.01249958                5.99788242               28.02753188                0.01000001               -0.21700171               -0.14741524                0.11400067                0.72841210                0.16903225                0.05211951
               6.01035193                6.00098528               28.02880842                0.01000000               -0.18849179               -0.16098469                0.11783454                0.63672679                0.18656538                0.10196487
               7.00872975                6.00348865               28.03027390                0.01000000               -0.12061208               -0.20735509                0.12218310                0.50173950                0.18445785                0.16095844
               8.00793968                6.00508790               28.03166265                0.01000000               -0.04308752               -0.25711728                0.12676800                0.36137125                0.15625453                0.21976965
               9.00786800                6.00557531               28.03261564                0.01000001               -0.00483586               -0.24601827                0.13118423                0.19894328                0.09489744                0.26265562
              10.00784297                6.00457210               28.03273991                0.01000001               -0.00250323               -0.08102605                0.13477728                0.09597864                0.05599860                0.26146812
               0.02598232                6.99617774               28.02964234                0.99999999               -0.03392601               -0.03295460                0.11242049               -0.00056124               -0.00724005                0.02957045
               1.02564306                6.99316086               28.02823954                1.00000000               -0.03396052               -0.03371259                0.11281067               -0.00046494               -0.00821453                0.00723188
               2.02530311                6.99013370               28.02681742                0.01000000               -0.18506063               -0.13734035                0.11340715                0.34838985                0.04078558               -0.01156233
               3.02194185                6.99064854               28.02639749                0.01000001               -0.28218410               -0.30518153                0.10834134                0.70017111                0.11520217               -0.03109685
               4.01965943                6.99300827               28.02686714                0.01000179               -0.27533491               -0.12943397                0.11156964                0.74963150                0.18208069               -0.00451226
               5.01643515                6.99667592               28.02802007                0.01000000               -0.31522953               -0.07815340                0.11695444                0.66872140                0.22575618                0.04893029
               6.01335484                6.99967588               28.02970573                0.01000000               -0.27938703               -0.07863531                0.12206642                0.47935065                0.25492529                0.10605312
               7.01084741                7.00170752               28.03176042                0.01000000               -0.20195907               -0.12362122                0.12784641                0.27400197                0.26229532                0.17934889
               8.00931566                7.00276722               28.03383871                0.01000001               -0.10427053               -0.19099115                0.13405877                0.09063573                0.23214058                0.28666219
               9.00876200                7.00338488               28.03541402                0.01000002               -0.04188068               -0.20801578                0.13969718               -0.00122181                0.14355418                0.37534289
              10.00847804                7.00417142               28.03572394                0.01000000               -0.02839556               -0.04726617                0.14343219               -0.02314548                0.08176742                0.42936578
               0.02899778                7.99584800               28.02993307                1.00000000               -0.03298412               -0.03260615                0.10933507               -0.00029894               -0.00087964                0.02216868
               1.02866794                7.99282674               28.02847543                1.00000000               -0.03308250               -0.03302732                0.11019081                0.00013726               -0.00064125                0.00314762
               2.02833613                7.98979706               28.02702289                0.06981643               -0.03217618               -0.03330645                0.11097827               -0.00821845                0.03392976               -0.01592237
               3.02802442                7.98659307               28.02625986                0.01000002               -0.23394606               -0.21108721                0.09337521                0.57954274                0.14210694               -0.09468567
               4.02365721                7.99228479               28.02689754                0.01000000               -0.44090039               -0.04381734                0.11011348                0.79255584                0.23358585               -0.01065502
               5.01920641                7.99631935               28.02847948                0.01000000               -0.43749347                0.02773195                0.11879939                0.53610792                0.28461838                0.03956575
               6.01490734                7.99941257               28.03060443                0.01000000               -0.40439818                0.02580991                0.12520574                0.31340703                0.32236027                0.09336480
               7.01111844                8.00101622               28.03337227                0.01000001               -0.34161547               -0.00450896                0.13311895                0.06444896                0.37264115                0.16627431
               8.00807503                8.00126808               28.03687273                0.01000002               -0.23395396               -0.06423857                0.14278018               -0.17582236                0.35819480                0.29268210
               9.00643937                8.00141499               28.03962373                0.01000007               -0.11340215               -0.14739529                0.15097492               -0.33053449                0.23866392                0.63979542
              10.00580699                8.00362677               28.04083163                0.01000000               -0.06323778               -0.21299519                0.15637104               -0.23892916                0.16222559                0.62679204
               0.03201886                8.99552562               28.03026210                1.00000000               -0.03221113               -0.03193948                0.10687290               -0.00031368                0.00238361                0.01916687
               1.03169675                8.99250032               28.02871713                0.99999998               -0.03232262               -0.03228763                0.10772669                0.00009308                0.00132718                0.00213301
               2.03137241                8.98946757               28.02715157                0.99999999               -0.03258929               -0.03258522                0.10865226                0.00006377               -0.00502195               -0.01171235
               3.03104497                8.98642679               28.02548303                0.01000001               -0.27940731               -0.02457352                0.10963532                0.43656972                0.14850330               -0.06325925
               4.02578427                8.99213193               28.02699425                0.01000000               -0.55077214                0.10327909                0.10972637                0.56455069                0.29578226               -0.01065078
               5.02002952                8.99723056               28.02877199                0.01000000               -0.54290798                0.11916119                0.11827022                0.34533539                0.31601137                0.02475144
               6.01492611                9.00019208               28.03124370                0.01000002               -0.48743216                0.10321795                0.12671723                0.15118503                0.37315015                0.05812150
               7.01028088                9.00161734               28.03465455                0.01000002               -0.47628330                0.08758516                0.13694853               -0.02033772                0.46140752                0.10470724
               8.00540044                9.00148245               28.03933172                0.01000003               -0.52441326                0.09067472                0.14993796               -0.20951816                0.69877390                0.20138509
               8.99979262                9.00043698               28.04794344                0.99999998               -0.30622731               -0.07476195                0.17141501               -0.38426999                0.43570669                0.41877293
               9.99927589                8.99991151               28.04783474                1.00000000               -0.05167218               -0.21194019                0.17330799               -0.35285341               -0.00035636                0.35226970
               0.03504210                9.99520921               28.03049156                1.00000000               -0.03142544               -0.03164033                0.10439513               -0.00049850                0.01331829                0.01423436
               1.03472785                9.99218099               28.02893448                1.00000000               -0.03155867               -0.03193294                0.10525567               -0.00008351                0.01670494                0.00080978
               2.03441093                9.98914535               28.02744597                0.99999999               -0.03181981               -0.03222180                0.10618777               -0.00011761                0.01669229               -0.00367659
               3.03409145                9.98610160               28.02589241                0.12175518               -0.51332347               -0.03251943                0.10706753                0.56489966                0.14615551               -0.00435486
               4.02414446                9.99435037               28.02699986                0.01000002               -0.80192430                0.22184457                0.10957973                0.46606818                0.26751373               -0.00374744
               5.01805297                9.99870257               28.02880117                0.01000000               -0.53000997                0.14720164                0.11629383                0.15867231                0.31040309                0.02005857
               6.01354426               10.00147693               28.03132795                0.01000001               -0.43158253                0.12848572                0.12614109                0.06508313                0.38146725                0.03796817
               7.00942132               10.00276793               28.03495258                0.01000001               -0.42396174                0.11505886                0.13798545               -0.00572434                0.51532354                0.06259205
               8.00506503               10.00308158               28.04051575                0.01000002               -0.45482074                0.15991256                0.15381799               -0.17595002                0.68342751                0.14688854
               9.00032490                9.99991975               28.04789403                1.00000000               -0.26320899               -0.05172256                0.17361545               -0.13145169                0.37464315                0.00029479
               9.99980085                9.99938797               28.04778532                0.99999997               -0.05240546               -0.05235442                0.17550841               -0.00068291                0.00033611               -0.00033573
               0.00122991                0.00247293               29.02422274                1.00000000               -0.02503571               -0.02424890                0.08142736                0.00046819               -0.00335850                0.00390073
               1.00097955                0.00116065               29.02425994                1.00000000               -0.02561408               -0.02546730                0.08533627                0.00060597               -0.00361355               -0.00127670
               2.00071763               -0.00015452               29.02428930                0.01000000               -0.01654108               -0.02668581                0.08924492                0.03310570                0.06314375               -0.00156277
               3.00064873               -0.00082271               29.02566371                0.01000000               -0.02066917               -0.00872721                0.09266706                0.02890203                0.13377841                0.00579704
               4.00030424                0.00070127               29.02722001                0.01000000               -0.07496669                0.00734220                0.09533588                0.11020965                0.15271962               -0.00631020
               4.99914940                0.00468521               29.02910651                0.01000097               -0.25341663                0.02409482                0.09718009                0.28730267                0.18852930               -0.01647678
               5.99523591                0.01249490               29.03159391                0.18709069               -0.21090455               -0.02987719                0.09940700                0.31707006                0.10875957               -0.00114878
               6.99493131                0.01397855               29.03241439                1.00000000               -0.03146634               -0.03142094                0.10538897                0.00088676                0.01585103               -0.00467835
               7.99460658                0.01545944               29.03303767                0.99999998               -0.03329837               -0.03315802                0.11093646                0.00085542                0.00798392               -0.00050598
               8.99426534                0.01693703               29.03369698                1.00000000               -0.03495245               -0.03482053                0.11650403                0.00084539                0.00790219                0.00094929
               9.99390754                0.01841265               29.03431730                1.00000000               -0.03578024               -0.03654048                0.12207470                0.00099512                0.00590348                0.00536043
               0.00254687                1.00223044               29.02410857                1.00000000               -0.02475363               -0.02410750                0.08054175               -0.00012000                0.00140867                0.00447791
               1.00229934                1.00090598               29.02414292                0.01000000               -0.02532554               -0.02536816                0.08445072                0.00001775                0.00349620               -0.00322206
               2.00204036                0.99957862               29.02421762                0.01000000               -0.08947394               -0.04306555                0.08835997               -0.00469596                0.07646210                0.04540082
               3.00050986                0.99909002               29.02571482                0.01000001               -0.16939888               -0.01058756                0.09281979                0.08344622                0.12739547                0.01575347
               3.99865238                1.00077469               29.02705873                0.01000000               -0.21921260                0.00074939                0.09546904                0.23468598                0.11689139               -0.00025728
               4.99612561                1.00492615               29.02862424                0.01000000               -0.24462214               -0.00857769                0.09756178                0.45694924                0.14198797               -0.01095229
               5.99375994                1.01219613               29.03081559                0.01000001               -0.13338510               -0.18146009                0.09855347                0.42151210                0.08505204               -0.03651170
               6.99345790                1.01366434               29.03155223                0.99999999               -0.03120235               -0.03129188                0.10450691                0.00011065                0.00663966               -0.00454913
               7.99313590                1.01512786               29.03216926                0.99999996               -0.03303589               -0.03302817                0.11009093                0.00000750                0.00122985               -0.00039513
               8.99279719                1.01658883               29.03279477                0.99999999               -0.03470130               -0.03469999                0.11566629               -0.00000751                0.00118026                0.00065493
               9.99244187                1.01804725               29.03341039                1.00000000               -0.03553170               -0.03640291                0.12121692                0.00010866                0.00058820                0.00663895
               0.00387644                2.00199078               29.02400122                0.01000000               -0.02447150               -0.03170870                0.07965604               -0.02124199                0.00190561                0.08063032
               1.00363173                2.00065329               29.02398737                0.01000000               -0.07183891               -0.07057766                0.08356481               -0.03579048                0.05776737                0.07575419
               2.00243966                1.99898417               29.02509069                0.01000001               -0.12550684               -0.07786898                0.09102613                0.02592981                0.09026633                0.07848516
               3.00112159                1.99896554               29.02589092                0.01000000               -0.16389156               -0.04949846                0.09465867                0.21964537                0.07894286                0.03240342
               3.99916183                2.00071626               29.02693272                0.01000000               -0.21273244               -0.04049496                0.09735818                0.42199687                0.08692659                0.01139361
               4.99686694                2.00451365               29.02813750                0.01000001               -0.21169305               -0.08666614                0.09948694                0.58044656                0.08030077               -0.00159352
               5.99492797                2.00886570               29.02932137                0.01000000               -0.24325761               -0.24805573                0.10208453                0.62087802                0.07791390               -0.03853349
               6.99200179                2.01335271               29.03068782                0.01000000               -0.16228639               -0.14639994                0.10363250                0.37262715                0.03335523               -0.00655801
               7.99168224                2.01479888               29.03130055                0.09658988               -0.03279939               -0.03277482                0.10925481                0.00047701               -0.00557239                0.00245283
               8.99134580                2.01624303               29.03188657                0.99999997               -0.03446855               -0.03442347                0.11487451               -0.00000111               -0.00400804               -0.00158498
               9.99099287                2.01768459               29.03253174                1.00000000               -0.03529287               -0.03615983                0.12034155                0.00012492               -0.00120187                0.00656666
               0.00479702                3.00159627               29.02540660                0.01000000               -0.02068853               -0.02867643                0.08759503               -0.00402443                0.01071704                0.15774150
               1.00459014                2.99949442               29.02545183                0.01000001               -0.02751608               -0.14340845                0.09127527                0.03837169                0.02008351                0.13528848
               2.00424670                2.99802124               29.02570235                0.01000000               -0.07097286               -0.13814909                0.09478511                0.19697121                0.04301972                0.06919416
               3.00317068                2.99810005               29.02623636                0.01000000               -0.13512446               -0.11908970                0.09799494                0.38542138                0.06018984                0.04060262
               4.00154421                2.99996479               29.02695093                0.01000000               -0.17927945               -0.10956616                0.10046977                0.56512193                0.06864746                0.02457873
               4.99958509                3.00319283               29.02783709                0.01000000               -0.21028837               -0.14399197                0.10275465                0.69764096                0.07221794                0.01985012
               5.99733845                3.00723502               29.02884043                0.01000001               -0.23039110               -0.17973472                0.10438509                0.71346171                0.06308728                0.02738005
               6.99497727                3.01073634               29.02978146                0.01000001               -0.35416679               -0.21850544                0.10992021                0.74595818                0.03985658                0.02375528
               7.99025511                3.01447236               29.03048788                0.01000002               -0.25329118               -0.16282834                0.12483791                0.60471739               -0.00890709                0.04971775
               8.98991145                3.01590036               29.03094061                0.01000000               -0.03469308               -0.19112007                0.11412818                0.46017898               -0.01318349                0.05914607
               9.98956125                3.01732405               29.03162698                0.49157323               -0.03501983               -0.40590827                0.11946924                0.53497367               -0.00172277                0.04684343
               0.00799964                4.00141725               29.02681987                0.01000003               -0.00254586               -0.05511824                0.09501635                0.09968104               -0.00239228                0.16639863
               1.00797418                3.99778512               29.02655699                0.01000000               -0.01130928               -0.20526843                0.09766762                0.21601403                0.00639631                0.11139458
               2.00777346                3.99622119               29.02645397                0.01000000               -0.05438568               -0.19945894                0.09994968                0.40077227                0.02805937                0.06670617
               3.00688647                3.99658375               29.02663608                0.01000000               -0.12009829               -0.17116116                0.10213723                0.55168372                0.05325414                0.03786768
               4.00537149                3.99852493               29.02713224                0.01000000               -0.16684684               -0.16300497                0.10436599                0.68531082                0.07385057                0.03252392
               5.00354953                4.00163381               29.02789305                0.01000001               -0.18588969               -0.17061921                0.10661911                0.77252088                0.08535772                0.04348393
               6.00165370                4.00527101               29.02881565                0.01000001               -0.19329653               -0.20073356                0.10920691                0.82284779                0.08567647                0.06342535
               6.99968360                4.00898260               29.02977438                0.01000008               -0.15205645               -0.22101727                0.11343803                0.81843924                0.07253314                0.09074139
               7.99861257                4.01154231               29.03062553                0.01000000               -0.09929555               -0.30136393                0.11803275                0.87455935                0.05109354                0.11510054
               8.99769769                4.01242063               29.03125003                0.01000000                0.01161968               -0.35353269                0.12178360                0.62700827                0.02092885                0.13293232
               9.99884496                4.00956643               29.03155799                0.01000004                0.11472700               -0.55910253                0.12391488                0.47419155                0.01411569                0.08962390
               0.01405492                5.00049390               29.02833781                0.01000000                0.00515677               -0.24944302                0.10300800                0.29876784               -0.00538426                0.19093014
               1.01410648                4.99538905               29.02768135                0.01000000               -0.02956997               -0.22391169                0.10440061                0.47033779                0.00334195                0.11418967
               2.01346352                4.99403207               29.02717248                0.01000001               -0.11029352               -0.19497919                0.10531804                0.56652918                0.02652376                0.04623013
               3.01190061                4.99467683               29.02705302                0.01000000               -0.16315752               -0.20399153                0.10645205                0.67564332                0.06161155                0.02681667
               4.01020037                4.99670469               29.02743066                0.01000001               -0.18055886               -0.18644690                0.10834990                0.75644580                0.09652566                0.03224147
               5.00828944                4.99978045               29.02820337                0.01000001               -0.18768760               -0.18353731                0.11088599                0.80234580                0.11929460                0.05605251
               6.00644661                5.00322034               29.02924110                0.01000000               -0.16073425               -0.20269509                0.11403602                0.78531004                0.12830079                0.09260696
               7.00507475                5.00631599               29.03037999                0.01000000               -0.10691750               -0.25762790                0.11741231                0.73337836                0.12292330                0.13384669
               8.00430826                5.00844509               29.03143008                0.01000001               -0.03236286               -0.30314992                0.12085757                0.61069058                0.10027242                0.17085117
               9.00442749                5.00882971               29.03215989                0.01000000                0.02226120               -0.32360470                0.12553689                0.41301945                0.05971917                0.18725328
              10.00475349                5.00614200               29.03234236                0.01000000                0.03259946               -0.23592484                0.12971560                0.20213341                0.03661739                0.16201997
               0.02418470                5.99642839               29.03029010                0.48948321               -0.03419194               -0.21961172                0.11229653                0.35050478               -0.00318295                0.11469215
               1.02384278                5.99330688               29.02905618                0.01000001               -0.21842163               -0.12110668                0.11376797                0.43778911               -0.00934452                0.06613954
               2.01981627                5.99232161               29.02769762                0.01000000               -0.30580336               -0.21048861                0.10928804                0.61807553                0.01151734                0.01814598
               3.01772671                5.99250392               29.02738272                0.01000001               -0.22097378               -0.21531459                0.10953778                0.68214963                0.08481482                0.00687606
               4.01539679                5.99479599               29.02775533                0.01000001               -0.23229577               -0.19153884                0.11157405                0.79451899                0.13302961                0.02074908
               5.01308080                5.99796307               29.02867406                0.01000002               -0.22862187               -0.15357643                0.11461845                0.76913926                0.16789863                0.05912376
               6.01082435                6.00121710               29.02999160                0.01000000               -0.19771835               -0.16843184                0.11872477                0.67160431                0.18634499                0.10891696
               7.00912643                6.00383004               29.03150058                0.01000000               -0.12558428               -0.21786846                0.12314709                0.52862722                0.18470523                0.16841376
               8.00831267                6.00547931               29.03293526                0.01000000               -0.04326317               -0.27071026                0.12790750                0.38019261                0.15699515                0.22760023
               9.00826117                6.00594854               29.03393382                0.01000007               -0.00248128               -0.25987431                0.13246382                0.20906678                0.09562083                0.27052338
              10.00826304                6.00484793               29.03409535                0.01000001                0.00018755               -0.08639530                0.13627896                0.10089646                0.05657907                0.26868239
               0.02730803                6.99610167               29.03076541                0.99999999               -0.03389760               -0.03277476                0.11206784               -0.00059895               -0.00779308                0.03039400
               1.02696905                6.99296692               29.02936891                1.00000000               -0.03400185               -0.03372905                0.11295105               -0.00048817               -0.00859218                0.00795155
               2.02662799                6.98982229               29.02795509                0.01000000               -0.19499182               -0.14190038                0.11402795                0.36832402                0.04090362               -0.00798170
               3.02306922                6.99037054               29.02755008                0.01000001               -0.29981973               -0.30944391                0.11146277                0.73732501                0.11143183               -0.04795946
               4.02063160                6.99287391               29.02796276                0.01000002               -0.29090532               -0.13441660                0.11100641                0.79140288                0.17851213                0.00339166
               5.01725111                6.99670892               29.02919586                0.01000000               -0.33099367               -0.08004494                0.11773986                0.70359074                0.22777749                0.05411922
               6.01401172                6.99985171               29.03093061                0.01000000               -0.29330116               -0.08149222                0.12307632                0.50458850                0.25622247                0.11228873
               7.01138509                7.00195862               29.03304545                0.01000000               -0.21090525               -0.12965250                0.12911857                0.28737989                0.26467105                0.18624682
               8.00979362                7.00303088               29.03518595                0.01000001               -0.10724393               -0.20157707                0.13538672                0.09389526                0.23471479                0.29519337
               9.00924021                7.00363222               29.03681784                0.01000002               -0.04104938               -0.22030927                0.14110197               -0.00219487                0.14526913                0.38483791
              10.00897263                7.00441409               29.03716582                0.01000001               -0.02675771               -0.05086190                0.14497087               -0.02441421                0.08286264                0.43908545
               0.03044222                7.99577290               29.03102543                1.00000000               -0.03298244               -0.03252275                0.10907333               -0.00028393               -0.00090995                0.02198157
               1.03011239                7.99263230               29.02957876                1.00000000               -0.03315436               -0.03309210                0.11041962                0.00014114               -0.00067048                0.00315358
               2.02977913                7.98948360               29.02813646                0.07815141               -0.03454004               -0.03352441                0.11169369               -0.00050661                0.00913235               -0.01575438
               3.02942159                7.98631504               29.02688841                0.01000002               -0.24463310               -0.21897804                0.08125570                0.60796949                0.13789303               -0.08243140
               4.02488647                7.99210766               29.02806699                0.01000000               -0.46233869               -0.04380274                0.11416495                0.82582147                0.25700437               -0.00790662
               5.02017482                7.99636217               29.02965609                0.01000001               -0.46100248                0.03125393                0.11913344                0.56404596                0.28540304                0.04367738
               6.01566642                7.99958726               29.03186528                0.01000000               -0.42399816                0.02846939                0.12653203                0.32837352                0.32689448                0.09779176
               7.01169486                8.00123699               29.03470977                0.01000001               -0.35747207               -0.00403104                0.13446216                0.06574471                0.37817364                0.17180789
               8.00851698                8.00144777               29.03830677                0.01000002               -0.24304001               -0.06792555                0.14401830               -0.18777710                0.36421834                0.30045739
               9.00683405                8.00154235               29.04113887                0.01000000               -0.11529842               -0.15768284                0.15207838               -0.34843010                0.24289069                0.65425840
              10.00621101                8.00383069               29.04240059                0.01000000               -0.06230464               -0.22338757                0.15743929               -0.25122088                0.16548813                0.63969566
               0.03358354                8.99545121               29.03133006                1.00000000               -0.03223637               -0.03188333                0.10670570               -0.00029725                0.00240648                0.01930588
               1.03326118                8.99230508               29.02979605                0.99999998               -0.03242086               -0.03238389                0.10805339                0.00009629                0.00139075                0.00223204
               2.03293512                8.98915181               29.02824217                0.99999999               -0.03283169               -0.03283004                0.10947240                0.00007628               -0.00489464               -0.01154875
               3.03260454                8.98599098               29.02658588                0.01000001               -0.29171116               -0.03267342                0.11095043                0.45981042                0.14808472               -0.03826292
               4.02710090                8.99199786               29.02809795                0.01000000               -0.57760553                0.11105457                0.11176842                0.59063652                0.29877587               -0.01023339
               5.02105243                8.99733400               29.02996238                0.01000000               -0.56982648                0.12645838                0.11997623                0.36188810                0.32212423                0.02734542
               6.01570437                9.00042110               29.03251810                0.01000002               -0.51064806                0.10969377                0.12825262                0.15775830                0.38006509                0.06035976
               7.01083947                9.00187800               29.03603094                0.01000002               -0.49858272                0.09310980                0.13834377               -0.02344323                0.47062268                0.10789292
               8.00573272                9.00167237               29.04083628                0.01000003               -0.54753940                0.09577635                0.15097688               -0.22469776                0.71352862                0.20635692
               8.99988868                9.00047856               29.04965855                0.99999998               -0.31805911               -0.07906208                0.17161025               -0.40665015                0.44531722                0.42773688
               9.99937153                8.99994634               29.04956814                1.00000000               -0.05171492               -0.22038377                0.17336936               -0.36860018               -0.00035968                0.35945104
               0.03672854                9.99513523               29.03153496                1.00000000               -0.03148151               -0.03159837                0.10432494               -0.00056026                0.01340972                0.01435745
               1.03641373                9.99198463               29.02998891                1.00000000               -0.03168931               -0.03204540                0.10568037               -0.00015653                0.01680623                0.00089121
               2.03609476                9.98882700               29.02851218                0.99999999               -0.03209909               -0.03248083                0.10711037               -0.00018922                0.01677288               -0.00360241
               3.03577175                9.98566157               29.02696987                0.15033990               -0.53692895               -0.03294053                0.10848853                0.59180822                0.14724045               -0.00436703
               4.02535618                9.99432875               29.02810993                0.01000000               -0.83912012                0.23308942                0.11231461                0.48701603                0.27089057                0.00020617
               5.01898934                9.99889134               29.02997446                0.01000000               -0.55392998                0.15573380                0.11862022                0.16631032                0.31720688                0.02107855
               6.01427758               10.00178114               29.03259801                0.01000001               -0.45073138                0.13600400                0.12800676                0.06771352                0.39083367                0.03916146
               7.00997472               10.00309919               29.03633941                0.01000004               -0.44275585                0.12211855                0.13944199               -0.00736731                0.52768183                0.06426064
               8.00542246               10.00336330               29.04205822                0.01000002               -0.47738192                0.16909282                0.15469763               -0.18792921                0.69964091                0.15006955
               9.00042708                9.99996111               29.04962988                1.00000000               -0.27595084               -0.05174506                0.17355589               -0.14317440                0.38339922                0.00029594
               9.99990344                9.99942302               29.04953945                1.00000000               -0.05236334               -0.05233243                0.17531498               -0.00061825                0.00033781               -0.00033757
               0.00113958                0.00263054               30.02503267                1.00000000               -0.02489820               -0.02401301                0.08055917                0.00062941               -0.00335854                0.00390118
               1.00089059                0.00126934               30.02511307                1.00000000               -0.02559684               -0.02548653                0.08528868                0.00073504               -0.00361365               -0.00127670
               2.00062764               -0.00009404               30.02518561                0.01000000               -0.01953684               -0.02696017                0.09001806                0.03315808                0.06261224               -0.00156284
               3.00049986               -0.00081121               30.02659259                0.01000003               -0.02704644               -0.00493134                0.09316832                0.02905022                0.13207620                0.00674909
               4.00008671                0.00080384               30.02817139                0.01000000               -0.08388890                0.01176411                0.09457250                0.11657566                0.14987299               -0.00544722
               4.99882208                0.00500595               30.03007248                0.01000001               -0.27225371                0.03006730                0.09573186                0.30504816                0.18541267               -0.01532694
               5.99464164                0.01326579               30.03258032                0.17857600               -0.22409741               -0.02943118                0.09793299                0.33729402                0.10714659               -0.00114860
               6.99434013                0.01479812               30.03346397                1.00000000               -0.03121725               -0.03118167                0.10454061                0.00100516                0.01610698               -0.00471818
               7.99401729                0.01632696               30.03414472                0.99999998               -0.03317397               -0.03301727                0.11050649                0.00092020                0.00796068               -0.00049614
               8.99367665                0.01785288               30.03486175                1.00000000               -0.03494921               -0.03480438                0.11647616                0.00091213                0.00789130                0.00095439
               9.99331831                0.01937720               30.03553983                1.00000000               -0.03583445               -0.03668353                0.12245152                0.00103875                0.00588857                0.00531265
               0.00250707                1.00239041               30.02491075                1.00000000               -0.02468362               -0.02390191                0.07989482               -0.00008169                0.00140885                0.00447836
               1.00226023                1.00101447               30.02498829                0.01000000               -0.02537892               -0.02542686                0.08462418                0.00002384                0.00349670               -0.00322212
               2.00199949                0.99963636               30.02510618                0.01000000               -0.09594081               -0.04367836                0.08935387               -0.00660988                0.07641179                0.04701760
               3.00034142                0.99913948               30.02664556                0.01000001               -0.18278009               -0.00765976                0.09334742                0.08771526                0.12652632                0.01773212
               3.99834389                1.00092148               30.02801254                0.01000000               -0.23499154                0.00438006                0.09507925                0.24826906                0.11421019                0.00196084
               4.99564159                1.00530662               30.02959579                0.01000000               -0.26126995               -0.00540284                0.09653298                0.48390474                0.13835317               -0.00860359
               5.99311849                1.01297148               30.03179423                0.01000001               -0.14109960               -0.18958823                0.09719267                0.44712172                0.08275210               -0.03424687
               6.99281959                1.01448630               30.03259372                0.99999999               -0.03096905               -0.03106635                0.10379415                0.00015803                0.00689102               -0.00459709
               7.99249911                1.01599679               30.03326872                0.99999859               -0.03294707               -0.03292842                0.10975555                0.00003690                0.00124981               -0.00038574
               8.99216065                1.01750484               30.03395200                0.99999999               -0.03473661               -0.03471068                0.11575050               -0.00002794                0.00118658                0.00069665
               9.99180438                1.01901036               30.03462509                1.00000000               -0.03562758               -0.03657126                0.12173884                0.00004456                0.00058475                0.00655423
               0.00388981                2.00215250               30.02479566                0.01000000               -0.02446910               -0.03093576                0.07923044               -0.02243400                0.00190580                0.08499803
               1.00364512                2.00076080               30.02482499                0.01000000               -0.07596896               -0.07228148                0.08395942               -0.03777229                0.05938502                0.07992361
               2.00237043                1.99903239               30.02600385                0.01000001               -0.13380425               -0.07988625                0.09161905                0.02704805                0.09156434                0.08252921
               3.00096904                1.99903560               30.02684005                0.01000000               -0.17427412               -0.04988807                0.09507636                0.23228844                0.07756883                0.03605784
               3.99888495                2.00089144               30.02790678                0.01000000               -0.22594286               -0.04008073                0.09729314                0.44633471                0.08468330                0.01541428
               4.99645018                2.00489789               30.02913056                0.01000001               -0.22402808               -0.08920467                0.09924775                0.61389292                0.07740616                0.00257998
               5.99440439                2.00947402               30.03033782                0.01000000               -0.25661011               -0.26015456                0.10143023                0.65598907                0.07392591               -0.03507944
               6.99131798                2.01417679               30.03172133                0.01000000               -0.17024500               -0.15190791                0.10300192                0.39557314                0.03131004               -0.00341708
               7.99099949                2.01566839               30.03239269                0.10101758               -0.03277302               -0.03603361                0.10919238                0.00393725               -0.00551611                0.01555205
               8.99066252                2.01715867               30.03303712                0.99999997               -0.03456711               -0.03452507                0.11521397               -0.00000838               -0.00396537               -0.00141692
               9.99030815                2.01864577               30.03373830                1.00000000               -0.03543694               -0.03635341                0.12095764                0.00001482               -0.00121671                0.00641056
               0.00484179                3.00177169               30.02628063                0.01000000               -0.02168920               -0.02635000                0.08718446               -0.00359299                0.01093513                0.16679501
               1.00462490                2.99956884               30.02636509                0.01000001               -0.02880669               -0.14841021                0.09133365                0.04136804                0.02000651                0.14332549
               2.00426566                2.99803863               30.02665228                0.01000000               -0.07483806               -0.14351502                0.09515263                0.21002587                0.04251239                0.07474885
               3.00312814                2.99814172               30.02721851                0.01000000               -0.14286816               -0.12355361                0.09835452                0.40869788                0.05893037                0.04576526
               4.00140829                3.00011987               30.02795709                0.01000000               -0.18956359               -0.11348722                0.10081873                0.59782142                0.06656319                0.02977720
               4.99933686                3.00352253               30.02886611                0.01000000               -0.22244599               -0.15004492                0.10301263                0.73673481                0.06855251                0.02513575
               5.99695937                3.00776838               30.02987492                0.01000001               -0.24000886               -0.18787811                0.10475136                0.75303528                0.05870278                0.03269119
               6.99453669                3.01144814               30.03087075                0.01000001               -0.36816987               -0.22847404                0.10195918                0.78295115                0.04120556                0.02962273
               7.98959597                3.01527612               30.03183371                0.01000002               -0.26767912               -0.17275226                0.15992465                0.63569017               -0.03035262                0.06899675
               8.98918310                3.01681434               30.03208515                0.01000000               -0.03827553               -0.20071168                0.11483841                0.48793560               -0.02595660                0.06390521
               9.98883046                3.01828330               30.03282541                0.51657837               -0.03526402               -0.42690134                0.12011028                0.56441097               -0.00164075                0.04909270
               0.00822365                4.00162550               30.02776782                0.01000003               -0.00181087               -0.05459266                0.09450784                0.10692218               -0.00272277                0.17591294
               1.00820554                3.99779260               30.02753357                0.01000000               -0.01127887               -0.21387721                0.09756932                0.23111454                0.00572705                0.11938093
               2.00799808                3.99616209               30.02745478                0.01000000               -0.05718927               -0.20776040                0.10014697                0.42679228                0.02692466                0.07341508
               3.00706176                3.99656453               30.02765980                0.01000000               -0.12687519               -0.17780768                0.10250214                0.58516290                0.05172492                0.04371802
               4.00546057                3.99862170               30.02817797                0.01000000               -0.17627000               -0.16950794                0.10480704                0.72479325                0.07186049                0.03845570
               5.00353636                4.00189699               30.02896087                0.01000001               -0.19605461               -0.17791281                0.10719113                0.81560335                0.08266401                0.04959819
               6.00153948                4.00571646               30.02990641                0.01000001               -0.20335457               -0.20983122                0.10923999                0.86834339                0.08259431                0.07097605
               6.99946927                4.00960731               30.03091022                0.01000003               -0.15961911               -0.23213948                0.11416434                0.85724660                0.06828121                0.09994479
               7.99834710                4.01221335               30.03180122                0.01000000               -0.10276090               -0.31296248                0.11011469                0.91707980                0.05162733                0.11701453
               8.99741405                4.01314444               30.03247716                0.01000000                0.01556765               -0.37239076                0.12158561                0.66303631                0.02059180                0.14043622
               9.99865845                4.01010775               30.03279785                0.01000000                0.12444007               -0.58941578                0.12442457                0.50078103                0.01198828                0.09525732
               0.01464604                5.00067984               30.02936532                0.01000000                0.00645576               -0.26260812                0.10236791                0.31893560               -0.00628255                0.20173326
               1.01471060                4.99529130               30.02872491                0.01000000               -0.03082342               -0.23281869                0.10419898                0.50184136                0.00205348                0.12401530
               2.01402957                4.99388342               30.02822653                0.01000001               -0.11694051               -0.20189594                0.10543295                0.60280036                0.02469966                0.05278567
               3.01237179                4.99458557               30.02811667                0.01000000               -0.17289399               -0.21136814                0.10664059                0.71593404                0.05994685                0.03311832
               4.01057169                4.99672971               30.02851660                0.01000001               -0.19088097               -0.19326747                0.10883390                0.79896723                0.09510763                0.03807157
               5.00855417                4.99996427               30.02931463                0.01000001               -0.19778846               -0.19122960                0.11153155                0.84634909                0.11771920                0.06246755
               6.00661592                5.00357176               30.03038458                0.01000008               -0.16847182               -0.21211770                0.11481284                0.82769511                0.12641195                0.10004027
               7.00518473                5.00680535               30.03155449                0.01000000               -0.11077391               -0.27079235                0.11775228                0.77280197                0.12093098                0.14190028
               8.00440044                5.00901687               30.03263313                0.01000001               -0.03176499               -0.31646566                0.12184764                0.64302111                0.09971262                0.17971047
               9.00454943                5.00936652               30.03341665                0.01000000                0.02595089               -0.34083090                0.12609090                0.43421910                0.06119515                0.19440325
              10.00491946                5.00649498               30.03364542                0.01000003                0.03700306               -0.24927344                0.13099386                0.21249735                0.03785025                0.16887460
               0.02537945                5.99637334               30.03140976                0.45915688               -0.03406592               -0.23147737                0.11143414                0.37496017               -0.00318843                0.12148896
               1.02503879                5.99313622               30.03019297                0.01000001               -0.23098151               -0.12469920                0.11339448                0.46608876               -0.01222038                0.07268642
               2.02075982                5.99212417               30.02879183                0.01000000               -0.32523163               -0.21740983                0.10954423                0.65556890                0.00786028                0.02476714
               3.01853416                5.99233716               30.02848795                0.01000001               -0.23493028               -0.22009544                0.11035316                0.72116015                0.08324372                0.01006117
               4.01606121                5.99475635               30.02887033                0.01000001               -0.24564329               -0.19826318                0.11200731                0.83737172                0.13173312                0.02547578
               5.01362129                5.99807240               30.02982425                0.01000001               -0.24044559               -0.15939989                0.11550329                0.80932192                0.16778137                0.06493748
               6.01125230                6.00147411               30.03118291                0.01000000               -0.20705449               -0.17618937                0.11972320                0.70664185                0.18641504                0.11568984
               7.00948020                6.00419146               30.03273684                0.01000000               -0.13029751               -0.22910464                0.12437529                0.55553443                0.18518748                0.17628213
               8.00864635                6.00588404               30.03422080                0.01000000               -0.04299404               -0.28586445                0.12921919                0.39867354                0.15786053                0.23659896
               9.00862032                6.00632782               30.03526491                0.01000002                0.00025662               -0.27449643                0.13398067                0.21881612                0.09629828                0.27898030
              10.00865148                6.00512228               30.03546549                0.01000000                0.00311632               -0.09235449                0.13797313                0.10543988                0.05725121                0.27623426
               0.02861947                6.99605029               30.03188370                0.99999999               -0.03379347               -0.03251740                0.11146392               -0.00062395               -0.00833398                0.03123125
               1.02828154                6.99279732               30.03049856                1.00000000               -0.03397322               -0.03367753                0.11286835               -0.00051759               -0.00896513                0.00869725
               2.02794001                6.98953523               30.02909798                0.01000000               -0.20593621               -0.14646403                0.11445227                0.39178258                0.03671506               -0.00434268
               3.02416281                6.99018366               30.02862674                0.01000001               -0.31780596               -0.32142604                0.10968917                0.77734013                0.10789035               -0.04980394
               4.02158389                6.99276445               30.02908727                0.01000001               -0.30699834               -0.13824395                0.11339831                0.82805122                0.18108057                0.00570486
               5.01802285                6.99677627               30.03037487                0.01000000               -0.34770964               -0.08230093                0.11866251                0.73892107                0.22967256                0.05948329
               6.01462970                7.00004797               30.03216726                0.01000000               -0.30686779               -0.08465895                0.12429216                0.52931149                0.25842732                0.11800755
               7.01188549                7.00222326               30.03434279                0.01000000               -0.21960688               -0.13622878                0.13044653                0.30059197                0.26726498                0.19313537
               8.01023756                7.00329958               30.03654645                0.01000001               -0.10989908               -0.21285690                0.13682677                0.09686452                0.23735965                0.30358734
               9.00968751                7.00387659               30.03823606                0.01000002               -0.03991104               -0.23341811                0.14261026               -0.00343248                0.14697913                0.39420912
              10.00943934                7.00464789               30.03862336                0.01000000               -0.02481716               -0.05519522                0.14664681               -0.02577907                0.08388319                0.44855478
               0.03187292                7.99572299               30.03211453                1.00000000               -0.03294217               -0.03240461                0.10868265               -0.00025468               -0.00094183                0.02179091
               1.03154350                7.99246267               30.03068382                1.00000000               -0.03318980               -0.03312549                0.11053628                0.00014100               -0.00070043                0.00315728
               2.03120913                7.98919489               30.02925676                0.08551508               -0.03458807               -0.03371785                0.11232024               -0.00046763                0.00215083               -0.01558065
               3.03085174                7.98590864               30.02788497                0.01000002               -0.25897538               -0.23017918                0.10454906                0.63923208                0.13813118               -0.08538597
               4.02602962                7.99199147               30.02918084                0.01000000               -0.48677786               -0.04400595                0.11354920                0.86585668                0.26343331               -0.00397335
               5.02111618                7.99642638               30.03086215                0.01000001               -0.48190388                0.03414079                0.12110763                0.59092377                0.29019789                0.04722545
               6.01639154                7.99978093               30.03313508                0.01000000               -0.44378750                0.03092865                0.12785077                0.34348247                0.33105565                0.10209059
               7.01224043                8.00146689               30.03606152                0.01000001               -0.37306183               -0.00388498                0.13585967                0.06678118                0.38400813                0.17724589
               8.00893031                8.00162690               30.03975310                0.01000002               -0.25185381               -0.07207216                0.14528168               -0.20007901                0.37015124                0.30807176
               9.00720336                8.00165946               30.04266529                0.01000003               -0.11684991               -0.16879439                0.15323926               -0.36644623                0.24703681                0.66818684
              10.00659331                8.00401837               30.04398042                0.01000000               -0.06100495               -0.23431108                0.15856203               -0.26359888                0.16861418                0.65188002
               0.03513501                8.99540220               30.03239622                1.00000000               -0.03225574               -0.03182189                0.10651274               -0.00026580                0.00242877                0.01944085
               1.03481246                8.99213481               30.03087819                0.99999998               -0.03251644               -0.03247950                0.10837244                0.00009613                0.00145436                0.00233284
               2.03448469                8.98886087               30.02934102                0.99999999               -0.03307895               -0.03308079                0.11030357                0.00007837               -0.00476667               -0.01138145
               3.03415088                8.98558007               30.02770204                0.01000002               -0.30507005               -0.03311843                0.11229439                0.48051154                0.14814480               -0.03108597
               4.02838329                8.99188433               30.02922962                0.01000000               -0.60495070                0.11695367                0.11481455                0.62035381                0.30079451               -0.00721753
               5.02205186                8.99745909               30.03117151                0.01000000               -0.59622222                0.13367953                0.12195681                0.37875310                0.32775496                0.02896122
               6.01645884                9.00066655               30.03380875                0.01000002               -0.53383591                0.11597060                0.12996968                0.16454597                0.38680720                0.06277282
               7.01137515                9.00214556               30.03742142                0.01000002               -0.52077154                0.09846613                0.13978023               -0.02670510                0.47960147                0.11100087
               8.00604341                9.00185814               30.04235126                0.01000003               -0.57040188                0.10061000                0.15203230               -0.24038904                0.72776266                0.21118861
               8.99996711                9.00050071               30.05137564                0.99999998               -0.32969429               -0.08382207                0.17181254               -0.42940864                0.45457571                0.43636445
               9.99944952                8.99996167               30.05130213                1.00000000               -0.05175842               -0.22898966                0.17342823               -0.38414679               -0.00036312                0.36624737
               0.03840240                9.99508655               30.03257806                1.00000000               -0.03156434               -0.03156485                0.10433324               -0.00060866                0.01350067                0.01447857
               1.03808675                9.99181308               30.03104808                1.00000000               -0.03184854               -0.03217229                0.10620274               -0.00023411                0.01690893                0.00097441
               2.03776543                9.98853328               30.02958818                0.99999999               -0.03241196               -0.03275946                0.10814707               -0.00026630                0.01685889               -0.00352610
               3.03743852                9.98524627               30.02806219                0.18013328               -0.56038734               -0.03337986                0.11004092                0.61862704                0.14864523               -0.00438319
               4.02655768                9.99433054               30.02924616                0.01000000               -0.87647451                0.24462166                0.11487459                0.51012440                0.27474461                0.00276190
               5.01990903                9.99909997               30.03117358                0.01000000               -0.57808455                0.16408834                0.12124876                0.17420595                0.32317145                0.02184713
               6.01499599               10.00210034               30.03388808                0.01000001               -0.46971422                0.14337943                0.13005006                0.07052676                0.39943137                0.04039830
               7.01051474               10.00343621               30.03774142                0.01000001               -0.46143055                0.12906490                0.14099783               -0.00910266                0.53938364                0.06589402
               8.00576738               10.00363910               30.04360970                0.01000002               -0.50015455                0.17809616                0.15561563               -0.20026290                0.71505143                0.15312251
               9.00051165                9.99998301               30.05136514                1.00000000               -0.28894663               -0.05176921                0.17349888               -0.15557165                0.39174446                0.00029696
               9.99998845                9.99943858               30.05129162                1.00000000               -0.05232042               -0.05230883                0.17511452               -0.00055119                0.00033967               -0.00033935
               0.00100195                0.00279480               31.02583392                1.00000000               -0.02476057               -0.02377700                0.07969039                0.00079082               -0.00335858                0.00390162
               1.00075434                0.00138467               31.02596572                1.00000000               -0.02557955               -0.02550574                0.08524086                0.00086417               -0.00361360               -0.00127675
               2.00049036               -0.00002692               31.02608966                0.01000001               -0.02249319               -0.02723464                0.09079125                0.03318026                0.06156444               -0.00156282
               3.00030448               -0.00079367               31.02752707                0.01000001               -0.03342724               -0.00091259                0.09405990                0.02980181                0.12972244                0.00795676
               3.99982181                0.00091002               31.02911146                0.01000000               -0.09278767                0.01684927                0.09223029                0.12273963                0.14839506               -0.00417644
               4.99844872                0.00533204               31.03102114                0.01000001               -0.29172275                0.03639686                0.09464520                0.32292965                0.18309413               -0.01409121
               5.99398736                0.01404410               31.03355257                0.17001546               -0.23798415               -0.02904093                0.09653523                0.35760293                0.10557474               -0.00115919
               6.99368904                0.01562468               31.03450520                1.00000000               -0.03096685               -0.03096556                0.10373530                0.00108951                0.01644122               -0.00471381
               7.99336802                0.01720151               31.03524780                0.99999998               -0.03304922               -0.03293341                0.11010168                0.00100570                0.00792890               -0.00055901
               8.99302806                0.01877562               31.03602651                1.00000000               -0.03494367               -0.03482295                0.11647094                0.00099345                0.00786319                0.00091791
               9.99266915                0.02034838               31.03676633                1.00000000               -0.03589108               -0.03685232                0.12285658                0.00110022                0.00587045                0.00531636
               0.00241998                1.00255703               31.02570647                1.00000000               -0.02461361               -0.02369625                0.07924757               -0.00004331                0.00140904                0.00447894
               1.00217384                1.00112962               31.02583540                0.01000000               -0.02543233               -0.02548560                0.08479780                0.00002991                0.00349708               -0.00322227
               2.00191133                0.99970073               31.02600469                0.01000000               -0.10199068               -0.04422086                0.09034842               -0.00834381                0.07572700                0.04832989
               3.00013403                0.99919720               31.02758176                0.01000001               -0.19624882               -0.00462926                0.09360305                0.09216668                0.12315233                0.01867052
               3.99798635                1.00107851               31.02896032                0.01000000               -0.25115235                0.00849891                0.09296578                0.26209898                0.11326800                0.00452347
               4.99511098                1.00569601               31.03055490                0.01000000               -0.27846459               -0.00185519                0.09606267                0.51052421                0.13495401               -0.00555330
               5.99241706                1.01375369               31.03275945                0.01000001               -0.14948745               -0.19803395                0.09588750                0.47236888                0.08032731               -0.03154862
               6.99212123                1.01531503               31.03362811                0.99997436               -0.03072264               -0.03086735                0.10306784                0.00012807                0.00720367               -0.00465425
               7.99180261                1.01687217               31.03436437                0.99999999               -0.03283387               -0.03282850                0.10945152                0.00002376                0.00122253               -0.00032361
               8.99146455                1.01842739               31.03510978                0.99999999               -0.03476127               -0.03470350                0.11585590                0.00002568                0.00122425                0.00076942
               9.99110738                1.01997986               31.03584517                1.00000000               -0.03571699               -0.03679510                0.12227166                0.00009863                0.00063999                0.00649363
               0.00385590                2.00232087               31.02558583                0.01000000               -0.02446674               -0.02985117                0.07880477               -0.02324957                0.00190604                0.08924973
               1.00361123                2.00087496               31.02566656                0.01000000               -0.08000037               -0.07386331                0.08435451               -0.03937148                0.06069825                0.08379262
               2.00225589                1.99908866               31.02692307                0.01000001               -0.14205982               -0.08177172                0.09217391                0.02854891                0.09287828                0.08567384
               3.00077003                1.99911375               31.02779245                0.01000000               -0.18454513               -0.05007995                0.09485816                0.24508919                0.07701253                0.03936662
               3.99856499                2.00108000               31.02887858                0.01000000               -0.23930026               -0.03946828                0.09732513                0.47113568                0.08267913                0.01976362
               4.99598403                2.00529493               31.03012246                0.01000001               -0.23746388               -0.09153888                0.09925869                0.64653743                0.07479135                0.00749138
               5.99381571                2.01008342               31.03134997                0.01000000               -0.27054562               -0.27167215                0.10146753                0.69016041                0.07013465               -0.02963949
               6.99057312                2.01500734               31.03274785                0.01000000               -0.17797884               -0.15875612                0.10241328                0.40914442                0.02905805               -0.00694987
               7.99025613                2.01654494               31.03348440                0.23630429               -0.03261164               -0.02142005                0.10878406               -0.01473705               -0.00535813                0.05392810
               8.98992088                2.01808155               31.03419085                0.99999997               -0.03449786               -0.03444827                0.11523826                0.00017975               -0.00398793               -0.00109557
               9.98956618                2.01961248               31.03495089                1.00000000               -0.03547073               -0.03667512                0.12170782                0.00011899               -0.00137195                0.00618284
               0.00484680                3.00196000               31.02715029                0.01000000               -0.02281842               -0.02350286                0.08675063               -0.00287524                0.01110582                0.17559565
               1.00461862                2.99965235               31.02727850                0.01000001               -0.03016391               -0.15310245                0.09130181                0.04479207                0.01990097                0.15064706
               2.00424352                2.99806530               31.02760540                0.01000000               -0.07870701               -0.14867152                0.09542764                0.22365437                0.04173659                0.07940177
               3.00304448                2.99819561               31.02820345                0.01000000               -0.15078229               -0.12768978                0.09870550                0.43257904                0.05725317                0.05041423
               4.00122788                3.00028914               31.02896731                0.01000000               -0.20030864               -0.11727293                0.10115059                0.63061310                0.06442739                0.03498545
               4.99903831                3.00386523               31.02989734                0.01000000               -0.23600059               -0.15588396                0.10358715                0.77607240                0.06642659                0.03060553
               5.99650787                3.00832025               31.03093545                0.01000001               -0.25978525               -0.19512722                0.10621619                0.79076020                0.04964390                0.03753545
               6.99384260                3.01213991               31.03182064                0.01000001               -0.40371048               -0.23547936                0.10537235                0.83524169                0.06594772                0.03850803
               7.98843366                3.01644377               31.03368638                0.01000002               -0.27209973               -0.17308783                0.08971689                0.67102788               -0.01393722                0.05756732
               8.98840061                3.01773842               31.03323738                0.01000002               -0.01928792               -0.20918462                0.11464961                0.49972991               -0.06399198                0.06729398
               9.98804790                3.01924636               31.03402918                0.52901605               -0.03527069               -0.44804574                0.12111270                0.59465215               -0.00222855                0.05138896
               0.00841370                4.00185081               31.02871003                0.01000000               -0.00119221               -0.05366837                0.09387145                0.11437437               -0.00302179                0.18496464
               1.00840178                3.99781291               31.02850838                0.01000000               -0.01139871               -0.22211931                0.09731400                0.24660720                0.00504150                0.12680018
               2.00818572                3.99611523               31.02845691                0.01000000               -0.06020024               -0.21572878                0.10018895                0.45346303                0.02564003                0.07945593
               3.00719777                3.99655995               31.02868612                0.01000000               -0.13390478               -0.18422799                0.10273815                0.61921574                0.05013622                0.04901495
               4.00550763                3.99873454               31.02922838                0.01000000               -0.18616971               -0.17576897                0.10526911                0.76469923                0.07019363                0.04375143
               5.00347438                4.00217725               31.03003688                0.01000001               -0.20756950               -0.18494029                0.10800451                0.85919357                0.08053137                0.05515829
               6.00135624                4.00618087               31.03100045                0.01000001               -0.21599764               -0.21877975                0.11062087                0.91738113                0.08089480                0.07718767
               6.99915442                4.01029775               31.03205767                0.01000152               -0.16390312               -0.24062637                0.11116721                0.91522640                0.06088460                0.11149734
               7.99807817                4.01308318               31.03282783                0.01000000               -0.10207627               -0.34120323                0.11283454                0.98034043                0.04730754                0.09707821
               8.99711290                4.01389786               31.03368174                0.01000000                0.01825888               -0.39042030                0.11802121                0.69034385                0.02795872                0.14907801
               9.99844335                4.01065157               31.03404649                0.01000001                0.13304546               -0.61972522                0.12616809                0.52562323                0.01205660                0.10039523
               0.01521009                5.00088663               31.03038517                0.01000001                0.00762523               -0.27555080                0.10147654                0.33937382               -0.00712510                0.21197760
               1.01528634                4.99520996               31.02976533                0.01000000               -0.03221715               -0.24129758                0.10375440                0.53393072                0.00076506                0.13329714
               2.01456575                4.99375072               31.02928114                0.01000001               -0.12384273               -0.20848666                0.10538528                0.63969247                0.02295632                0.05884336
               3.01280949                4.99451105               31.02918583                0.01000000               -0.18305948               -0.21824388                0.10693595                0.75691782                0.05832902                0.03828537
               4.01090456                4.99677376               31.02960734                0.01000001               -0.20168247               -0.19998515                0.10935197                0.84214520                0.09392659                0.04323451
               5.00877584                5.00016642               31.03043400                0.01000001               -0.20847821               -0.19878382                0.11240906                0.89101767                0.11685373                0.06803038
               6.00673499                5.00394465               31.03153736                0.01000001               -0.17655088               -0.22163270                0.11571548                0.87223905                0.12541163                0.10641983
               7.00524482                5.00732738               31.03273504                0.01000000               -0.11473170               -0.28651834                0.11949089                0.81564610                0.11993292                0.14857872
               8.00444036                5.00961971               31.03386703                0.01000001               -0.03028619               -0.33926067                0.12387414                0.67331332                0.09960242                0.19392484
               9.00463910                5.00993002               31.03468171                0.01000000                0.03062916               -0.35945595                0.12789996                0.45308472                0.06111869                0.20223831
              10.00505294                5.00685185               31.03496223                0.01000001                0.04138453               -0.26284402                0.13250251                0.22036181                0.03903476                0.17565971
               0.02655451                5.99633980               31.03251879                0.42896702               -0.03382143               -0.24325570                0.11016581                0.39979302               -0.00320095                0.12803644
               1.02621630                5.99298696               31.03132407                0.01000001               -0.24380123               -0.12799744                0.11262584                0.49474130               -0.01494421                0.07903485
               2.02167849                5.99194550               31.02988851                0.01000000               -0.34516076               -0.22401064                0.10976103                0.69382384                0.00377658                0.03101279
               3.01931309                5.99219507               31.02958978                0.01000001               -0.24916682               -0.22668060                0.11078676                0.76087906                0.08174229                0.01423253
               4.01669515                5.99473483               31.02999548                0.01000001               -0.25946208               -0.20481318                0.11303356                0.88035143                0.13152122                0.02960082
               5.01412384                5.99820158               31.03098412                0.01000000               -0.25275458               -0.16528702                0.11658495                0.85010618                0.16817742                0.07010133
               6.01164006                6.00174822               31.03238607                0.01000000               -0.21657781               -0.18424776                0.12100204                0.74215794                0.18717381                0.12164393
               7.00979229                6.00456738               31.03398809                0.01000001               -0.13491296               -0.24153623                0.12591660                0.58280607                0.18613881                0.18347420
               8.00894180                6.00629797               31.03551964                0.01000000               -0.04249199               -0.30246859                0.13092263                0.41742712                0.15870235                0.24388187
               9.00894245                6.00670874               31.03661343                0.01000001                0.00325575               -0.29069976                0.13574624                0.22802519                0.09686987                0.28700934
              10.00900692                6.00539469               31.03685482                0.01000000                0.00644703               -0.09907946                0.14011142                0.10973264                0.05752013                0.28322978
               0.02991162                6.99602152               31.03299469                0.99999999               -0.03361563               -0.03217993                0.11061504               -0.00063572               -0.00884954                0.03210992
               1.02957547                6.99265002               31.03162627                1.00000000               -0.03387550               -0.03355725                0.11256568               -0.00055760               -0.00932257                0.00950313
               2.02923411                6.98927051               31.03024414                0.01000000               -0.21688658               -0.15082772                0.11468058                0.41349594                0.03413420               -0.00078510
               3.02523774                6.98997743               31.02974386                0.01000001               -0.33645164               -0.33315223                0.11301871                0.81770190                0.10554191               -0.05049055
               4.02250508                6.99267750               31.03023073                0.01000002               -0.32365795               -0.14244951                0.11579261                0.86830267                0.18207241                0.00903909
               5.01876458                6.99686068               31.03156911                0.01000000               -0.36463664               -0.08457725                0.12022268                0.77414462                0.23196161                0.06371789
               6.01521235                7.00025970               31.03341646                0.01000001               -0.32066904               -0.08803221                0.12565281                0.55420371                0.26099843                0.12333384
               7.01235120                7.00249665               31.03565438                0.01000000               -0.22823995               -0.14320519                0.13190987                0.31376758                0.27022683                0.19940339
               8.01064755                7.00357034               31.03792249                0.01000002               -0.11241558               -0.22467862                0.13837344                0.09968936                0.24012560                0.31153484
               9.01010288                7.00411602               31.03967005                0.01000002               -0.03859251               -0.24711158                0.14422395               -0.00475249                0.14866242                0.40297142
              10.00987570                7.00487026               31.04009876                0.01000000               -0.02271852               -0.06025824                0.14845511               -0.02726923                0.08485528                0.45722139
               0.03328481                7.99569620               31.03319908                1.00000000               -0.03286531               -0.03225066                0.10816419               -0.00021145               -0.00097463                0.02159947
               1.03295616                7.99231582               31.03178948                1.00000000               -0.03319105               -0.03312725                0.11054220                0.00013683               -0.00073173                0.00316047
               2.03262099                7.98892894               31.03038286                0.09191613               -0.03480126               -0.03388781                0.11285383               -0.00009766               -0.00048863               -0.01540135
               3.03226013                7.98553203               31.02897939                0.01000002               -0.27215159               -0.23926937                0.11359487                0.66990007                0.13751660               -0.08295775
               4.02717796                7.99188584               31.03033798                0.01000000               -0.51177955               -0.04446534                0.11740581                0.90601181                0.26867747               -0.00153472
               5.02202454                7.99651003               31.03207824                0.01000001               -0.50448970                0.03705556                0.12288182                0.61827790                0.29380203                0.05057332
               6.01708816                7.99998758               31.03442230                0.01000000               -0.46337721                0.03319243                0.12945937                0.35857511                0.33572850                0.10614143
               7.01275700                8.00170328               31.03742697                0.01000001               -0.38859710               -0.00392707                0.13729578                0.06773088                0.38984773                0.18240655
               8.00931622                8.00180440               31.04121240                0.01000002               -0.26047638               -0.07654015                0.14659252               -0.21252865                0.37611669                0.31530478
               9.00754747                8.00176651               31.04420365                0.01000004               -0.11815860               -0.18050091                0.15443576               -0.38442162                0.25114931                0.68142189
              10.00695305                8.00418952               31.04557183                0.01000000               -0.05944198               -0.24550887                0.15971930               -0.27591846                0.17161431                0.66313273
               0.03666816                8.99537651               31.03346031                1.00000000               -0.03227016               -0.03175400                0.10629362               -0.00021900                0.00244948                0.01956565
               1.03634546                8.99198747               31.03196350                0.99999998               -0.03261053               -0.03257407                0.10868450                0.00009365                0.00151492                0.00243341
               2.03601595                8.98859275               31.03044824                0.99999999               -0.03333097               -0.03333934                0.11114539                0.00007095               -0.00464323               -0.01121136
               3.03567884                8.98519205               31.02883177                0.01000004               -0.31843187               -0.03392101                0.11366839                0.50109914                0.14890622               -0.02825761
               4.02964731                8.99178819               31.03039424                0.01000000               -0.63252183                0.12325411                0.11808788                0.64857339                0.30373674               -0.00533950
               5.02302840                8.99760179               31.03240151                0.01000000               -0.62283537                0.14070593                0.12421252                0.39608263                0.33269527                0.03093651
               6.01719060                9.00092354               31.03511749                0.01000004               -0.55697038                0.12214316                0.13178799                0.17132573                0.39334000                0.06496625
               7.01188899                9.00241811               31.03882655                0.01000002               -0.54284267                0.10368960                0.14126931               -0.03001195                0.48833610                0.11401181
               8.00633375                9.00203953               31.04387693                0.01000004               -0.59298339                0.10522318                0.15311689               -0.25642808                0.74150615                0.21580784
               9.00002933                9.00050600               31.05309480                0.99999998               -0.34112260               -0.08892266                0.17202231               -0.45234336                0.46347635                0.44462915
               9.99951130                8.99996009               31.05303670                1.00000000               -0.05180278               -0.23761347                0.17348444               -0.39938011               -0.00036664                0.37262400
               0.04005851                9.99506112               31.03362163                1.00000000               -0.03167214               -0.03153888                0.10441768               -0.00064372                0.01358575                0.01459197
               1.03974178                9.99166433               31.03211297                1.00000000               -0.03203362               -0.03231355                0.10682076               -0.00031535                0.01700805                0.00105766
               2.03941783                9.98826216               31.03067512                0.99999999               -0.03275539               -0.03305966                0.10929614               -0.00034789                0.01694790               -0.00344819
               3.03908668                9.98485361               31.02917069                0.21063855               -0.58390770               -0.03384389                0.11172607                0.64522221                0.15023916               -0.00440591
               4.02773968                9.99435093               31.03040742                0.01000000               -0.91379154                0.25627314                0.11741967                0.53276403                0.27856421                0.00410966
               5.02081085                9.99932415               31.03239944                0.01000000               -0.60206595                0.17223582                0.12387783                0.18222008                0.32880095                0.02280632
               6.01569836               10.00243044               31.03519901                0.01000001               -0.48850380                0.15068956                0.13212864                0.07342162                0.40741621                0.04155636
               7.01104077               10.00377707               31.03915937                0.01000000               -0.47992948                0.13589585                0.14259900               -0.01090146                0.55048460                0.06746450
               8.00609977               10.00390886               31.04517053                0.01000002               -0.52303594                0.18693257                0.15656373               -0.21284897                0.72964865                0.15602365
               9.00058005                9.99998805               31.05309985                1.00000000               -0.30212431               -0.05179520                0.17344438               -0.16850792                0.39966891                0.00029817
              10.00005728                9.99943725               31.05304174                1.00000000               -0.05227664               -0.05228347                0.17490677               -0.00048146                0.00034139               -0.00034133
               0.00080881                0.00296349               32.02662648                1.00000000               -0.02462277               -0.02354083                0.07882094                0.00095236               -0.00335859                0.00390210
               1.00056259                0.00150444               32.02681789                1.00000000               -0.02556217               -0.02552494                0.08519278                0.00099339               -0.00361349               -0.00127685
               2.00029757                0.00004463               32.02700144                0.01000000               -0.02450394               -0.02750926                0.09156463                0.03371522                0.06033065               -0.00156279
               3.00007251               -0.00076145               32.02847378                0.01000003               -0.03685146                0.00089671                0.09355703                0.02653136                0.14141433                0.00670902
               3.99956054                0.00102259               32.03001599                0.01000000               -0.10148298                0.02222324                0.09163726                0.12846067                0.15086082               -0.00611241
               4.99804285                0.00565661               32.03196538                0.01000001               -0.31457361                0.04376240                0.09601685                0.34018169                0.18065056               -0.01223316
               5.99326907                0.01482885               32.03451102                0.16149477               -0.25345629               -0.02857466                0.09498299                0.37834578                0.10342244               -0.00113727
               6.99297372                0.01645803               32.03553867                1.00000000               -0.03072513               -0.03074597                0.10291175                0.00119214                0.01684117               -0.00472719
               7.99265457                0.01808264               32.03634675                0.99999998               -0.03291671               -0.03289272                0.10965402                0.00106672                0.00787913               -0.00053162
               8.99231539                0.01970470               32.03719117                1.00000000               -0.03492474               -0.03488161                0.11642345                0.00105593                0.00784528                0.00095827
               9.99195607                0.02132585               32.03799696                1.00000000               -0.03593159               -0.03701814                0.12320975                0.00114783                0.00588425                0.00538490
               0.00227738                1.00272808               32.02649570                1.00000000               -0.02454357               -0.02349048                0.07860001               -0.00000485                0.00140919                0.00447961
               1.00203195                1.00124919               32.02668425                0.01000000               -0.02548579               -0.02554440                0.08497156                0.00003602                0.00349747               -0.00322247
               2.00176767                0.99976954               32.02691315                0.01000000               -0.10915532               -0.04497357                0.09134359               -0.00985685                0.07411668                0.04928573
               2.99984884                0.99924752               32.02851762                0.01000001               -0.20657758               -0.00186507                0.08863602                0.09782775                0.14280360                0.02145056
               3.99763612                1.00124482               32.02987186                0.01000000               -0.26536524                0.01285675                0.09368957                0.27473517                0.11540307                0.00892160
               4.99454154                1.00609424               32.03151705                0.01000000               -0.29921470                0.00243299                0.09703839                0.53650247                0.13156762               -0.00252223
               5.99165182                1.01454310               32.03371198                0.01000001               -0.15913957               -0.20618093                0.09450290                0.49844721                0.07698703               -0.02797539
               6.99135874                1.01615057               32.03465507                0.99934039               -0.03049629               -0.03063805                0.10238886                0.00008013                0.00770096               -0.00459090
               7.99104190                1.01775372               32.03545776                0.99999996               -0.03272009               -0.03288476                0.10921875                0.00000425                0.00124125               -0.00043772
               8.99070434                1.01935589               32.03626912                0.99999999               -0.03477484               -0.03477718                0.11600070                0.00014158                0.00119167                0.00069240
               9.99034640                1.02095567               32.03707052                1.00000000               -0.03579438               -0.03702197                0.12278370                0.00020587                0.00060200                0.00667625
               0.00376649                2.00249368               32.02637175                0.01000001               -0.02446447               -0.02843315                0.07837912               -0.02350788                0.00190633                0.09338807
               1.00352185                2.00099355               32.02651208                0.01000000               -0.08321919               -0.07546138                0.08475012               -0.04063324                0.06165506                0.08731339
               2.00210211                1.99914516               32.02784733                0.01000001               -0.14840340               -0.08383512                0.09209779                0.03077363                0.09379059                0.08642116
               3.00055378                1.99920125               32.02873721                0.01000000               -0.19467917               -0.04955922                0.09524800                0.25985107                0.07249342                0.04283884
               3.99820852                2.00127973               32.02985329                0.01000000               -0.25395791               -0.03875219                0.09777654                0.49354275                0.08109680                0.02691723
               4.99547462                2.00570527               32.03111573                0.01000001               -0.25134182               -0.09370096                0.09960804                0.67906084                0.07232577                0.01220788
               5.99318169                2.01070523               32.03236717                0.01000000               -0.28549555               -0.28372429                0.10177091                0.72585589                0.06669228               -0.02282048
               6.98976471                2.01584526               32.03376960                0.01000000               -0.18661772               -0.16210389                0.10200492                0.42328459                0.02594387                0.00016775
               7.98944933                2.01742495               32.03456837                0.24423558               -0.03242214               -0.03348390                0.10837893                0.00112457               -0.00544297               -0.00295588
               8.98911627                2.01900916               32.03534189                0.99999996               -0.03443572               -0.03432788                0.11523454                0.00082894               -0.00388980               -0.00145261
               9.98876062                2.02058541               32.03617246                1.00000000               -0.03556475               -0.03700931                0.12252279                0.00041953               -0.00118277                0.00655661
               0.00480747                3.00215941               32.02801564                0.01000000               -0.02396743               -0.02018844                0.08635258               -0.00194389                0.01120739                0.18412823
               1.00456780                2.99973996               32.02819112                0.01000001               -0.03160153               -0.15758873                0.09119258                0.04855350                0.01984724                0.15707356
               2.00417544                2.99809284               32.02856083                0.01000000               -0.08282514               -0.15348439                0.09563029                0.23736994                0.04051336                0.08340796
               3.00291130                2.99825633               32.02919262                0.01000000               -0.15862489               -0.13194053                0.09904995                0.45580867                0.05544205                0.05475836
               4.00100294                3.00046978               32.02998010                0.01000000               -0.21070233               -0.12115147                0.10142535                0.66345254                0.06216731                0.03962107
               4.99869725                3.00422022               32.03093785                0.01000000               -0.24869975               -0.16208874                0.10416577                0.81495675                0.06493775                0.03592044
               5.99602895                3.00886861               32.03199925                0.01000001               -0.27962666               -0.20234597                0.10644961                0.83215819                0.05315675                0.04325326
               6.99310472                3.01290849               32.03297819                0.01000001               -0.40642279               -0.24612022                0.11571399                0.86551499                0.02042420                0.03912616
               7.98790049                3.01708404               32.03362804                0.01000001               -0.27721292               -0.17253449               -0.00719335                0.69903429               -0.01361674                0.06650718
               8.98756046                3.01866933               32.03437814                0.01000001               -0.03491072               -0.21637446                0.11421371                0.53848725               -0.00754094                0.06780564
               9.98720228                3.02021548               32.03524767                0.55164917               -0.03581782               -0.47014045                0.12236220                0.62508929               -0.00181104                0.05486888
               0.00856651                4.00208991               32.02964525                0.01000000               -0.00070210               -0.05243900                0.09314322                0.12197495               -0.00321646                0.19337257
               1.00855949                3.99784178               32.02947985                0.01000000               -0.01166899               -0.22992049                0.09688368                0.26238476                0.00436073                0.13360689
               2.00833314                3.99607547               32.02945855                0.01000000               -0.06332430               -0.22320715                0.10004813                0.48067044                0.02441014                0.08476329
               3.00729301                3.99656244               32.02971456                0.01000000               -0.14097240               -0.19043601                0.10273703                0.65410505                0.04863001                0.05357630
               4.00551369                3.99885670               32.03028336                0.01000000               -0.19590448               -0.18212381                0.10556048                0.80500872                0.06897452                0.04853057
               5.00337492                4.00246350               32.03112096                0.01000001               -0.21885523               -0.19212935                0.10859451                0.90327925                0.08010424                0.06007386
               6.00113658                4.00665831               32.03211883                0.01000001               -0.22576672               -0.22770361                0.11211723                0.96267634                0.07866357                0.08127528
               6.99885958                4.01092286               32.03313356                0.01000003               -0.17337020               -0.25309891                0.10795595                0.97324750                0.06433898                0.11131617
               7.99766918                4.01397426               32.03405791                0.01000000               -0.10525096               -0.34402434                0.12444232                1.01520695                0.04723325                0.14804940
               8.99675456                4.01468167               32.03483759                0.01000000                0.02504557               -0.40948655                0.11637404                0.71622449                0.02271330                0.15401196
               9.99817009                4.01118260               32.03532121                0.01000000                0.14155251               -0.65078191                0.12830908                0.54693466                0.01644393                0.10559535
               0.01574323                5.00111063               32.03139485                0.01000001                0.00866976               -0.28826791                0.10031886                0.36000935               -0.00789562                0.22145019
               1.01582993                4.99514155               32.03080000                0.01000000               -0.03375209               -0.24929019                0.10303055                0.56643739               -0.00041521                0.14191021
               2.01506819                4.99362869               32.03033424                0.01000001               -0.13088785               -0.21470191                0.10505332                0.67712808                0.02120592                0.06454694
               3.01321217                4.99444761               32.03025539                0.01000000               -0.19330662               -0.22493267                0.10694863                0.79838151                0.05692889                0.04326577
               4.01120206                4.99682730               32.03070364                0.01000001               -0.21254756               -0.20658611                0.10976309                0.88568131                0.09336194                0.04792462
               5.00896122                5.00037763               32.03156281                0.01000001               -0.21894707               -0.20620925                0.11320030                0.93532867                0.11678070                0.07277258
               6.00682312                5.00431454               32.03269889                0.01000002               -0.18537525               -0.23152111                0.11658694                0.91620525                0.12611731                0.11102554
               7.00525372                5.00784651               32.03394431                0.01000000               -0.11886460               -0.29906287                0.12149976                0.85494137                0.12082529                0.15567094
               8.00444582                5.01020355               32.03511061                0.01000001               -0.02885567               -0.36340210                0.12498827                0.70794802                0.09903067                0.19537841
               9.00467660                5.01047960               32.03597465                0.01000000                0.03466389               -0.38010031                0.13010321                0.47321349                0.05956018                0.21016569
              10.00513910                5.00719985               32.03629547                0.01000000                0.04624994               -0.27661271                0.13424094                0.22947646                0.03706103                0.18057639
               0.02770486                5.99632455               32.03361308                0.39882291               -0.03346810               -0.25492190                0.10851568                0.42494685               -0.00320963                0.13423657
               1.02737018                5.99285597               32.03244548                0.01000001               -0.25676136               -0.13097951                0.11148508                0.52362986               -0.01737064                0.08510055
               2.02256964                5.99178143               32.03098705                0.01000000               -0.36540775               -0.23017612                0.10974832                0.73223621                0.00045432                0.03701853
               3.02006203                5.99206378               32.03070368                0.01000001               -0.26361718               -0.23316886                0.11125477                0.80092148                0.08053411                0.01885290
               4.01729729                5.99472497               32.03113100                0.01000001               -0.27338882               -0.21122872                0.11395138                0.92367813                0.13129795                0.03423020
               5.01459425                5.99833931               32.03215595                0.01000001               -0.26527414               -0.17105593                0.11767790                0.89090214                0.16909166                0.07473055
               6.01199181                6.00202789               32.03360295                0.01000000               -0.22624250               -0.19180617                0.12225061                0.77717830                0.18867052                0.12680525
               7.01006940                6.00494160               32.03525517                0.01000001               -0.13983793               -0.25370307                0.12734181                0.61043060                0.18758829                0.18874102
               8.00919505                6.00670622               32.03683926                0.01000000               -0.04234307               -0.31830180                0.13268280                0.43583197                0.15955540                0.25014170
               9.00922254                6.00707966               32.03797984                0.01000000                0.00620339               -0.30668964                0.13742677                0.23760082                0.09706446                0.29346145
              10.00931912                6.00565035               32.03826772                0.01000000                0.00965792               -0.10622706                0.14220592                0.11406488                0.05755597                0.28904932
               0.03117932                6.99601220               32.03409600                0.99999999               -0.03336776               -0.03175940                0.10953511               -0.00063520               -0.00933029                0.03306894
               1.03084564                6.99252196               32.03274988                1.00000000               -0.03371085               -0.03336562                0.11204799               -0.00060611               -0.00965603                0.01041464
               2.03050510                6.98902517               32.03139159                0.01000000               -0.22792902               -0.15493349                0.11470982                0.43510423                0.03254157                0.00258029
               3.02628706                6.98978424               32.03088712                0.01000001               -0.35525062               -0.34511000                0.11631680                0.85812432                0.10383913               -0.04490914
               4.02340009                6.99260273               32.03140312                0.01000003               -0.34053553               -0.14638559                0.11815401                0.90896529                0.18257645                0.01286331
               5.01947635                6.99695651               32.03277932                0.01000000               -0.38178478               -0.08669345                0.12173399                0.80946727                0.23364576                0.06801950
               6.01576439                7.00047842               32.03468031                0.01000001               -0.33461764               -0.09125808                0.12702808                0.57907536                0.26385316                0.12807334
               7.01278400                7.00277245               32.03698099                0.01000000               -0.23699952               -0.14993757                0.13336448                0.32684901                0.27343061                0.20509753
               8.01102440                7.00383752               32.03931392                0.01000002               -0.11497557               -0.23638331                0.13986019                0.10271297                0.24295952                0.31868867
               9.01048449                7.00434580               32.04112054                0.01000002               -0.03726895               -0.26082584                0.14578973               -0.00589191                0.15033826                0.41108265
              10.01027903                7.00507531               32.04159246                0.01000000               -0.02054617               -0.06536306                0.15016570               -0.02854390                0.08573705                0.46480002
               0.03467263                7.99568936               32.03427782                1.00000000               -0.03275401               -0.03206129                0.10752295               -0.00015410               -0.00100647                0.02140914
               1.03434509                7.99218866               32.03289466                0.99999999               -0.03315891               -0.03309853                0.11044108                0.00012948               -0.00076204                0.00316819
               2.03400945                7.98868276               32.03151384                0.09972098               -0.03490651               -0.03403929                0.11329451               -0.00043146                0.00051852               -0.01520686
               3.03364696                7.98516158               32.03015687                0.01000002               -0.28525641               -0.24803072                0.11972947                0.70052185                0.13793011               -0.08080766
               4.02830432                7.99179726               32.03152896                0.01000000               -0.53695252               -0.04473160                0.12175100                0.94660221                0.26822982                0.00108713
               5.02290791                7.99660545               32.03331979                0.01000001               -0.52734684                0.04000526                0.12480920                0.64558174                0.29673170                0.05375432
               6.01775738                8.00020273               32.03572426                0.01000000               -0.48303106                0.03553704                0.13096803                0.37368079                0.34016788                0.11001660
               7.01324728                8.00194285               32.03880743                0.01000002               -0.40407140               -0.00395244                0.13879272                0.06871273                0.39579733                0.18731436
               8.00967596                8.00197855               32.04268495                0.01000002               -0.26901858               -0.08106776                0.14791319               -0.22494128                0.38204746                0.32220105
               9.00786691                8.00186315               32.04575401                0.01000006               -0.11933582               -0.19243576                0.15560441               -0.40215420                0.25521426                0.69394372
              10.00728924                8.00434309               32.04717480                0.01000000               -0.05776740               -0.25655355                0.16082231               -0.28803756                0.17448620                0.67343722
               0.03817764                8.99537097               32.03452209                1.00000000               -0.03228086               -0.03167987                0.10605052               -0.00015749                0.00246769                0.01967319
               1.03785483                8.99185999               32.03305188                0.99999998               -0.03270439               -0.03266833                0.10899203                0.00008739                0.00157245                0.00253369
               2.03752355                8.98834438               32.03156393                0.99999999               -0.03359142               -0.03361085                0.11200343                0.00004211               -0.00452300               -0.01103751
               3.03718300                8.98482362               32.02997540                0.01000000               -0.33176381               -0.03406373                0.11508927                0.52138788                0.15031589               -0.02908567
               4.03088827                8.99170810               32.03159138                0.01000000               -0.66002388                0.12945598                0.12142529                0.67644470                0.30659762               -0.00419637
               5.02398252                8.99775662               32.03365576                0.01000000               -0.64938342                0.14774012                0.12646930                0.41333069                0.33682194                0.03250713
               6.01790061                9.00118916               32.03644451                0.01000001               -0.58000477                0.12828526                0.13358678                0.17818919                0.39955007                0.06722041
               7.01238243                9.00269340               32.04024681                0.01000002               -0.56476604                0.10885080                0.14281039               -0.03336872                0.49683837                0.11691596
               8.00660528                9.00221616               32.04541360                0.01000000               -0.61527810                0.10969087                0.15424021               -0.27262009                0.75473842                0.22023064
               9.00007687                9.00049709               32.05481609                0.99999998               -0.35234481               -0.09421385                0.17223979               -0.47525126                0.47201395                0.45253536
               9.99955839                8.99994423               32.05477182                1.00000000               -0.05184772               -0.24607115                0.17353845               -0.41417284               -0.00037039                0.37858270
               0.04169143                9.99505576               32.03466641                1.00000000               -0.03180129               -0.03152068                0.10457746               -0.00066734                0.01365448                0.01468798
               1.04137342                9.99153529               32.03318450                1.00000000               -0.03223859               -0.03246977                0.10752747               -0.00040171                0.01709169                0.00113930
               2.04104666                9.98801055               32.03177410                0.99999999               -0.03312091               -0.03338378                0.11054404               -0.00043804                0.01703422               -0.00337130
               3.04071100                9.98448031               32.03029671                0.24158747               -0.60732226               -0.03433110                0.11352653                0.67159190                0.15199150               -0.00444181
               4.02890022                9.99438638               32.03159455                0.01000000               -0.95087730                0.26782854                0.11986505                0.55519116                0.28254383                0.00438366
               5.02169346                9.99956025               32.03365113                0.01000003               -0.62579145                0.18036289                0.12632364                0.19019576                0.33405950                0.02362471
               6.01638439               10.00276843               32.03653066                0.01000001               -0.50702732                0.15792703                0.13415073                0.07635916                0.41489886                0.04271927
               7.01155291               10.00411987               32.04059340                0.01000001               -0.49822615                0.14264678                0.14422325               -0.01275488                0.56105391                0.06898339
               8.00641986               10.00417237               32.04674098                0.01000002               -0.54595475                0.19562072                0.15755261               -0.22559194                0.74344329                0.15877968
               9.00063381                9.99997887               32.05483403                1.00000000               -0.31541866               -0.05182202                0.17339329               -0.18184020                0.40716473                0.00029824
              10.00011149                9.99942167               32.05478976                1.00000000               -0.05223235               -0.05225687                0.17469052               -0.00041000                0.00034392               -0.00034256
               0.00055196                0.00313439               33.02741034                1.00000000               -0.02448484               -0.02330447                0.07795072                0.00111404               -0.00335860                0.00390258
               1.00030712                0.00162642               33.02766957                1.00000000               -0.02554466               -0.02554414                0.08514450                0.00112271               -0.00361330               -0.00127694
               2.00004107                0.00011839               33.02792095                0.01490669               -0.00944551               -0.02778393                0.09233815                0.03324298                0.05718535               -0.00156281
               3.00011821               -0.00074716               33.02939821                0.01000002               -0.03468216                0.01099514                0.06600460                0.03920141                0.11921818               -0.00545839
               3.99934743                0.00107604               33.03094420                0.01000000               -0.12757480                0.03436050                0.09950454                0.13131628                0.13872673               -0.00126242
               4.99756671                0.00598405               33.03294148                0.01000000               -0.34324565                0.05111696                0.09691140                0.36071913                0.17181831               -0.01171158
               5.99248251                0.01561943               33.03545223                0.15259794               -0.26882897               -0.02813989                0.09339915                0.39929085                0.09888956               -0.00109174
               6.99219013                0.01729734               33.03656344                0.99995053               -0.03047030               -0.03050553                0.10200836                0.00140671                0.01750760               -0.00472363
               7.99187311                0.01896887               33.03744088                0.99999998               -0.03276872               -0.03270721                0.10915353                0.00110521                0.00785480               -0.00048562
               8.99153476                0.02063888               33.03835498                1.00000000               -0.03489329               -0.03483644                0.11630915                0.00109047                0.00784762                0.00100541
               9.99117524                0.02230895               33.03923052                1.00000000               -0.03595130               -0.03710677                0.12343671                0.00114421                0.00591151                0.00545640
               0.00207108                1.00290135               33.02727847                1.00000000               -0.02447354               -0.02328458                0.07795211                0.00003367                0.00140934                0.00448034
               1.00182634                1.00137098               33.02753483                0.01000000               -0.02553938               -0.02560326                0.08514549                0.00004226                0.00349785               -0.00322271
               2.00156029                0.99984055               33.02783157                0.01000000               -0.08974739               -0.04744912                0.09233932               -0.00713425                0.06664819                0.04930502
               3.00003139                0.99936279               33.02935448                0.01000001               -0.21326514                0.00213398                0.08131888                0.08374185                0.13026694                0.02156064
               3.99729499                1.00141965               33.03083411                0.01000000               -0.30645930                0.02170275                0.09905474                0.27967011                0.10944694                0.00994276
               4.99390221                1.00649522               33.03249567                0.01000000               -0.32381052                0.00671190                0.09764887                0.56341672                0.12189358               -0.00169327
               5.99081878                1.01533803               33.03464951                0.01000001               -0.16863660               -0.21398432                0.09319928                0.52551201                0.07215027               -0.02379137
               6.99052948                1.01699228               33.03567589                0.99834915               -0.03026932               -0.03048839                0.10183363                0.00022154                0.00845309               -0.00451808
               7.99021339                1.01864180               33.03654875                0.99999997               -0.03269284               -0.03266697                0.10895749                0.00000559                0.00125839               -0.00056593
               8.98987562                1.02029052               33.03742979                0.99999999               -0.03483891               -0.03477037                0.11611179                0.00001673                0.00115457                0.00057806
               9.98951661                1.02193789               33.03830084                1.00000000               -0.03590072               -0.03712435                0.12326274                0.00004370                0.00055267                0.00688648
               0.00361338                2.00266870               33.02715342                0.01000001               -0.02446229               -0.02661398                0.07795353               -0.02298957                0.00190664                0.09744570
               1.00336875                2.00111435               33.02736156                0.01000000               -0.08534027               -0.07724637                0.08514626               -0.04276293                0.06167542                0.09045555
               2.00190657                1.99916941               33.02876503                0.01000001               -0.15774032               -0.08591586                0.09290564                0.03365845                0.09317286                0.08914022
               3.00021395                1.99929552               33.02969741                0.01000000               -0.20490832               -0.05246851                0.09751739                0.25216721                0.06803035                0.04886707
               3.99780840                2.00151010               33.03083412                0.01000000               -0.26486423               -0.03840761                0.09729730                0.51268858                0.07626657                0.02829969
               4.99491666                2.00611828               33.03211462                0.01000001               -0.26563591               -0.09584062                0.09990550                0.71226735                0.06780210                0.01490760
               5.99249569                2.01133974               33.03338539                0.01000000               -0.30129354               -0.29521902                0.10142242                0.76405871                0.06194188               -0.01578606
               6.98889079                2.01668757               33.03478795                0.01000000               -0.19603490               -0.17169100                0.10167116                0.45343012                0.02237018                0.00730637
               7.98857499                2.01831553               33.03565198                0.10759204               -0.03258939               -0.01787096                0.10876621               -0.00980560               -0.00562436               -0.06133594
               8.98823900                2.01994347               33.03649554                0.99999996               -0.03468052               -0.03458403                0.11585359                0.00027385               -0.00382334               -0.00196397
               9.98788138                2.02156647               33.03740135                1.00000000               -0.03576259               -0.03714527                0.12312756                0.00009968               -0.00094677                0.00703251
               0.00471998                3.00236907               33.02887734                0.01000000               -0.02496068               -0.01648255                0.08612914               -0.00096177                0.01150732                0.19225664
               1.00447037                2.99982605               33.02910235                0.01000001               -0.03338435               -0.16190885                0.09131901                0.05300527                0.01962381                0.16309816
               2.00405229                2.99812224               33.02951801                0.01000000               -0.08681615               -0.15661613                0.09601550                0.25100078                0.03923476                0.08691994
               3.00273405                2.99831342               33.03018445                0.01000000               -0.16631495               -0.13634059                0.09833814                0.48304409                0.05376454                0.05810957
               4.00072599                3.00065150               33.03099581                0.01000080               -0.22080691               -0.12642436                0.10142357                0.69686472                0.06009020                0.04323188
               4.99831791                3.00457840               33.03198066                0.01000000               -0.25976650               -0.16822562                0.10391419                0.85532392                0.06292253                0.04028040
               5.99553066                3.00943365               33.03306444                0.01000001               -0.28478111               -0.21165005                0.10663194                0.87006411                0.05575972                0.04864743
               6.99262229                3.01355846               33.03413492                0.01000001               -0.43846432               -0.25648077                0.10552281                0.92310320               -0.02854324                0.04081738
               7.98676138                3.01828438               33.03354251                0.01000001               -0.29960637               -0.18769641                0.09184615                0.73921009               -0.02317648                0.06946099
               8.98663016                3.01959884               33.03552165                0.01000000               -0.02443786               -0.22809439                0.11550627                0.54877292                0.05015514                0.06866064
               9.98627262                3.02119498               33.03647643                0.57462681               -0.03575421               -0.49254000                0.12300793                0.65579458               -0.00120802                0.05869283
               0.00868018                4.00233905               33.03057289                0.01000002               -0.00044864               -0.05106246                0.09227502                0.12980831               -0.00333747                0.20099134
               1.00867569                3.99787618               33.03044605                0.01000000               -0.01204804               -0.23717572                0.09621488                0.27831606                0.00404240                0.13972472
               2.00843921                3.99603709               33.03045787                0.01000000               -0.06650605               -0.23045350                0.09941651                0.50873568                0.02356708                0.08960240
               3.00734557                3.99656871               33.03074086                0.01000000               -0.14792493               -0.19630909                0.10247289                0.68945730                0.04749972                0.05782668
               4.00548072                3.99898161               33.03133959                0.01000000               -0.20522904               -0.18834428                0.10554007                0.84617231                0.06806178                0.05306659
               5.00324099                4.00275377               33.03220877                0.01000001               -0.22819042               -0.19957564                0.10880246                0.94617108                0.07972361                0.06478944
               6.00091691                4.00710674               33.03324280                0.01000001               -0.23694312               -0.23763057                0.11175226                1.00746831                0.07610919                0.08548416
               6.99850212                4.01155796               33.03421679                0.01000003               -0.17990445               -0.26196371                0.11291984                1.00410894                0.06847802                0.11173810
               7.99731882                4.01456160               33.03531667                0.01000000               -0.10991316               -0.37692263                0.11610179                1.07264441                0.04800563                0.19884344
               8.99630386                4.01538159               33.03600922                0.01000000                0.02430806               -0.43038798                0.12087053                0.75846684                0.01521809                0.15804738
               9.99780498                4.01171567               33.03661267                0.01000000                0.15011182               -0.68390535                0.12923381                0.57740273                0.02016628                0.11118399
               0.01624189                5.00134782               33.03239155                0.01000001                0.00967637               -0.30078319                0.09885534                0.38073826               -0.00859210                0.22991782
               1.01633865                4.99508253               33.03182594                0.01000000               -0.03537084               -0.25685399                0.10202329                0.59922862               -0.00156274                0.14976659
               2.01553447                4.99351317               33.03138221                0.01000001               -0.13799915               -0.22042859                0.10448889                0.71474336                0.01952548                0.06996079
               3.01357867                4.99438724               33.03132481                0.01000000               -0.20350497               -0.23141509                0.10690721                0.84028464                0.05571251                0.04786891
               4.01146437                4.99688461               33.03180260                0.01000001               -0.22312343               -0.21308312                0.11006357                0.92938933                0.09302874                0.05249017
               5.00911620                5.00058689               33.03269801                0.01000001               -0.22942648               -0.21370465                0.11373934                0.97945837                0.11688458                0.07743705
               6.00687584                5.00468104               33.03386910                0.01000003               -0.19332986               -0.24019219                0.11751107                0.95648200                0.12689030                0.11565770
               7.00524961                5.00831919               33.03516503                0.01000000               -0.12426044               -0.31262172                0.12170006                0.89352570                0.12174321                0.16273800
               8.00439064                5.01074593               33.03636680                0.01000001               -0.03020850               -0.37320558                0.12650643                0.73806552                0.09826863                0.19582745
               9.00464544                5.01099108               33.03728377                0.01000000                0.03809381               -0.39747544                0.13095493                0.49611806                0.05792732                0.21776048
              10.00515251                5.00751687               33.03764705                0.01000001                0.05070765               -0.29184896                0.13607555                0.24144485                0.03464653                0.18510001
               0.02882551                5.99632338               33.03468910                0.36859457               -0.03305933               -0.26648296                0.10659724                0.45033990               -0.00320924                0.14002995
               1.02849491                5.99273910               33.03355377                0.01000001               -0.26980643               -0.13367022                0.11007587                0.55266146               -0.01954583                0.09083320
               2.02342938                5.99162852               33.03208347                0.01000000               -0.38575484               -0.23589169                0.10930845                0.77072703               -0.00284422                0.04268608
               3.02077982                5.99194041               33.03181488                0.01000001               -0.27802634               -0.23805877                0.11099538                0.84078758                0.07944619                0.02417340
               4.01786885                5.99471995               33.03227451                0.01000001               -0.28730444               -0.21738991                0.11446546                0.96696507                0.13170290                0.03872819
               5.01503373                5.99847968               33.03333768                0.01000003               -0.27773011               -0.17648288                0.11866888                0.93135243                0.17024169                0.07923156
               6.01231425                6.00230290               33.03483108                0.01000000               -0.23629887               -0.19905933                0.12327290                0.81188715                0.19028452                0.13187493
               7.01030775                6.00530552               33.03653492                0.01000001               -0.14530025               -0.26364228                0.12847755                0.63655964                0.18907121                0.19397126
               8.00940824                6.00709749               33.03817330                0.01000000               -0.04262365               -0.33237534                0.13375341                0.45515567                0.16040337                0.25638492
               9.00945528                6.00743208               33.03936197                0.01000002                0.00870196               -0.32137861                0.13888567                0.24834344                0.09720792                0.29975470
              10.00958228                6.00587869               33.03969893                0.01000001                0.01270055               -0.11288472                0.14371435                0.11936532                0.05759621                0.29457055
               0.03241727                6.99601816               33.03518539                0.99999999               -0.03305136               -0.03125457                0.10824454               -0.00062843               -0.00977797                0.03412966
               1.03208675                6.99240913               33.03386723                1.00000000               -0.03347807               -0.03309619                0.11131532               -0.00064194               -0.00996937                0.01144955
               2.03174770                6.98879533               33.03253833                0.01000000               -0.23918815               -0.15880217                0.11451531                0.45783541                0.03271834                0.00580717
               3.02730299                6.98962606               33.03207020                0.01000001               -0.37416512               -0.35564087                0.11601494                0.89826393                0.10352985               -0.03834054
               4.02426440                6.99253681               33.03259381                0.01000003               -0.35713432               -0.15003100                0.12019172                0.94709803                0.18243039                0.01767360
               5.02016030                6.99705723               33.03400379                0.01000000               -0.39883286               -0.08854998                0.12282242                0.84465918                0.23549232                0.07202417
               6.01628774                7.00069985               33.03595702                0.01000001               -0.34870493               -0.09395944                0.12834039                0.60393700                0.26683732                0.13275329
               7.01318620                7.00304635               33.03832167                0.01000000               -0.24602749               -0.15608876                0.13474134                0.34015408                0.27670192                0.21078020
               8.01136719                7.00409842               33.04071969                0.01000002               -0.11775475               -0.24743777                0.14126756                0.10597552                0.24575875                0.32575845
               9.01083111                7.00456350               33.04258584                0.01000002               -0.03602988               -0.27411253                0.14719004               -0.00663090                0.15197993                0.41899143
              10.01064660                7.00525918               33.04310207                0.01000000               -0.01845117               -0.06998916                0.15164611               -0.02948699                0.08655587                0.47194381
               0.03603099                7.99569829               33.03534954                1.00000000               -0.03260934               -0.03183903                0.10676654               -0.00007929               -0.00103721                0.02122146
               1.03570490                7.99207717               33.03399831                0.99999999               -0.03309206               -0.03304112                0.11022990                0.00012464               -0.00078259                0.00318749
               2.03536915                7.98845247               33.03264875                0.10509951               -0.03506429               -0.03417975                0.11365326                0.00023413                0.00304693               -0.01497403
               3.03500361                7.98482759               33.03137398                0.01000001               -0.29947553               -0.25777829                0.13993134                0.73107871                0.13829970               -0.08038245
               4.02937964                7.99171933               33.03277300                0.01000000               -0.56198711               -0.04490684                0.12279979                0.98577962                0.26588107                0.00331148
               5.02376387                7.99670868               33.03457442                0.01000001               -0.54878822                0.04316776                0.12589910                0.67278933                0.29864606                0.05714319
               6.01840388                8.00042371               33.03704166                0.01000000               -0.50258045                0.03808534                0.13258741                0.38889413                0.34489007                0.11395590
               7.01371226                8.00218375               33.04020282                0.01000002               -0.41966414               -0.00379420                0.14031455                0.06977509                0.40168665                0.19222274
               8.01001059                8.00214874               33.04417066                0.01000002               -0.27751811               -0.08551536                0.14923915               -0.23709374                0.38783268                0.32899412
               9.00816190                8.00194983               33.04731574                0.01000004               -0.12047008               -0.20434070                0.15672120               -0.41947788                0.25915097                0.70597161
              10.00760119                8.00447890               33.04878828                0.01000000               -0.05607078               -0.26711967                0.16182652               -0.29980042                0.17721253                0.68305123
               0.03965792                8.99538138               33.03558132                1.00000000               -0.03228564               -0.03160302                0.10579275               -0.00008555                0.00248304                0.01975792
               1.03933506                8.99174831               33.03414334                0.99999998               -0.03279758               -0.03276399                0.10928967                0.00006934                0.00163562                0.00263474
               2.03900197                8.98811174               33.03268831                0.99999997               -0.03386798               -0.03390433                0.11290039               -0.00003259               -0.00437331               -0.01084781
               3.03865771                8.98447050               33.03113355                0.01000002               -0.34515339               -0.03527123                0.11663655                0.54146933                0.15243875               -0.03136901
               4.03209890                8.99163868               33.03282275                0.01000000               -0.68729983                0.13564665                0.12455514                0.70532896                0.30939535               -0.00504311
               5.02491171                8.99792059               33.03493090                0.01000000               -0.67541714                0.15486142                0.12816561                0.43074700                0.34030185                0.03458435
               6.01859056                9.00146156               33.03778922                0.01000002               -0.60275158                0.13444139                0.13539933                0.18500320                0.40563799                0.06962407
               7.01285668                9.00297046               33.04168276                0.01000002               -0.58656595                0.11399037                0.14444080               -0.03670904                0.50507611                0.11982153
               8.00685924                9.00238811               33.04696173                0.01000005               -0.63726470                0.11404765                0.15543106               -0.28881776                0.76738335                0.22456058
               9.00011138                9.00047669               33.05653959                0.99999998               -0.36334039               -0.09958462                0.17246410               -0.49793300                0.48016935                0.46011180
               9.99959243                8.99991679               33.05650747                1.00000000               -0.05189509               -0.25421892                0.17358902               -0.42841438               -0.00037364                0.38418194
               0.04329542                9.99506623               33.03571318                1.00000000               -0.03194949               -0.03151450                0.10482437               -0.00068406                0.01368576                0.01475693
               1.04297593                9.99142189               33.03426352                1.00000000               -0.03245558               -0.03264157                0.10831598               -0.00050621                0.01712784                0.00121519
               2.04264631                9.98777439               33.03288600                0.99999999               -0.03349326               -0.03373516                0.11185126               -0.00055244                0.01707287               -0.00329661
               3.04230606                9.98412216               33.03144122                0.28155016               -0.63050901               -0.03483342                0.11537006                0.69772941                0.15367551               -0.00448977
               4.03003613                9.99443226               33.03280472                0.01000000               -0.98750664                0.27935863                0.12170422                0.57790995                0.28647602                0.00354069
               5.02255593                9.99980591               33.03492591                0.01000001               -0.64910305                0.18853196                0.12850456                0.19843567                0.33907010                0.02461506
               6.01705407               10.00311254               33.03788202                0.01000001               -0.52522010                0.16509780                0.13613370                0.07923323                0.42208002                0.04401089
               7.01205153               10.00446355               33.04204383                0.01000004               -0.51630297                0.14930939                0.14593996               -0.01465742                0.57114319                0.07048386
               8.00672801               10.00442969               33.04832158                0.01000002               -0.56884794                0.20415762                0.15862741               -0.23839417                0.75639929                0.16141922
               9.00067457                9.99995813               33.05656772                1.00000000               -0.32876478               -0.05185563                0.17334310               -0.19543974                0.41421461                0.00030425
              10.00015271                9.99939453               33.05653555                1.00000000               -0.05218544               -0.05222599                0.17446773               -0.00033270                0.00034268               -0.00034741
               0.00022318                0.00330529               34.02818550                1.00000000               -0.02434671               -0.02306786                0.07707982                0.00127599               -0.00335852                0.00390303
               0.99997971                0.00174839               34.02852078                1.00000000               -0.02552712               -0.02556340                0.08509592                0.00125216               -0.00361322               -0.00127709
               1.99971264                0.00019214               34.02884820                0.01000001               -0.02730455               -0.02805860                0.09311185                0.03025707                0.02680381               -0.00156249
               2.99943362               -0.00078316               34.02979388                0.01000000               -0.04604130                0.01626931                0.08572403                0.05307089                0.09688886                0.04004796
               3.99879181                0.00121753               34.03200609                0.01000000               -0.12312172                0.03362359                0.09728188                0.14406482                0.14314908               -0.00208120
               4.99697119                0.00631401               34.03390361                0.01000000               -0.35834545                0.05732207                0.09524239                0.37902903                0.15440999               -0.01047188
               5.99162490                0.01641246               34.03637900                0.14338381               -0.28179826               -0.02783471                0.09204188                0.42020213                0.09429859               -0.00110062
               6.99133522                0.01813865               34.03757884                0.99926486               -0.03023870               -0.03029620                0.10120464                0.00157185                0.01833940               -0.00467180
               7.99102013                0.01985720               34.03852982                1.00000000               -0.03262611               -0.03259048                0.10867712                0.00112986                0.00790233               -0.00053611
               8.99068270                0.02157518               34.03951735                1.00000000               -0.03484603               -0.03482971                0.11615993                0.00112130                0.00786485                0.00095909
               9.99032321                0.02329435               34.04046569                1.00000000               -0.03594923               -0.03717743                0.12360395                0.00113173                0.00590761                0.00547516
               0.00179284                1.00307461               34.02805475                0.99999999               -0.02440356               -0.02307847                0.07730372                0.00007231                0.00140949                0.00448097
               1.00154880                1.00149275               34.02838716                0.01000000               -0.02559313               -0.02566228                0.08531975                0.00004883                0.00349819               -0.00322301
               2.00128098                0.99991156               34.02875994                0.01000000               -0.10485837               -0.04753118                0.09333591               -0.00980688                0.05590303                0.04985078
               2.99945164                0.99937954               34.03014400                0.01000001               -0.22985523                0.00658929                0.09536168                0.10269426                0.08614223                0.04672595
               3.99668387                1.00155376               34.03185295                0.01000000               -0.31438135                0.02332434                0.09736468                0.30162652                0.10017920                0.00329450
               4.99316401                1.00688723               34.03347002                0.01000000               -0.33846352                0.01022110                0.09665352                0.59442748                0.10807721               -0.00103621
               5.98991460                1.01613411               34.03557597                0.01000001               -0.17677219               -0.22189454                0.09220608                0.55353731                0.06693271               -0.01971862
               6.98962857                1.01783569               34.03669175                0.99741481               -0.03007201               -0.03031461                0.10135893                0.00037442                0.00922282               -0.00456572
               7.98931316                1.01953130               34.03763691                1.00000000               -0.03266132               -0.03263697                0.10878724                0.00001610                0.00123315               -0.00047243
               8.98897534                1.02122688               34.03859135                0.99999999               -0.03489039               -0.03485808                0.11625665               -0.00004984                0.00119791                0.00062383
               9.98861535                1.02292257               34.03953578                1.00000000               -0.03599853               -0.03719367                0.12371002               -0.00008808                0.00060452                0.00685106
               0.00338834                2.00284372               34.02793082                0.01000001               -0.02446006               -0.02447687                0.07752775               -0.02112045                0.00190716                0.10156410
               1.00314374                2.00123514               34.02821500                0.01000000               -0.08793132               -0.07876597                0.08554320               -0.04156995                0.06222223                0.09348397
               2.00162971                1.99924152               34.02970544                0.01000001               -0.16492196               -0.08865811                0.10087999                0.03552790                0.08402995                0.09012823
               2.99984530                1.99934863               34.03068756                0.01000000               -0.21565353               -0.05022321                0.09131357                0.27498197                0.06979891                0.05844684
               3.99731664                2.00168401               34.03179923                0.01000000               -0.27829566               -0.03624119                0.09693413                0.54472353                0.07019051                0.02416755
               4.99427939                2.00651844               34.03311384                0.01000001               -0.27847259               -0.09777768                0.09940373                0.75068064                0.06269168                0.01703526
               5.99174719                2.01197457               34.03439562                0.01000000               -0.31669326               -0.30749770                0.10091773                0.80446009                0.05532518               -0.00945435
               6.98794552                2.01753236               34.03580302                0.01000000               -0.20589665               -0.17698455                0.10145810                0.48285580                0.01906367                0.00418369
               7.98762926                2.01920447               34.03674370                0.10585515               -0.03275465               -0.03613668                0.10913499                0.00413638               -0.00555426               -0.01977719
               8.98729043                2.02087802               34.03765896                0.99999996               -0.03495982               -0.03490108                0.11652600                0.00001556               -0.00395471               -0.00175410
               9.98693006                2.02255047               34.03863501                1.00000000               -0.03603668               -0.03722745                0.12374197               -0.00009374               -0.00113670                0.00687931
               0.00458759                3.00258507               34.02973822                0.01000005               -0.02679840               -0.01240986                0.08540320                0.00149127                0.01269696                0.19953604
               1.00431960                2.99991743               34.03001750                0.01000001               -0.03547707               -0.16612259                0.09208555                0.05824738                0.02153388                0.16845734
               2.00387805                2.99813840               34.03048114                0.01000000               -0.09054104               -0.16190999                0.09383223                0.26687978                0.04287281                0.08984234
               3.00250878                2.99837507               34.03115939                0.01000000               -0.17347545               -0.13850093                0.09806581                0.51032619                0.05380977                0.06137718
               4.00040854                3.00082894               34.03200857                0.01000196               -0.23108571               -0.12863858                0.10061842                0.73234905                0.05994013                0.04809272
               4.99788707                3.00493168               34.03301614                0.01000000               -0.27093289               -0.17382478                0.10384094                0.89710095                0.06012486                0.04434317
               5.99498988                3.00998416               34.03413189                0.01000001               -0.29156415               -0.22056140                0.10570558                0.91339361                0.04490893                0.05329329
               6.99205579                3.01429600               34.03508865                0.01000001               -0.44698230               -0.27024252                0.10332924                0.95170767               -0.00371677                0.05117012
               7.98605023                3.01880857               34.03546497                0.01000001               -0.32130717               -0.20388118                0.16966463                0.77202309               -0.01234185                0.05539974
               8.98562964                3.02052886               34.03668826                0.01000000               -0.03908338               -0.23987596                0.11688017                0.59209808                0.00866854                0.07292719
               9.98526857                3.02217802               34.03770783                0.59623724               -0.03610764               -0.51574071                0.12371767                0.68673938               -0.00179684                0.06163856
               0.00875344                4.00259552               34.03149075                0.01000001                0.00019186               -0.04961447                0.09089505                0.13746819               -0.00333067                0.20718729
               1.00875536                3.99791269               34.03140415                0.01000000               -0.01218879               -0.24441326                0.09518524                0.29481063                0.00365153                0.14464974
               2.00850967                3.99600332               34.03144688                0.01000000               -0.06970417               -0.23680450                0.09854581                0.53738533                0.02228845                0.09480687
               3.00736128                3.99657861               34.03176402                0.01000004               -0.15513265               -0.20220485                0.10200256                0.72525859                0.04710262                0.06392959
               4.00540702                3.99911124               34.03239416                0.01000000               -0.21475463               -0.19433740                0.10581113                0.88721127                0.06724144                0.05829556
               5.00306619                4.00304194               34.03329701                0.01000001               -0.23781357               -0.20671103                0.10901833                0.98987220                0.07777105                0.07019544
               6.00065074                4.00756334               34.03435388                0.01000001               -0.24554602               -0.24723717                0.11172988                1.04947927                0.07397862                0.09191727
               6.99815527                4.01212751               34.03539196                0.01000003               -0.19069423               -0.27564326                0.11782196                1.03492982                0.06059583                0.12420063
               7.99683686                4.01512684               34.03637994                0.01000000               -0.11961673               -0.37725436                0.11408045                1.10976070                0.04309761                0.17552814
               8.99576293                4.01608050               34.03725500                0.01000000                0.02648308               -0.45234006                0.12673144                0.80170348                0.02093000                0.16676897
               9.99736652                4.01223566               34.03790589                0.01000000                0.16035891               -0.71812217                0.13006155                0.60736136                0.01912205                0.11707641
               0.01670262                5.00159278               34.03337196                0.01000002                0.01053999               -0.31321086                0.09706713                0.40153320               -0.00930514                0.23732968
               1.01680802                4.99502917               34.03284046                0.01000000               -0.03713932               -0.26406736                0.10082687                0.63195265               -0.00277499                0.15695016
               2.01595983                4.99340231               34.03242402                0.01000001               -0.14509921               -0.22621453                0.10405326                0.75218934                0.01804500                0.07539585
               3.01390603                4.99433098               34.03239354                0.01000000               -0.21351984               -0.23883754                0.10701553                0.88192620                0.05447207                0.05255426
               4.01168943                4.99694219               34.03290491                0.01000001               -0.23368088               -0.22014572                0.11065156                0.97340074                0.09242655                0.05731886
               5.00923241                5.00079746               34.03383760                0.01000001               -0.23977694               -0.22118898                0.11447055                1.02367754                0.11630841                0.08290108
               6.00689389                5.00503941               34.03504911                0.01000003               -0.20207671               -0.24929381                0.11855608                0.99675938                0.12587357                0.12210634
               7.00519088                5.00878313               34.03637831                0.01000000               -0.13007175               -0.32315605                0.12210874                0.92887028                0.12064525                0.16936219
               8.00429246                5.01126348               34.03764074                0.01000001               -0.03179935               -0.38229101                0.12690518                0.77190700                0.09785334                0.20979792
               9.00455489                5.01148206               34.03859375                0.01000000                0.04065045               -0.41539075                0.13188023                0.52151153                0.05746786                0.22531246
              10.00510547                5.00781558               34.03901698                0.01000001                0.05505752               -0.30744598                0.13792457                0.25488180                0.03540180                0.19162713
               0.02991134                5.99633130               34.03574502                0.33840743               -0.03264461               -0.27792172                0.10454551                0.47587699               -0.00320545                0.14539354
               1.02958489                5.99263134               34.03464700                0.01000001               -0.28298461               -0.13613746                0.10850221                0.58165123               -0.02157984                0.09616577
               2.02425165                5.99147903               34.03317322                0.01000000               -0.40624875               -0.24131357                0.10879914                0.80835959               -0.00641114                0.04775979
               3.02145992                5.99180186               34.03292359                0.01000001               -0.29215505               -0.24363276                0.11189417                0.88127248                0.07838858                0.02674077
               4.01840855                5.99470833               34.03342031                0.01000001               -0.30087015               -0.22422413                0.11509397                1.01209868                0.13233174                0.04342999
               5.01544251                5.99861816               34.03452932                0.01000003               -0.29041443               -0.18186024                0.11976820                0.97298543                0.17124659                0.08384073
               6.01260026                6.00257746               34.03606841                0.01000000               -0.24669534               -0.20582544                0.12440484                0.84677972                0.19112742                0.13766241
               7.01050861                6.00566439               34.03782472                0.01000001               -0.15120910               -0.27314902                0.12956527                0.66340205                0.18999695                0.20116377
               8.00957608                6.00748102               34.03951433                0.01000000               -0.04337736               -0.34540805                0.13488950                0.47456206                0.16111935                0.26358262
               9.00964106                6.00777268               34.04075755                0.01000002                0.01105191               -0.33550990                0.14024636                0.25962644                0.09767327                0.30755495
              10.00979711                6.00608674               34.04114200                0.01000001                0.01560525               -0.11953704                0.14509292                0.12501654                0.05774657                0.30091855
               0.03362008                6.99603435               34.03626089                0.99999999               -0.03267671               -0.03067209                0.10676274               -0.00064231               -0.01019787                0.03522679
               1.03329332                6.99230642               34.03497618                0.99999999               -0.03317895               -0.03275163                0.11037388               -0.00064919               -0.01027646                0.01254087
               2.03295650                6.98857603               34.03368190                0.01000000               -0.24955657               -0.16228602                0.11404929                0.47974843                0.03048316                0.00893631
               3.02830218                6.98945832               34.03320742                0.01000001               -0.39206984               -0.36556383                0.11210713                0.93552309                0.10343386               -0.02267742
               4.02511511                6.99245771               34.03380696                0.01000095               -0.37395983               -0.15368875                0.12173585                0.98574437                0.18612388                0.01927289
               5.02082299                6.99716026               34.03523577                0.01000000               -0.41659231               -0.08984796                0.12389317                0.88174254                0.23707503                0.07577499
               6.01678326                7.00092291               34.03724712                0.01000001               -0.36338116               -0.09639133                0.12985004                0.62932137                0.26977870                0.13790286
               7.01355536                7.00332015               34.03967582                0.01000000               -0.25539265               -0.16190841                0.13619483                0.35379080                0.27966727                0.21701441
               8.01167541                7.00435532               34.04213927                0.01000002               -0.12068303               -0.25823154                0.14266354                0.10976616                0.24837049                0.33351478
               9.01114170                7.00477186               34.04406434                0.01000002               -0.03488612               -0.28719274                0.14856633               -0.00696092                0.15350458                0.42717377
              10.01097768                7.00542484               34.04462538                0.01000001               -0.01640188               -0.07440114                0.15306310               -0.03013678                0.08734478                0.47940167
               0.03735435                7.99571786               34.03641315                1.00000000               -0.03241301               -0.03159270                0.10592888                0.00000406               -0.00105678                0.02102825
               1.03703022                7.99197631               34.03509926                0.99999999               -0.03298201               -0.03294705                0.10987839                0.00013440               -0.00078898                0.00322475
               2.03669471                7.98823331               34.03378690                0.12514032               -0.03707591               -0.03429279                0.11393285                0.00018190                0.02338930               -0.01469844
               3.03628870                7.98449058               34.03295550                0.01000001               -0.31366073               -0.26646602                0.16269910                0.75981975                0.14754249               -0.09384491
               4.03042150                7.99163455               34.03398495                0.01000000               -0.58382679               -0.04410981                0.11869411                1.02471725                0.25426586                0.00751032
               5.02461217                7.99682120               34.03583777                0.01000001               -0.56973563                0.04682814                0.12784946                0.70070899                0.30317019                0.06051365
               6.01902679                8.00064964               34.03837601                0.01000000               -0.52300784                0.04091854                0.13424571                0.40416335                0.34973845                0.11812820
               7.01415201                8.00242622               34.04161372                0.01000002               -0.43535471               -0.00356662                0.14198610                0.07114144                0.40721019                0.19735029
               8.01031969                8.00231639               34.04566973                0.01000002               -0.28598457               -0.08994327                0.15062662               -0.24883427                0.39329420                0.33590451
               9.00843232                8.00202883               34.04888843                0.01000001               -0.12156360               -0.21622573                0.15784182               -0.43624299                0.26284777                0.71772276
              10.00788842                8.00459872               34.05041133                0.01000000               -0.05439007               -0.27721233                0.16280993               -0.31113703                0.17974449                0.69222124
               0.04110327                8.99540249               34.03663794                1.00000000               -0.03227150               -0.03153333                0.10555510                0.00000403                0.00249368                0.01982346
               1.04078056                8.99164748               34.03523768                0.99999998               -0.03287021               -0.03285350                0.10955343                0.00003056                0.00172133                0.00274512
               2.04044587                8.98789018               34.03382194                0.99999997               -0.03416102               -0.03420428                0.11380805               -0.00013881               -0.00408946               -0.01062920
               3.04009734                8.98412900               34.03230813                0.01000001               -0.35835166               -0.03577025                0.11836897                0.56312125                0.15508945               -0.05123919
               4.03327883                8.99157551               34.03408248                0.01000000               -0.71376265                0.14293486                0.12551353                0.73456829                0.31271953               -0.00248057
               5.02582208                8.99809682               34.03621908                0.01000000               -0.70086629                0.16206622                0.12972252                0.44755756                0.34386844                0.03763885
               6.01926151                9.00174128               34.03915250                0.01000002               -0.62553213                0.14067079                0.13737349                0.19166433                0.41171844                0.07204288
               7.01331144                9.00324882               34.04313563                0.01000002               -0.60826965                0.11905882                0.14622273               -0.04003118                0.51285678                0.12280269
               8.00709611                9.00255645               34.04852222                0.01000001               -0.65884614                0.11823319                0.15672589               -0.30486025                0.77929466                0.22889584
               9.00013452                9.00044735               34.05826537                0.99999998               -0.37404746               -0.10500622                0.17268567               -0.52020224                0.48790183                0.46741825
               9.99961517                8.99988059               34.05824360                1.00000000               -0.05193517               -0.26200861                0.17363023               -0.44196263               -0.00038619                0.38945085
               0.04486447                9.99508720               34.03676290                1.00000000               -0.03213180               -0.03152984                0.10518956               -0.00067603                0.01366274                0.01480338
               1.04454315                9.99131924               34.03535082                1.00000000               -0.03270272               -0.03282383                0.10919867               -0.00063920                0.01707334                0.00129480
               2.04421041                9.98754922               34.03401113                0.99999999               -0.03386774               -0.03409543                0.11318446               -0.00074835                0.01697259               -0.00323810
               3.04386579                9.98377518               34.03260411                0.30441936               -0.65326837               -0.03538218                0.11711235                0.72404726                0.15467899               -0.00450542
               4.03114505                9.99449325               34.03402863                0.01000003               -1.02341195                0.29177375                0.12335770                0.60098863                0.29005777                0.00183528
               5.02339756               10.00006253               34.03622122                0.01000000               -0.67184887                0.19657076                0.13057442                0.20603749                0.34430024                0.02653872
               6.01770807               10.00346305               34.03925333                0.01000001               -0.54306719                0.17217766                0.13832019                0.08189967                0.42904805                0.04535940
               7.01253621               10.00480740               34.04351220                0.01000000               -0.53420532                0.15585755                0.14787516               -0.01662273                0.58060501                0.07195315
               8.00702396               10.00468105               34.04991353                0.01000002               -0.59160386                0.21246018                0.15983945               -0.25114993                0.76836143                0.16397035
               9.00070413                9.99992870               34.05830089                1.00000000               -0.34206447               -0.05186425                0.17330112               -0.20916370                0.42077369                0.00031692
              10.00018267                9.99935855               34.05827911                1.00000000               -0.05214623               -0.05220482                0.17424854               -0.00026514                0.00035731               -0.00035702
              -0.00018577                0.00347395               35.02895194                1.00000000               -0.02420846               -0.02283114                0.07620912                0.00143854               -0.00335889                0.00390322
               0.99957215                0.00186812               35.02937149                1.00000000               -0.02550922               -0.02558269                0.08504689                0.00138240               -0.00361357               -0.00127704
               1.99930405                0.00026366               35.02978319                0.01000000               -0.03370251               -0.02833403                0.09388441                0.03601810                0.04178155               -0.00156277
               2.99889810               -0.00064644               35.03111270                0.01000001               -0.06016867                0.00500730                0.12103722                0.03016400                0.10033960                0.01962299
               3.99810067                0.00134069               35.03288984                0.01000000               -0.13080526                0.03517038                0.09247463                0.15159824                0.12325731               -0.00061905
               4.99628199                0.00664178               35.03484633                0.01000000               -0.37037081                0.06224825                0.09228458                0.39901467                0.14962095               -0.00991058
               5.99069326                0.01720349               35.03729307                0.13385410               -0.29379476               -0.02764464                0.09101836                0.44106077                0.09006727               -0.00108459
               6.99040610                0.01897809               35.03858753                0.99858856               -0.03003055               -0.03013048                0.10053641                0.00171466                0.01929392               -0.00471303
               7.99009265                0.02074399               35.03961442                1.00000000               -0.03249568               -0.03255092                0.10828005                0.00117803                0.00792220               -0.00051980
               8.98975618                0.02251005               35.04067817                1.00000000               -0.03479709               -0.03486699                0.11604357                0.00116735                0.00788620                0.00096345
               9.98939670                0.02427829               35.04170260                1.00000000               -0.03594782               -0.03726973                0.12379875                0.00113835                0.00591299                0.00543508
               0.00143445                1.00324564               35.02882454                1.00000000               -0.02433353               -0.02287207                0.07665475                0.00011179                0.00140972                0.00448106
               1.00119111                1.00161229               35.02924123                0.01000000               -0.02564701               -0.02572163                0.08549409                0.00005582                0.00349876               -0.00322307
               2.00092151                0.99998032               35.02969828                0.01000000               -0.12649440               -0.05064446                0.09433410               -0.01990462                0.06065902                0.05662559
               2.99866123                0.99940363               35.03126172                0.01000001               -0.24744827                0.00477556                0.10889157                0.11650530                0.09349572                0.02266160
               3.99597254                1.00169239               35.03278140                0.01000000               -0.31602441                0.02485727                0.09445984                0.32729471                0.09051646                0.00712960
               4.99234074                1.00726426               35.03442874                0.01000000               -0.35184167                0.01355471                0.09498325                0.62633857                0.10109542                0.00064979
               5.98893571                1.01692704               35.03649363                0.01000001               -0.18438718               -0.23043762                0.09150719                0.58161364                0.06193778               -0.01550151
               6.98865299                1.01867679               35.03770307                0.99648997               -0.02986318               -0.03018753                0.10091187                0.00046627                0.01010809               -0.00462078
               7.98833845                1.02041848               35.03872449                1.00000000               -0.03261444               -0.03260297                0.10867671               -0.00000411                0.00125130               -0.00045413
               8.98800070                1.02216138               35.03975492                0.99999999               -0.03492965               -0.03492872                0.11642887               -0.00002351                0.00119739                0.00065679
               9.98763985                1.02390559               35.04077504                1.00000000               -0.03608520               -0.03731431                0.12415676               -0.00008737                0.00059588                0.00676810
               0.00308316                2.00301651               35.02870397                0.01000000               -0.02445847               -0.02228903                0.07710021               -0.01723712                0.00190684                0.10509844
               1.00283858                2.00135368               35.02907242                0.01000000               -0.09842731               -0.08031197                0.08594143               -0.03993570                0.06899825                0.09677365
               2.00111462                1.99925077               35.03078263                0.01000001               -0.16612205               -0.09013404                0.11602031                0.04708703                0.16296915                0.12409094
               2.99951614                1.99944907               35.03152368                0.01000000               -0.21643414               -0.04695635                0.08795043                0.31043226                0.07753779                0.05174327
               3.99678593                2.00183783               35.03277280                0.01000000               -0.29710124               -0.03369820                0.09880231                0.57796542                0.07497736                0.02880438
               4.99357411                2.00691288               35.03410269                0.01000001               -0.29364631               -0.09910851                0.09923524                0.79066291                0.05842227                0.02080140
               5.99091301                2.01259474               35.03540374                0.01000000               -0.33250625               -0.31928918                0.10122237                0.84410433                0.04864022               -0.00381653
               6.98692399                2.01837434               35.03681712                0.01000000               -0.21525194               -0.18419298                0.10129122                0.50295358                0.01552084                0.00892126
               7.98660797                2.02009193               35.03783468                0.11099326               -0.03276941               -0.03311750                0.10909563                0.00068082               -0.00554712               -0.00087958
               8.98626860                2.02181148               35.03882606                0.99999998               -0.03507131               -0.03500216                0.11685674                0.00000212               -0.00396090               -0.00160668
               9.98590654                2.02353200               35.03987619                1.00000000               -0.03620564               -0.03743596                0.12448484               -0.00006241               -0.00117889                0.00670867
               0.00441535                3.00279986               35.03058540                0.01000005               -0.02572204               -0.00837271                0.08327975                0.00580007                0.01560272                0.20690074
               1.00415813                3.00000605               35.03094406                0.01000001               -0.03237431               -0.17037375                0.09091280                0.06658993                0.02345930                0.16825564
               2.00376787                2.99817764               35.03139465                0.01000000               -0.09376591               -0.16302145                0.09058645                0.29344742                0.03556553                0.09368420
               3.00228281                2.99846450               35.03214576                0.01000000               -0.18499115               -0.14179591                0.09973099                0.53324972                0.06162963                0.07902986
               4.00006804                3.00101843               35.03300818                0.01000001               -0.24428611               -0.12933230                0.10141505                0.76621056                0.05977223                0.05315862
               4.99739709                3.00528209               35.03405748                0.01000000               -0.28558563               -0.17883289                0.10483836                0.93927059                0.05626159                0.04968754
               5.99435633                3.01054126               35.03517856                0.01000001               -0.30911087               -0.22834349                0.10637207                0.95496796                0.03903298                0.05925094
               6.99121487                3.01499293               35.03620151                0.01000001               -0.47207028               -0.28110173                0.11213947                0.99894280                0.00046778                0.05877473
               7.98491492                3.01975613               35.03693580                0.01000001               -0.33271013               -0.20977656                0.13655494                0.80890904               -0.03198786                0.08006597
               8.98456067                3.02146134               35.03785926                0.01000000               -0.03586835               -0.24999985                0.11731189                0.61643332               -0.00991513                0.07896471
               9.98419756                3.02315687               35.03895078                0.62526770               -0.03631136               -0.53919832                0.12480570                0.71850802               -0.00172581                0.06454374
               0.00878677                4.00284905               35.03239079                0.01000000                0.00058144               -0.04798559                0.08866341                0.14488708               -0.00299016                0.21195431
               1.00879259                3.99794621               35.03234976                0.01000000               -0.01308314               -0.25136832                0.09399208                0.31071297                0.00193760                0.14887800
               2.00852511                3.99599035               35.03242879                0.01000000               -0.07261212               -0.24414476                0.09902819                0.56206883                0.02163066                0.10209484
               3.00734035                3.99661315               35.03278091                0.01000060               -0.16162801               -0.20928752                0.10260459                0.75826251                0.04565778                0.07000744
               4.00529255                3.99925119               35.03345582                0.01000000               -0.22518280               -0.20067960                0.10695651                0.92619332                0.06661758                0.06515461
               5.00283669                4.00333622               35.03438913                0.01000001               -0.24955102               -0.21347468                0.11013514                1.03388796                0.07475741                0.07608164
               6.00030153                4.00802787               35.03547739                0.01000001               -0.25743590               -0.25663142                0.11344168                1.09561823                0.07019556                0.09989605
               6.99768797                4.01275231               35.03657323                0.01000003               -0.19918978               -0.28596279                0.11880901                1.08622685                0.05475925                0.13403061
               7.99631774                4.01589640               35.03759828                0.01000000               -0.12457270               -0.39743112                0.12298347                1.16382591                0.04211213                0.17546960
               8.99519652                4.01681148               35.03854385                0.01000000                0.02839513               -0.47332863                0.12882765                0.83547568                0.02077875                0.17646981
               9.99688564                4.01274804               35.03921390                0.01000000                0.16891195               -0.75217870                0.13209033                0.63448107                0.01607875                0.12373705
               0.01711878                5.00184014               35.03433289                0.01000000                0.01123170               -0.32533633                0.09492167                0.42238694               -0.01021871                0.24429530
               1.01723110                4.99497868               35.03384247                0.01000000               -0.03882394               -0.27097577                0.09960355                0.66485647               -0.00355069                0.16348460
               2.01634230                4.99329475               35.03346327                0.01000001               -0.15219373               -0.23322588                0.10378110                0.78997601                0.01652626                0.08078947
               3.01418722                4.99427875               35.03346512                0.01000000               -0.22367312               -0.24759038                0.10781648                0.92351176                0.05323153                0.05854778
               4.01186884                4.99700483               35.03401563                0.01000001               -0.24445268               -0.22823442                0.11174517                1.01755247                0.09106835                0.06247920
               5.00929817                5.00101260               35.03498742                0.01000001               -0.25081172               -0.22889483                0.11579671                1.06888325                0.11474879                0.08903109
               6.00685261                5.00540863               35.03624022                0.01000003               -0.21136445               -0.25848671                0.11995492                1.04004694                0.12346253                0.12950187
               7.00507088                5.00927367               35.03760721                0.01000000               -0.13601691               -0.33605083                0.12403697                0.96863386                0.11786462                0.17764300
               8.00413227                5.01180751               35.03890490                0.01000001               -0.03261685               -0.40128918                0.12832699                0.80505800                0.09673323                0.21962044
               9.00441854                5.01199477               35.03992138                0.01000000                0.04409018               -0.43494488                0.13404984                0.54451690                0.05870065                0.23289483
              10.00501407                5.00811330               35.04040554                0.01000000                0.05955271               -0.32296869                0.13992139                0.26598668                0.03666582                0.19894154
               0.03095743                5.99634233               35.03678001                0.30860212               -0.03223188               -0.28927894                0.10241838                0.50163391               -0.00321829                0.15030460
               1.03063512                5.99252669               35.03572381                0.01000001               -0.29664351               -0.13854978                0.10681871                0.61063081               -0.02320794                0.10095648
               2.02502456                5.99132583               35.03425946                0.01000000               -0.42673103               -0.24671850                0.10852767                0.84592399               -0.00821680                0.05271952
               3.02210049                5.99166134               35.03405276                0.01000001               -0.30574060               -0.25690719                0.11231982                0.92100271                0.07722250                0.02868746
               4.01890975                5.99468650               35.03457639                0.01000001               -0.31449676               -0.23236024                0.11663637                1.05933309                0.13154569                0.04920004
               5.01581056                5.99875832               35.03573304                0.01000003               -0.30341772               -0.18741555                0.12096197                1.01675524                0.17093739                0.08919319
               6.01284140                6.00285813               35.03731917                0.01000000               -0.25743926               -0.21291605                0.12596880                0.88318184                0.19098394                0.14409508
               7.01066177                6.00603129               35.03912623                0.01000001               -0.15717993               -0.28380199                0.13109228                0.69145006                0.19018198                0.20911952
               8.00969780                6.00787061               35.04087109                0.01000000               -0.04403559               -0.35970961                0.13648460                0.49475561                0.16161949                0.27279111
               9.00978106                6.00811259               35.04216690                0.01000008                0.01352557               -0.35093351                0.14188240                0.27072977                0.09807696                0.31592781
              10.00996831                6.00628866               35.04260079                0.01000001                0.01872479               -0.12677070                0.14697738                0.13047457                0.05814497                0.30778069
               0.03478272                6.99605457               35.03732065                0.99999999               -0.03225122               -0.03002609                0.10510514               -0.00067779               -0.01054713                0.03626485
               1.03446021                6.99220769               35.03607471                0.99999999               -0.03282952               -0.03232612                0.10920798               -0.00069684               -0.01055867                0.01357632
               2.03412613                6.98836038               35.03481932                0.01000000               -0.26068020               -0.16536811                0.11339994                0.49445275                0.02671248                0.01172460
               3.02924661                6.98914061               35.03431234                0.01000001               -0.40838064               -0.39056852                0.11856097                0.98265837                0.10394356                0.00319953
               4.02595852                6.99235763               35.03502853                0.01000003               -0.38924842               -0.15462436                0.11943592                1.03983090                0.18790130                0.02101622
               5.02146164                6.99726429               35.03648165                0.01000000               -0.43576241               -0.09113364                0.12582714                0.92091687                0.23740197                0.08038584
               6.01724327                7.00115031               35.03855402                0.01000001               -0.37871192               -0.09886186                0.13154803                0.65573180                0.27184115                0.14337311
               7.01388740                7.00359763               35.04104557                0.01000000               -0.26485940               -0.16801732                0.13788832                0.36819892                0.28197009                0.22379228
               8.01194608                7.00461331               35.04357296                0.01000002               -0.12361566               -0.26933674                0.14425045                0.11412164                0.25058829                0.34157371
               9.01141509                7.00497610               35.04555717                0.01000002               -0.03373393               -0.30046689                0.15010931               -0.00696194                0.15485598                0.43561702
              10.01127141                7.00557789               35.04616334                0.01000001               -0.01436820               -0.07917764                0.15469826               -0.03072255                0.08801112                0.48695911
               0.03863763                7.99574180               35.03746812                1.00000000               -0.03222661               -0.03132352                0.10501703                0.00011679               -0.00111985                0.02083925
               1.03831537                7.99188017               35.03619587                0.99999999               -0.03284668               -0.03280184                0.10943904                0.00009733               -0.00073654                0.00323894
               2.03798070                7.98801847               35.03492741                0.23287670               -0.02794782               -0.03427261                0.11383071               -0.01533047                0.04794329               -0.01427159
               3.03775641                7.98384997               35.03462796                0.01000001               -0.31990054               -0.26717521                0.10209046                0.79139426                0.13993788               -0.07404087
               4.03158269                7.99159401               35.03514688                0.01000000               -0.61600966               -0.04061222                0.12483910                1.07847533                0.23543090                0.00830932
               5.02543622                7.99693565               35.03713141                0.01000001               -0.59799991                0.05128094                0.12924511                0.72721536                0.30917420                0.06419172
               6.01962269                8.00088090               35.03972657                0.01000000               -0.54367343                0.04373941                0.13626146                0.42002004                0.35315108                0.12229217
               7.01456275                8.00267094               35.04304254                0.01000002               -0.45104621               -0.00347989                0.14379137                0.07298378                0.41219835                0.20266130
               8.01060177                8.00248388               35.04718320                0.01000002               -0.29427484               -0.09455401                0.15213415               -0.25991966                0.39822542                0.34297100
               9.00867725                8.00210325               35.05047258                0.01000001               -0.12257399               -0.22817508                0.15904677               -0.45229084                0.26621090                0.72913212
              10.00815029                8.00470511               35.05204447                0.01000000               -0.05269655               -0.28699301                0.16389273               -0.32197134                0.18204901                0.70086836
               0.04250833                8.99542810               35.03769242                1.00000000               -0.03228295               -0.03147080                0.10535500                0.00011584                0.00246459                0.01986196
               1.04218550                8.99155165               35.03633440                0.99999998               -0.03293013               -0.03293326                0.10982004                0.00003132                0.00184401                0.00288132
               2.04184972                8.98767493               35.03496447                0.99999996               -0.03432742               -0.03436122                0.11445275               -0.00013877               -0.00356857               -0.01040639
               3.04149895                8.98379710               35.03350093                0.01000000               -0.37036872               -0.02049324                0.11939585                0.57480928                0.15640679               -0.07507234
               4.03444235                8.99154538               35.03533302                0.01000000               -0.73899433                0.14913290                0.12399825                0.75651419                0.31652760                0.00387905
               5.02671906                8.99828991               35.03752535                0.01000000               -0.72669859                0.16983686                0.13189254                0.46303658                0.34765020                0.03935889
               6.01990838                9.00202510               35.04053669                0.01000001               -0.64874841                0.14685836                0.13949603                0.19797441                0.41712925                0.07449547
               7.01374409                9.00352804               35.04460721                0.01000002               -0.62964946                0.12392610                0.14816962               -0.04310910                0.51989309                0.12579041
               8.00731539                9.00272223               35.05009625                0.01000001               -0.67980278                0.12213012                0.15813314               -0.32053286                0.79028749                0.23324697
               9.00014804                9.00041260               35.05999331                0.99999998               -0.38435677               -0.11049088                0.17289604               -0.54185012                0.49515541                0.47438444
               9.99962825                8.99983803               35.05998007                0.99999999               -0.05197852               -0.26943735                0.17365795               -0.45480027               -0.00039883                0.39435684
               0.04639284                9.99511239               35.03781697                1.00000000               -0.03236739               -0.03157069                0.10570691               -0.00063720                0.01362904                0.01482188
               1.04606916                9.99122151               35.03644749                1.00000000               -0.03301829               -0.03301456                0.11018499               -0.00069073                0.01694676                0.00142134
               2.04573247                9.98733124               35.03514969                0.99999998               -0.03435135               -0.03436836                0.11466875               -0.00079525                0.01667232               -0.00328851
               3.04538214                9.98344011               35.03378347                0.34048319               -0.67561517               -0.03569975                0.11909894                0.75059007                0.15538412               -0.00509189
               4.03222017                9.99457667               35.03527187                0.01000000               -1.05824500                0.30312833                0.12579533                0.62239582                0.29296672                0.00228392
               5.02421724               10.00033239               35.03753740                0.01000000               -0.69380581                0.20424780                0.13278048                0.21188710                0.34924795                0.02825270
               6.01834405               10.00381806               35.04064843                0.01000001               -0.56069027                0.17929648                0.14089398                0.08442141                0.43524146                0.04643238
               7.01300343               10.00514947               35.04500133                0.01000000               -0.55187524                0.16214317                0.15004673               -0.01864542                0.58904400                0.07340080
               8.00730655               10.00492648               35.05151837                0.01000002               -0.61394866                0.22042472                0.16119334               -0.26368601                0.77910237                0.16640789
               9.00072446                9.99989343               35.06003374                0.99999999               -0.35515611               -0.05191671                0.17327815               -0.22286393                0.42676202                0.00032955
              10.00020342                9.99931636               35.06002053                1.00000000               -0.05210326               -0.05216612                0.17403977               -0.00018946                0.00037194               -0.00036663
              -0.00068311                0.00363815               36.02970968                1.00000000               -0.02407029               -0.02259498                0.07534033                0.00160002               -0.00336125                0.00390219
               0.99907619                0.00198338               36.03022171                1.00000000               -0.02549151               -0.02560164                0.08499802                0.00151203               -0.00361578               -0.00127710
               1.99880706                0.00033069               36.03072589                0.01000000               -0.03712147               -0.02860693                0.09465677                0.03305440                0.04511765               -0.00155755
               2.99833376               -0.00068874               36.03221462                0.01000001               -0.06418699                0.01105261                0.10814645                0.04503352                0.09826713                0.01000443
               3.99752332                0.00142202               36.03385558                0.01000000               -0.13866921                0.03913757                0.09525528                0.16237249                0.11829651               -0.00338262
               4.99556038                0.00695099               36.03574930                0.01000000               -0.39191407                0.06928772                0.09167926                0.41971294                0.14398465               -0.00764757
               5.98968504                0.01798965               36.03819937                0.12427661               -0.30803179               -0.02762426                0.09039368                0.46251507                0.08724556               -0.00110722
               6.98939974                0.01981332               36.03958957                0.99792356               -0.02985563               -0.02996276                0.09985973                0.00186390                0.02014684               -0.00473668
               7.98908793                0.02162668               36.04069543                1.00000000               -0.03237483               -0.03247153                0.10791007                0.00122173                0.00794112               -0.00052409
               8.98875224                0.02344095               36.04183822                1.00000000               -0.03476599               -0.03488166                0.11597287                0.00122419                0.00789558                0.00096443
               9.98839261                0.02525817               36.04294167                1.00000000               -0.03596349               -0.03738258                0.12403304                0.00116556                0.00590757                0.00541186
               0.00098766                1.00341220               36.02958784                1.00000000               -0.02426278               -0.02266606                0.07600664                0.00015036                0.00141088                0.00447988
               1.00074504                1.00172736               36.03009704                0.04568973               -0.02569992               -0.02578010                0.08566559                0.00006415                0.00350047               -0.00322226
               2.00047367                1.00004463               36.03064662                0.01000000               -0.12533014               -0.01518630                0.09532783                0.06626000                0.06162557                0.07109327
               2.99823843                0.99942178               36.03232183                0.01000001               -0.25732410                0.00940964                0.10314846                0.14204485                0.10271475                0.01359444
               3.99532718                1.00181340               36.03374215                0.01000000               -0.33823702                0.03056508                0.09604417                0.34679655                0.08762208                0.00874925
               4.99147369                1.00764386               36.03536969                0.01000000               -0.37240791                0.01773687                0.09538571                0.65782580                0.09454489                0.00521877
               5.98787903                1.01771340               36.03740611                0.01000001               -0.19369142               -0.23881687                0.09112311                0.60951808                0.05731810               -0.01072559
               6.98759986                1.01951369               36.03870998                0.99553913               -0.02963465               -0.03004862                0.10045256                0.00069096                0.01088183               -0.00463927
               7.98728633                1.02130196               36.03981044                1.00000000               -0.03255635               -0.03255578                0.10850737               -0.00000602                0.00126409               -0.00043536
               8.98694874                1.02309213               36.04091993                0.99999999               -0.03496465               -0.03496980                0.11656841               -0.00000786                0.00120154                0.00067294
               9.98658704                1.02488435               36.04201891                1.00000000               -0.03616980               -0.03746338                0.12461982               -0.00009766                0.00058970                0.00672448
               0.00268958                2.00318483               36.02947283                0.01000001               -0.02445308               -0.01879659                0.07667366               -0.01197256                0.00191304                0.10729661
               1.00244504                2.00146777               36.02993383                0.01000000               -0.01258684               -0.08610748                0.08633341                0.00383222                0.08346610                0.09801106
               2.00243784                2.00002697               36.03202585                0.01000001               -0.15195781               -0.08393510                0.07610848                0.04728356                0.15632095                0.11220650
               2.99940589                1.99949945               36.03244657                0.01000000               -0.31003318               -0.03616732                0.10485189                0.29478831                0.06203025                0.05005872
               3.99623717                2.00203332               36.03377528                0.01000000               -0.32945015               -0.03021505                0.10108466                0.60856783                0.07405838                0.03353743
               4.99281689                2.00730572               36.03509854                0.01000001               -0.31158001               -0.10024358                0.10089731                0.82741097                0.05299374                0.02674264
               5.99000557                2.01321331               36.03642007                0.01000000               -0.34959413               -0.33089374                0.10218321                0.88270533                0.04207705                0.00432788
               6.98582500                2.01921235               36.03782885                0.01000000               -0.22481022               -0.18991558                0.10104056                0.52351410                0.01135918                0.01458349
               7.98550937                2.02097556               36.03892561                0.12378872               -0.03276509               -0.03278387                0.10910086               -0.00022010               -0.00551932                0.00735301
               8.98516970                2.02274155               36.03999609                0.99999996               -0.03515731               -0.03508832                0.11716044                0.00004838               -0.00396361               -0.00156166
               9.98480622                2.02450891               36.04112471                1.00000000               -0.03634767               -0.03765786                0.12519726               -0.00006680               -0.00120012                0.00663955
               0.00418232                3.00303626               36.03140382                0.01000002               -0.02027787               -0.00488550                0.08058203                0.00120137                0.01509561                0.21215659
               1.00397954                3.00000521               36.03183576                0.01000001               -0.03973280               -0.17379678                0.08676936                0.08203676                0.01984988                0.17114018
               2.00338766                2.99836592               36.03229287                0.01000000               -0.09258450               -0.20251860                0.09812933                0.23832582                0.03416874                0.08175919
               3.00212785                2.99869844               36.03315401                0.01000000               -0.18476962               -0.14200237                0.10004059                0.53423444                0.06010248                0.08330420
               3.99969227                3.00120909               36.03403687                0.01000003               -0.26429608               -0.13132176                0.10507498                0.79172619                0.05492014                0.05701845
               4.99684193                3.00563899               36.03511291                0.01000000               -0.30328796               -0.18360462                0.10678813                0.98046528                0.05139585                0.05537946
               5.99362651                3.01109553               36.03625933                0.01000001               -0.32670157               -0.23568547                0.10887207                0.99706873                0.03434491                0.06547624
               6.99030789                3.01571538               36.03733144                0.01000001               -0.49368909               -0.29049637                0.11338801                1.04276576                0.00344332                0.06868978
               7.98375273                3.02064628               36.03819606                0.01000001               -0.34457670               -0.21542122                0.11342625                0.84370472               -0.03390588                0.08420856
               8.98341636                3.02239036               36.03903450                0.01000000               -0.03508651               -0.25968886                0.11775636                0.64390481               -0.01807280                0.08437470
               9.98305100                3.02413119               36.04020394                0.65569074               -0.03653640               -0.56266332                0.12577860                0.75117120               -0.00174272                0.06828474
               0.00877571                4.00308712               36.03326402                0.01000000               -0.00195918               -0.04733972                0.08590068                0.15531047               -0.00335694                0.21791122
               1.00875612                3.99799184               36.03328399                0.01000000               -0.01322929               -0.25402043                0.09303211                0.32582831                0.00171076                0.15306812
               2.00851113                3.99597660               36.03342745                0.01000000               -0.07543574               -0.25892493                0.09920734                0.59738089                0.02011882                0.10784912
               3.00724741                3.99665940               36.03381611                0.01000179               -0.16899914               -0.22341773                0.10500174                0.78603743                0.04300356                0.07296884
               4.00513114                3.99940689               36.03453329                0.01000000               -0.23538246               -0.20689452                0.10863838                0.96352308                0.06329891                0.06933624
               5.00253976                4.00363363               36.03549971                0.01000001               -0.26302919               -0.22024107                0.11214542                1.07767945                0.07075669                0.08146235
               5.99987056                4.00849960               36.03662271                0.01000001               -0.27050973               -0.26539288                0.11551998                1.14428170                0.06660249                0.10646676
               6.99712956                4.01340242               36.03776814                0.01000002               -0.20810399               -0.29661939                0.11942880                1.13715668                0.05159675                0.14097525
               7.99570848                4.01666714               36.03883961                0.01000000               -0.12833362               -0.41315997                0.12465597                1.21527922                0.03875150                0.17642803
               8.99456289                4.01754777               36.03983155                0.01000000                0.03197583               -0.49367276                0.12844507                0.87002027                0.01831494                0.18519389
               9.99634800                4.01325564               36.04054769                0.01000000                0.17851072               -0.78618358                0.13421243                0.66175899                0.01410786                0.13081507
               0.01747908                5.00208947               36.03527039                0.01000000                0.01275422               -0.33687381                0.09254019                0.44271564               -0.01049137                0.25105304
               1.01760662                4.99492480               36.03483254                0.01000000               -0.04056837               -0.27868022                0.09831660                0.69915605               -0.00398892                0.16900978
               2.01666771                4.99318743               36.03449964                0.01000001               -0.15941578               -0.23996114                0.10372608                0.82762604                0.01569131                0.08433786
               3.01441831                4.99423008               36.03454987                0.01000000               -0.23396058               -0.25655099                0.10859099                0.96619049                0.05175961                0.06217475
               4.01198850                4.99707120               36.03513981                0.01000001               -0.25577523               -0.23637266                0.11317512                1.06160584                0.08889473                0.06725494
               5.00930280                5.00123417               36.03615354                0.01000001               -0.26225736               -0.23629229                0.11738230                1.11475920                0.11226758                0.09435301
               6.00674335                5.00578767               36.03744821                0.01000003               -0.22096556               -0.26770172                0.12165472                1.08525064                0.12087671                0.13609694
               7.00488349                5.00978299               36.03885905                0.01000000               -0.14151983               -0.34970008                0.12618892                1.01130935                0.11579217                0.18480205
               8.00391296                5.01238308               36.04020728                0.01000001               -0.03276139               -0.41991771                0.13108119                0.83966173                0.09549653                0.22746982
               9.00422826                5.01251691               36.04127474                0.01000000                0.04787451               -0.45461656                0.13624289                0.56672188                0.05809141                0.24003092
              10.00487045                5.00840752               36.04181541                0.01000001                0.06421843               -0.33855380                0.14201006                0.27627198                0.03651297                0.20553906
               0.03195936                5.99634964               36.03779339                0.27969038               -0.03180766               -0.30089674                0.10017879                0.52795624               -0.00324702                0.15478544
               1.03164129                5.99241823               36.03678338                0.01000001               -0.31004992               -0.14094583                0.10501608                0.64022919               -0.02426135                0.10496478
               2.02575837                5.99117737               36.03534377                0.01000000               -0.44769253               -0.25224266                0.10791567                0.88477793               -0.00972970                0.05730200
               3.02268744                5.99152838               36.03516999                0.01000001               -0.31995962               -0.26414876                0.11271428                0.96278007                0.07661866                0.03847242
               4.01935917                5.99467943               36.03575304                0.01000001               -0.32844812               -0.23818326                0.11747899                1.10473605                0.13037166                0.05258997
               5.01611847                5.99890779               36.03694856                0.01000003               -0.31662113               -0.19322832                0.12225593                1.06044312                0.16943778                0.09481994
               6.01302675                6.00314556               36.03858779                0.01000000               -0.26790692               -0.22023497                0.12768788                0.92067244                0.19030662                0.15031114
               7.01076034                6.00640842               36.04044657                0.01000001               -0.16294760               -0.29516542                0.13301348                0.72077750                0.18973959                0.21654316
               8.00976780                6.00826878               36.04224402                0.01000000               -0.04437213               -0.37542007                0.13838621                0.51548191                0.16161756                0.28079481
               9.00987289                6.00845544               36.04359520                0.01000001                0.01622102               -0.36691946                0.14384501                0.28179840                0.09829535                0.32369881
              10.01009222                6.00648456               36.04408155                0.01000002                0.02193259               -0.13435890                0.14923627                0.13566851                0.05829147                0.31416423
               0.03590102                6.99607154               36.03836299                0.99999999               -0.03175447               -0.02933839                0.10324138               -0.00071104               -0.01085714                0.03712631
               1.03558347                6.99210588               36.03716034                0.99999999               -0.03239473               -0.03184203                0.10783706               -0.00070256               -0.01071000                0.01451106
               2.03525312                6.98814257               36.03594990                0.01000000               -0.27058112               -0.16873227                0.11256225                0.51521737                0.03123154                0.01371394
               3.03017185                6.98894711               36.03557863                0.01000001               -0.42746508               -0.38536039                0.11759577                1.01727606                0.10066243               -0.02326727
               4.02670382                6.99230754               36.03619568                0.01000001               -0.40631581               -0.15915930                0.11800457                1.08449942                0.18088400                0.03116498
               5.02204553                6.99736960               36.03775232                0.01000000               -0.45238253               -0.09232229                0.12715962                0.95864599                0.23898363                0.08469351
               6.01765617                7.00138297               36.03987808                0.01000001               -0.39348548               -0.10163792                0.13332616                0.68310021                0.27262518                0.14890700
               7.01417582                7.00387968               36.04243358                0.01000000               -0.27402993               -0.17453076                0.13972895                0.38353649                0.28371491                0.23045032
               8.01217557                7.00487468               36.04502428                0.01000002               -0.12636866               -0.28081306                0.14604175                0.11926022                0.25233631                0.34962629
               9.01164845                7.00517852               36.04706652                0.01000002               -0.03249963               -0.31400549                0.15183619               -0.00659880                0.15590285                0.44380640
              10.01152558                7.00572034               36.04771935                0.01000001               -0.01228719               -0.08426085                0.15660118               -0.03114869                0.08851503                0.49397335
               0.03987645                7.99576287               36.03851349                1.00000000               -0.03202457               -0.03103256                0.10401262                0.00023144               -0.00110087                0.02065816
               1.03955620                7.99178139               36.03728804                0.99999999               -0.03274781               -0.03261988                0.10890890                0.00008886               -0.00080869                0.00327242
               2.03922149                7.98780273               36.03606351                0.24773771               -0.03441046               -0.03414019                0.11357916               -0.00026856                0.00723670               -0.01403505
               3.03886799                7.98382118               36.03499731                0.01000001               -0.32974122               -0.27375307                0.06829194                0.81892956                0.13650442               -0.06302573
               4.03262667                7.99149625               36.03648174                0.01000000               -0.63260145               -0.03897192                0.12587033                1.10606557                0.26752005                0.01127793
               5.02621596                7.99706134               36.03842267                0.01000001               -0.62239953                0.05542017                0.13081526                0.75712182                0.30575702                0.06727852
               6.02017868                8.00111281               36.04110124                0.01000000               -0.56383038                0.04631802                0.13820231                0.43612626                0.35654481                0.12633477
               7.01493935                8.00291780               36.04448955                0.01000002               -0.46622536               -0.00369221                0.14568680                0.07568178                0.41629171                0.20793091
               8.01085417                8.00265252               36.04871241                0.01000002               -0.30220474               -0.09942337                0.15373931               -0.27011362                0.40263116                0.34994988
               9.00889526                8.00217533               36.05206937                0.01000000               -0.12342813               -0.24023251                0.16036226               -0.46739109                0.26920986                0.73997811
              10.00838561                8.00479935               36.05368919                0.01000000               -0.05096545               -0.29643311                0.16510647               -0.33219484                0.18409932                0.70867830
               0.04386860                8.99545088               36.03874504                1.00000000               -0.03232101               -0.03141619                0.10517534                0.00023810                0.00248791                0.01990546
               1.04354539                8.99145349               36.03743408                0.99999998               -0.03303171               -0.03299487                0.11009320                0.00010213                0.00186296                0.00296133
               2.04320797                8.98745977               36.03611099                0.99999996               -0.03442350               -0.03448610                0.11499468                0.00024751               -0.00348982               -0.01006282
               3.04285692                8.98347205               36.03469605                0.01000000               -0.38115003               -0.03564539                0.12000990                0.60258182                0.15580500               -0.03395680
               4.03558497                8.99152810               36.03656245                0.01000000               -0.76427558                0.15824847                0.12370999                0.78148718                0.31796574               -0.00001424
               5.02757141                8.99847801               36.03885693                0.01000000               -0.75313681                0.17710697                0.13391923                0.47856161                0.35147357                0.04092441
               6.02052223                9.00230933               36.04194242                0.01000000               -0.67108330                0.15277158                0.14166530                0.20490607                0.42141095                0.07656267
               7.01414974                9.00380584               36.04609902                0.01000002               -0.65032311                0.12846824                0.15018874               -0.04576626                0.52613261                0.12876580
               8.00751577                9.00288622               36.05168488                0.01000004               -0.69979704                0.12562252                0.15961222               -0.33562680                0.80026020                0.23754164
               9.00015380                9.00037387               36.06172329                0.99999998               -0.39410560               -0.11604533                0.17310440               -0.56262877                0.50188245                0.48090453
               9.99963366                8.99979168               36.06171676                0.99999999               -0.05201467               -0.27645188                0.17367617               -0.46667233               -0.00040232                0.39881827
               0.04787600                9.99513455               36.03887704                1.00000000               -0.03266438               -0.03163368                0.10634713               -0.00056505                0.01362127                0.01485747
               1.04754936                9.99112150               36.03755452                1.00000000               -0.03340614               -0.03319912                0.11127375               -0.00068028                0.01694983                0.00148330
               2.04720788                9.98711301               36.03630450                0.99999998               -0.03490322               -0.03467615                0.11629020               -0.00067009                0.01669394               -0.00308383
               3.04685130                9.98310827               36.03498609                0.36755169               -0.69787164               -0.03637785                0.12131045                0.77684782                0.15651863               -0.00492123
               4.03325045                9.99466122               36.03654454                0.01000000               -1.09226660                0.31331158                0.12838482                0.64130865                0.29550167                0.00544737
               5.02500596               10.00060348               36.03887683                0.01000000               -0.71507420                0.21254715                0.13525435                0.21880638                0.35265590                0.02813388
               6.01894896               10.00416824               36.04207121                0.01000001               -0.57794088                0.18589062                0.14359456                0.08685776                0.44027753                0.04736313
               7.01344715               10.00548717               36.04651314                0.01000000               -0.56876809                0.16813282                0.15232542               -0.02042318                0.59621123                0.07475610
               8.00757360               10.00516497               36.05313739                0.01000002               -0.63549621                0.22787560                0.16263093               -0.27585374                0.78849474                0.16869038
               9.00073722                9.99985443               36.06176646                0.99999999               -0.36785298               -0.05194431                0.17326352               -0.23639133                0.43211463                0.00033544
              10.00021654                9.99927031               36.06175991                1.00000000               -0.05206790               -0.05213699                0.17383387               -0.00012328                0.00037073               -0.00037151
              -0.00127707                0.00379566               37.03045874                1.00000000               -0.02393125               -0.02235797                0.07448204                0.00176033               -0.00336962                0.00390733
               0.99848362                0.00209193               37.03107145                0.99999999               -0.02547202               -0.02561998                0.08495049                0.00164130               -0.00362278               -0.00128066
               1.99821349                0.00039105               37.03167632                0.01000000               -0.03749362               -0.02888207                0.09542078                0.03393855                0.04561424               -0.00155197
               2.99773375               -0.00066077               37.03327562                0.01000001               -0.06407862                0.01043447                0.10625876                0.04406666                0.11412265                0.00570079
               3.99693192                0.00149989               37.03479494                0.01000000               -0.14579284                0.04477806                0.09531171                0.16996166                0.11421489               -0.00530201
               4.99481789                0.00724806               37.03667991                0.01000000               -0.41670090                0.07713422                0.09613274                0.43837656                0.13586619               -0.00489264
               5.98859790                0.01876786               37.03910094                0.11504645               -0.32524571               -0.02760284                0.08981462                0.48411119                0.08241596               -0.00121026
               6.98831298                0.02064253               37.04058473                0.99725312               -0.02975429               -0.02978055                0.09914939                0.00211305                0.02072958               -0.00474576
               7.98800282                0.02250348               37.04177263                1.00000000               -0.03225637               -0.03238907                0.10752054                0.00126597                0.00796153               -0.00052027
               8.98766785                0.02436592               37.04299763                1.00000000               -0.03474293               -0.03489516                0.11591428                0.00126928                0.00791411                0.00096605
               9.98730796                0.02623204               37.04418326                1.00000000               -0.03598920               -0.03749937                0.12429465                0.00118395                0.00591353                0.00540788
               0.00044427                1.00357208               37.03034467                1.00000000               -0.02419307               -0.02245994                0.07535806                0.00018840                0.00141004                0.00448222
               1.00020234                1.00183573               37.03095454                0.06171736               -0.02575227               -0.02583720                0.08582963                0.00006977                0.00350579               -0.00322915
               1.99992923                1.00010223               37.03160484                0.01000000               -0.12911755               -0.02711941                0.09632501                0.05613257                0.05882318                0.03674765
               2.99761999                0.99944357               37.03332469                0.01000001               -0.26260527                0.01394184                0.09538516                0.15595051                0.12247993                0.02245351
               3.99467712                1.00194767               37.03470229                0.01000000               -0.35261599                0.03569829                0.09914524                0.36295133                0.08467565                0.01404746
               4.99056767                1.00801940               37.03633645                0.01000000               -0.39676725                0.02282282                0.09884620                0.68577343                0.08472958                0.00918933
               5.98674178                1.01849183               37.03831609                0.01000001               -0.20506857               -0.24698931                0.09078181                0.63758336                0.05086429               -0.00531009
               6.98646630                1.02034472               37.03971212                0.99457099               -0.02939989               -0.02989870                0.09996418                0.00101997                0.01138935               -0.00463388
               7.98615378                1.02217959               37.04089464                1.00000000               -0.03250196               -0.03250573                0.10833089               -0.00001175                0.00127229               -0.00043058
               8.98581626                1.02401697               37.04208629                0.99999999               -0.03500493               -0.03501241                0.11671009               -0.00000807                0.00120672                0.00066724
               9.98545368                1.02585705               37.04326744                1.00000000               -0.03625803               -0.03761365                0.12508583               -0.00012487                0.00058943                0.00671821
               0.00219942                2.00334647               37.03023744                0.01000000               -0.02445400               -0.01601455                0.07625001               -0.00667314                0.00191267                0.10834648
               1.00195488                2.00157518               37.03079909                0.01000000               -0.02355580               -0.08785159                0.08670490               -0.00170371                0.04913454                0.09654107
               2.00172830                1.99984866               37.03230480                0.01000001               -0.14737821               -0.08454984                0.05305552                0.06233237                0.07558415                0.08025692
               2.99900731                1.99961806               37.03362072                0.01000000               -0.30565892               -0.03412661                0.10686532                0.32430337                0.06424893                0.04857603
               3.99561512                2.00221386               37.03479449                0.01000000               -0.35090560               -0.02734433                0.10431677                0.63084351                0.05645558                0.03977719
               4.99198920                2.00770451               37.03612064                0.01000001               -0.32954385               -0.10154433                0.10328041                0.86245482                0.04491997                0.03187466
               5.98902424                2.01382808               37.03744741                0.01000000               -0.36717871               -0.34218474                0.10325139                0.92114797                0.03326194                0.01294656
               6.98464563                2.02004456               37.03883793                0.01000000               -0.23469545               -0.19586474                0.10078206                0.54529937                0.00634526                0.02068047
               7.98433034                2.02185336               37.04001670                0.12984591               -0.03276979               -0.03266456                0.10913610                0.00005409               -0.00552449                0.00286836
               8.98399023                2.02366568               37.04116927                0.99999999               -0.03525113               -0.03517962                0.11748825                0.00007404               -0.00397517               -0.00158425
               9.98362531                2.02547977               37.04238014                1.00000000               -0.03649170               -0.03787329                0.12587421               -0.00008365               -0.00120674                0.00664152
               0.00385338                3.00325179               37.03219704                0.01000000               -0.01872989               -0.00028840                0.07865388                0.00670453                0.00979054                0.21534640
               1.00366608                3.00007870               37.03267945                0.01000001               -0.03601906               -0.17821940                0.08472666                0.09339688                0.01967820                0.17671017
               2.00313299                2.99841123               37.03335724                0.01000000               -0.09626085               -0.19540509                0.09854533                0.26747058                0.03636871                0.10403373
               3.00174086                2.99876104               37.03414657                0.01000000               -0.19627246               -0.14706994                0.10114378                0.55384118                0.04261761                0.06676387
               3.99920755                3.00140079               37.03510968                0.01000002               -0.27691545               -0.13394433                0.10755867                0.82436380                0.04669896                0.05834172
               4.99620255                3.00598851               37.03619324                0.01000000               -0.31914252               -0.18898387                0.10896250                1.02102783                0.04348035                0.05974659
               5.99282469                3.01164814               37.03735600                0.01000001               -0.34277739               -0.24298762                0.11020616                1.03899138                0.02951863                0.07159651
               6.98934700                3.01642743               37.03846927                0.01000001               -0.51454756               -0.30001776                0.11277495                1.08677665               -0.00664756                0.07679155
               7.98253374                3.02152630               37.03920433                0.01000001               -0.35778321               -0.22198084                0.10244269                0.87924857               -0.03895173                0.09113241
               8.98219134                3.02331338               37.04021438                0.01000001               -0.03549588               -0.26952775                0.11824486                0.67188962               -0.01363306                0.08906459
               9.98182383                3.02509958               37.04146635                0.67935431               -0.03675130               -0.58634498                0.12667094                0.78412971               -0.00174660                0.07235804
               0.00867970                4.00334070               37.03410881                0.01000001               -0.00163237               -0.04599768                0.08353538                0.16357460               -0.00388669                0.22471144
               1.00866338                3.99801080               37.03421040                0.01000000               -0.01421677               -0.26096012                0.09197131                0.34279284                0.00170575                0.15750450
               2.00839537                3.99594056               37.03441293                0.01000000               -0.07844003               -0.26730247                0.09936108                0.62358376                0.01830697                0.10327925
               3.00709458                3.99667667               37.03488095                0.01000001               -0.17602203               -0.22963353                0.10608293                0.82179003                0.04037003                0.07345311
               4.00487493                3.99953497               37.03562858                0.01000000               -0.24660872               -0.21353024                0.11026518                1.00418445                0.05730108                0.06962322
               5.00216240                4.00392484               37.03663204                0.01000001               -0.27548855               -0.22688501                0.11390509                1.12329637                0.06575266                0.08510878
               5.99936515                4.00896832               37.03778779                0.01000001               -0.28297000               -0.27413242                0.11704668                1.19296473                0.06211412                0.11202668
               6.99650300                4.01404420               37.03896180                0.01000008               -0.21678985               -0.30680716                0.11958058                1.18630359                0.04888399                0.14653649
               7.99502936                4.01741375               37.04009140                0.01000000               -0.13241329               -0.42868981                0.12433850                1.26618403                0.03591514                0.18916430
               8.99385474                4.01827512               37.04111275                0.01000000                0.03530739               -0.51408220                0.12827570                0.90600090                0.01533465                0.19356367
               9.99573551                4.01375287               37.04189815                0.01000000                0.18807681               -0.82046786                0.13564797                0.68973296                0.01322025                0.13801901
               0.01778467                5.00233184               37.03618370                0.01000000                0.01374028               -0.34976303                0.09019868                0.46440617               -0.01024979                0.25751456
               1.01792207                4.99485949               37.03580881                0.01000000               -0.04229367               -0.28563060                0.09689709                0.73347321               -0.00397687                0.17303989
               2.01693880                4.99306518               37.03553780                0.01000001               -0.16699149               -0.24594738                0.10331619                0.86784341                0.01509837                0.08664455
               3.01458224                4.99416837               37.03563694                0.01000000               -0.24478672               -0.26373227                0.10901505                1.00970132                0.05001086                0.06372031
               4.01204306                4.99713018               37.03627913                0.01000001               -0.26735597               -0.24262706                0.11421902                1.10730630                0.08653354                0.06959961
               5.00923513                5.00145081               37.03733506                0.01000001               -0.27392200               -0.24344478                0.11878021                1.16187370                0.10925670                0.09813252
               6.00656462                5.00616549               37.03867331                0.01000003               -0.23037361               -0.27669225                0.12319276                1.13124227                0.11832026                0.14147135
               7.00462765                5.01029129               37.04013099                0.01000000               -0.14690594               -0.36282903                0.12779208                1.05421703                0.11364503                0.19146262
               8.00362651                5.01295250               37.04152652                0.01000001               -0.03277089               -0.43721188                0.13257289                0.87463040                0.09360275                0.23366008
               9.00397224                5.01303174               37.04264623                0.01000000                0.05182430               -0.47401691                0.13778221                0.58962109                0.05674675                0.24735144
              10.00466299                5.00869022               37.04324575                0.01000002                0.06907557               -0.35424257                0.14389891                0.28714540                0.03560719                0.21172993
               0.03291252                5.99634544               37.03878359                0.25218945               -0.03130156               -0.31274245                0.09770145                0.55458527               -0.00332470                0.15866091
               1.03259950                5.99229818               37.03782414                0.01000001               -0.32345802               -0.14331246                0.10299388                0.67066013               -0.02510910                0.10811859
               2.02644336                5.99102161               37.03641777                0.01000000               -0.46879504               -0.25751325                0.10694822                0.92487552               -0.01029895                0.05994713
               3.02322360                5.99140202               37.03630704                0.01000001               -0.33523741               -0.26602136                0.11263130                1.00463283                0.07589407                0.03809014
               4.01973861                5.99468243               37.03692597                0.01000001               -0.34295171               -0.24389742                0.11760170                1.15066877                0.12853492                0.05477127
               5.01636457                5.99905594               37.03817816                0.01000003               -0.32945419               -0.19833795                0.12348741                1.10379152                0.16870238                0.09874822
               6.01314953                6.00343448               37.03987293                0.01000000               -0.27821157               -0.22752475                0.12925685                0.95907818                0.18955520                0.15583918
               7.01080034                6.00678762               37.04178650                0.01000001               -0.16840041               -0.30638147                0.13482811                0.75114396                0.18921398                0.22309749
               8.00978152                6.00866951               37.04363881                0.01000000               -0.04454507               -0.39075269                0.14032692                0.53702643                0.16121139                0.28812650
               9.00990943                6.00879478               37.04504380                0.01000001                0.01899604               -0.38268384                0.14575606                0.29321746                0.09795664                0.33085274
              10.01016144                6.00666802               37.04558552                0.01000000                0.02520033               -0.14202524                0.15143339                0.14097695                0.05806886                0.31993138
               0.03697088                6.99607699               37.03938548                0.99999999               -0.03117787               -0.02862598                0.10113742               -0.00067503               -0.01108246                0.03777105
               1.03665911                6.99199324               37.03823145                0.99999999               -0.03192065               -0.03131504                0.10630828               -0.00062062               -0.01084174                0.01522850
               2.03633247                6.98791491               37.03707056                0.01000000               -0.28225131               -0.17224686                0.11158138                0.54137538                0.02693016                0.01530330
               3.03101408                6.98884794               37.03666426                0.01000001               -0.44649759               -0.39649902                0.11078997                1.05909976                0.09791260               -0.03039446
               4.02740252                6.99225223               37.03738862                0.01000008               -0.42275862               -0.16148168                0.11958939                1.12026139                0.18480542                0.03077273
               5.02255891                6.99748405               37.03902485                0.01000000               -0.46940061               -0.09396664                0.12784943                0.99650239                0.24021682                0.08927997
               6.01801451                7.00161500               37.04122054                0.01000001               -0.40717019               -0.10456133                0.13495717                0.71083924                0.27380787                0.15381604
               7.01441550                7.00416366               37.04384015                0.01000000               -0.28273175               -0.18117459                0.14155281                0.39997620                0.28508853                0.23672929
               8.01235987                7.00513744               37.04649380                0.01000002               -0.12887132               -0.29236177                0.14785719                0.12537266                0.25371373                0.35715425
               9.01183808                7.00537806               37.04859389                0.01000002               -0.03119049               -0.32743703                0.15362287               -0.00562439                0.15667154                0.45148773
              10.01173606                7.00584972               37.04929536                0.01000001               -0.01020145               -0.08933755                0.15856748               -0.03127399                0.08880799                0.50017510
               0.04106651                7.99577292               37.03954837                1.00000000               -0.03173443               -0.03071675                0.10289998                0.00035307               -0.00109627                0.02051978
               1.04074917                7.99167188               37.03837405                0.99999999               -0.03251721               -0.03244217                0.10827056                0.00007277               -0.00084713                0.00328836
               2.04041617                7.98757667               37.03719899                0.26077987               -0.03404442               -0.03411173                0.11353113               -0.00071792               -0.00224589               -0.01392030
               3.04006828                7.98347204               37.03599380                0.01000001               -0.34542198               -0.28593772                0.10588391                0.85128195                0.14007516               -0.07324910
               4.03350773                7.99145280               37.03766429                0.01000002               -0.65682128               -0.03849687                0.12054793                1.14714176                0.27618809                0.01474428
               5.02693185                7.99717661               37.03974772                0.01000001               -0.64105104                0.05850894                0.13234360                0.78500554                0.30981465                0.07000573
               6.02068671                8.00134325               37.04249062                0.01000000               -0.58272205                0.04856927                0.13992076                0.45337596                0.35884449                0.13011472
               7.01527741                8.00316413               37.04595628                0.01000002               -0.48060683               -0.00419464                0.14757099                0.07939010                0.42015212                0.21300307
               8.01107457                8.00282227               37.05025798                0.01000002               -0.30963688               -0.10446801                0.15537843               -0.27908202                0.40655183                0.35670849
               9.00908467                8.00224604               37.05367982                0.01000001               -0.12409654               -0.25222282                0.16173193               -0.48126376                0.27188073                0.75009495
              10.00859264                8.00488126               37.05534660                0.01000000               -0.04920351               -0.30530229                0.16638034               -0.34161704                0.18587785                0.71544846
               0.04518002                8.99546266               37.03979593                1.00000000               -0.03232080               -0.03136835                0.10498662                0.00036398                0.00250415                0.01995190
               1.04485681                8.99134440               37.03853627                0.99999998               -0.03310299               -0.03307951                0.11035643                0.00007754                0.00188944                0.00303220
               2.04451796                8.98723268               37.03726436                0.99999997               -0.03466070               -0.03470641                0.11573338                0.00017011               -0.00344567               -0.00991294
               3.04416359                8.98312919               37.03590113                0.01000000               -0.39385838               -0.03552155                0.12115923                0.62269051                0.15511882               -0.02455571
               4.03664079                8.99148230               37.03780722                0.01000000               -0.78975153                0.16343181                0.12596403                0.81283852                0.31837440                0.00287234
               5.02836856                8.99865423               37.04020373                0.01000000               -0.77731411                0.18393213                0.13548939                0.49579587                0.35532530                0.04161110
               6.02109451                9.00258638               37.04337000                0.01000005               -0.69221387                0.15822461                0.14379646                0.21260631                0.42542411                0.07859854
               7.01452429                9.00407976               37.04761099                0.01000002               -0.66990930                0.13261124                0.15219336               -0.04771180                0.53173554                0.13162439
               8.00769632                9.00304808               37.05328850                0.01000001               -0.71852376                0.12864954                0.16110859               -0.34988047                0.80928173                0.24170174
               9.00015381                9.00033360               37.06345540                0.99999998               -0.40315220               -0.12161146                0.17332104               -0.58224245                0.50806763                0.48696848
               9.99963328                8.99974367               37.06345360                0.99999999               -0.05205346               -0.28293126                0.17369070               -0.47742789               -0.00040648                0.40276207
               0.04931030                9.99514555               37.03994391                1.00000000               -0.03296071               -0.03171058                0.10702860               -0.00049724                0.01367116                0.01489964
               1.04898069                9.99101029               37.03867296                1.00000000               -0.03377596               -0.03341085                0.11242768               -0.00076172                0.01705596                0.00153683
               2.04863478                9.98688254               37.03747550                0.99999998               -0.03541104               -0.03501369                0.11790835               -0.00075155                0.01688133               -0.00298300
               3.04827247                9.98276161               37.03620968                0.41659036               -0.71976637               -0.03675791                0.12336655                0.80283243                0.15768372               -0.00494101
               4.03423945                9.99472143               37.03783957                0.01000000               -1.12643942                0.32391371                0.13055765                0.66454866                0.29773921                0.00793096
               5.02574368               10.00085525               37.04024249                0.01000004               -0.73630769                0.22010181                0.13788948                0.22682774                0.35524354                0.02801641
               6.01951330               10.00450774               37.04352032                0.01000001               -0.59411059                0.19213629                0.14615047                0.08993463                0.44453895                0.04820557
               7.01386147               10.00581635               37.04804784                0.01000000               -0.58450886                0.17365891                0.15459492               -0.02190534                0.60234921                0.07600753
               8.00782312               10.00539526               37.05477099                0.01000002               -0.65586174                0.23471788                0.16408414               -0.28744673                0.79657564                0.17079637
               9.00074424                9.99981381               37.06349901                0.99999999               -0.37995912               -0.05197898                0.17325005               -0.24958847                0.43682618                0.00033530
              10.00022394                9.99922264               37.06349720                1.00000000               -0.05202970               -0.05210329                0.17361997               -0.00005078                0.00037330               -0.00037279
              -0.00197591                0.00394444               38.03119932                1.00000000               -0.02379292               -0.02212942                0.07364994                0.00192064               -0.00340776                0.00393030
               0.99778616                0.00219159               38.03192072                0.99999999               -0.02544552               -0.02564530                0.08489695                0.00179208               -0.00365493               -0.00129991
               1.99751518                0.00044262               38.03263430                0.01619894               -0.01442821               -0.02915192                0.09613276                0.03325832                0.04547393               -0.00153765
               2.99749759               -0.00067285               38.03433980                0.01000001               -0.05559218                0.01986129                0.07020564                0.06223338                0.08961813               -0.01454870
               3.99640333                0.00150130               38.03576181                0.01000000               -0.17629439                0.05935000                0.10721414                0.17120580                0.08976269                0.00117540
               4.99397170                0.00754006               38.03767196                0.01000000               -0.44873923                0.08468624                0.09794821                0.45996985                0.11874433               -0.00367391
               5.98742855                0.01953514               38.03999566                0.10629358               -0.34145289               -0.02744099                0.08899543                0.50538742                0.07385264               -0.00133979
               6.98714265                0.02146362               38.04157256                0.99657032               -0.02971460               -0.02958041                0.09837983                0.00250084                0.02115121               -0.00473404
               7.98683426                0.02337225               38.04284584                1.00000000               -0.03213789               -0.03229688                0.10711226                0.00130144                0.00801011               -0.00050683
               8.98649989                0.02528295               38.04415651                1.00000000               -0.03473192               -0.03491090                0.11587711                0.00130528                0.00795068                0.00096645
               9.98613962                0.02719798               38.04542756                1.00000000               -0.03602721               -0.03761440                0.12456748                0.00119583                0.00592815                0.00540659
              -0.00020386                1.00372314               38.03109500                1.00000000               -0.02411513               -0.02225247                0.07472009                0.00022228                0.00144014                0.00450028
               0.99955499                1.00193514               38.03181363                0.07811321               -0.02580782               -0.02589552                0.08600224                0.00010910                0.00353155               -0.00325862
               1.99927998                1.00015110               38.03257312                0.01000000               -0.09821988               -0.02814564                0.09736989                0.06016709                0.05021640                0.02694554
               2.99759059                0.99952576               38.03422953                0.01000001               -0.26355231                0.01609684                0.08619631                0.13236400                0.10565143                0.01501578
               3.99400893                1.00209480               38.03572505                0.01000000               -0.40180535                0.04600858                0.10792980                0.36620962                0.06938978                0.01616575
               4.98955448                1.00838692               38.03734661                0.01000000               -0.42441460                0.02731844                0.10068335                0.71282986                0.06609688                0.01009020
               5.98552064                1.01926073               38.03922175                0.01000001               -0.21526888               -0.25514056                0.09022837                0.66529366                0.04166441                0.00070388
               6.98524910                1.02116782               38.04070927                0.99360332               -0.02915180               -0.02974046                0.09945965                0.00142588                0.01171254               -0.00461728
               7.98493761                1.02304928               38.04197706                1.00000000               -0.03245150               -0.03245045                0.10815596               -0.00003474                0.00128305               -0.00041893
               8.98460007                1.02493384               38.04325413                0.99999999               -0.03505333               -0.03505856                0.11686741               -0.00002838                0.00121227                0.00065197
               9.98423654                1.02682184               38.04452063                0.99999998               -0.03635339               -0.03775825                0.12554846               -0.00016292                0.00058805                0.00671824
               0.00160454                2.00349939               38.03099783                0.01000001               -0.02441583               -0.01256549                0.07585553               -0.00171194                0.00195545                0.10880043
               1.00136038                2.00167368               38.03166793                0.01000000               -0.02383216               -0.09035169                0.08704974                0.00191196                0.03936665                0.09508474
               2.00112789                1.99987971               38.03308696                0.01000001               -0.15796015               -0.09063175                0.08396714                0.06716687                0.07981785                0.08724165
               2.99820118                1.99964909               38.03458387                0.01000000               -0.31307657               -0.03761374                0.10061684                0.30894663                0.05905833                0.04762119
               3.99486636                2.00242147               38.03586162                0.01000000               -0.35694046               -0.02764799                0.10600713                0.65039960                0.04460406                0.03844453
               4.99106237                2.00808643               38.03716415                0.01000001               -0.34564176               -0.10322002                0.10495187                0.89607988                0.03166217                0.03363237
               5.98795353                2.01443233               38.03848509                0.01000000               -0.38398739               -0.35368289                0.10366984                0.96012962                0.02193984                0.02156804
               6.98338262                2.02086881               38.03984449                0.01000000               -0.24429950               -0.20202410                0.10056202                0.56842081                0.00051328                0.02576951
               7.98306754                2.02272324               38.04110833                0.13351348               -0.03279298               -0.03275250                0.10921181                0.00019677               -0.00557094               -0.00014081
               8.98272676                2.02458178               38.04234586                0.99999999               -0.03535905               -0.03528321                0.11783489                0.00005905               -0.00401490               -0.00162987
               9.98236036                2.02644282               38.04364219                1.00000000               -0.03664028               -0.03807504                0.12652269               -0.00011666               -0.00122073                0.00665420
               0.00341331                3.00347183               38.03297689                0.01000001               -0.02004047                0.00476518                0.07796373                0.01014010                0.00584828                0.21828914
               1.00321290                3.00012810               38.03353029                0.01000001               -0.03826975               -0.18305536                0.08588383                0.09961822                0.01377693                0.17723977
               2.00264791                2.99833847               38.03426377                0.01000000               -0.09925724               -0.20090401                0.09261582                0.28621036                0.02963508                0.11058049
               3.00122776                2.99877349               38.03517688                0.01000000               -0.20341655               -0.15054917                0.10277558                0.59206762                0.03892271                0.06647828
               3.99857958                3.00154184               38.03618804                0.01000001               -0.28812711               -0.13957846                0.10838210                0.86043713                0.03796489                0.05573850
               4.99546522                3.00632252               38.03729216                0.01000000               -0.33193646               -0.19462232                0.11007367                1.06392352                0.03466757                0.06219357
               5.99194085                3.01218707               38.03846345                0.01000001               -0.35693017               -0.25047567                0.11081361                1.08171821                0.02177293                0.07684656
               6.98832661                3.01712733               38.03958694                0.01000001               -0.53561386               -0.30986901                0.11176647                1.13140838               -0.01751992                0.08507112
               7.98122858                3.02239423               38.04024492                0.01000001               -0.37224699               -0.22975058                0.10595387                0.91545700               -0.04437044                0.09719318
               8.98088167                3.02422817               38.04139940                0.01000000               -0.03582269               -0.27972892                0.11876706                0.70010945               -0.01072592                0.09353632
               9.98051212                3.02606034               38.04273736                0.70316384               -0.03695514               -0.61030952                0.12750748                0.81727907               -0.00175338                0.07651831
               0.00849479                4.00359469               38.03493473                0.01000001               -0.00086843               -0.04534246                0.08209536                0.17231628               -0.00425796                0.22982745
               1.00848611                3.99801257               38.03512342                0.01000000               -0.01440370               -0.26781212                0.09082695                0.36135103                0.00155039                0.16108952
               2.00820672                3.99586163               38.03541467                0.01000000               -0.08234761               -0.27114930                0.09919380                0.65595823                0.01707234                0.10519655
               3.00683916                3.99663810               38.03593777                0.01000002               -0.18403249               -0.23475479                0.10584817                0.86088504                0.03628035                0.07195777
               4.00452607                3.99962990               38.03673859                0.01000000               -0.25717783               -0.21880122                0.11118269                1.04986725                0.05248101                0.06938143
               5.00169560                4.00419398               38.03777782                0.01000001               -0.28714945               -0.23359113                0.11496479                1.17107285                0.06023207                0.08739938
               5.99878308                4.00942282               38.03896364                0.01000001               -0.29459833               -0.28275580                0.11789832                1.24252150                0.05671346                0.11690273
               6.99580363                4.01467143               38.04015975                0.01000001               -0.22536218               -0.31698916                0.12008198                1.23409876                0.04421577                0.15335230
               7.99427584                4.01812823               38.04132638                0.01000001               -0.13703981               -0.44426751                0.12370741                1.31784786                0.03243602                0.20163652
               8.99306284                4.01898720               38.04239706                0.01000000                0.03828864               -0.53476403                0.12892150                0.94353532                0.01331239                0.20213822
               9.99504161                4.01423663               38.04326065                0.01000002                0.19787723               -0.85527959                0.13677519                0.71851525                0.01280655                0.14537874
               0.01802387                5.00256498               38.03707437                0.01000000                0.01491212               -0.36368060                0.08801803                0.48653681               -0.01016776                0.26315033
               1.01817299                4.99477186               38.03677048                0.01000000               -0.04411580               -0.29273070                0.09545399                0.76846553               -0.00389652                0.17587607
               2.01714155                4.99291548               38.03656596                0.01000001               -0.17478999               -0.25090399                0.10253682                0.90846438                0.01464449                0.08677323
               3.01467719                4.99407839               38.03673017                0.01000000               -0.25602516               -0.26876182                0.10910680                1.05541488                0.04857284                0.06350599
               4.01202105                4.99716581               38.03742419                0.01000001               -0.27917157               -0.24822629                0.11478289                1.15524962                0.08397041                0.07031825
               5.00909376                5.00165070               38.03852914                0.01000001               -0.28536055               -0.25005085                0.11985676                1.21080509                0.10646015                0.10083059
               6.00631384                5.00653196               38.03991206                0.01000002               -0.23952878               -0.28538495                0.12441979                1.17816446                0.11552474                0.14625520
               7.00430318                5.01078755               38.04141489                0.01000000               -0.15220349               -0.37551115                0.12889183                1.09760114                0.11121785                0.19814323
               8.00326977                5.01350888               38.04285873                0.01000001               -0.03296013               -0.45320931                0.13364157                0.91021183                0.09140456                0.24116103
               9.00364398                5.01353289               38.04403039                0.01000000                0.05569005               -0.49311806                0.13899754                0.61341754                0.05514879                0.25508853
              10.00438357                5.00895475               38.04469339                0.01000001                0.07395890               -0.37015254                0.14552578                0.29861246                0.03460757                0.21794363
               0.03381177                5.99632108               38.03974742                0.22617083               -0.03068480               -0.32514053                0.09497112                0.58186575               -0.00343820                0.16171496
               1.03350492                5.99215796               38.03884325                0.01000001               -0.33711459               -0.14556614                0.10077248                0.70155158               -0.02562484                0.11034738
               2.02706948                5.99084355               38.03748274                0.01000000               -0.49039003               -0.26240328                0.10612201                0.96611375               -0.01153086                0.06136617
               3.02369712                5.99126287               38.03742261                0.01000001               -0.35053625               -0.27129641                0.11183707                1.04783442                0.07528842                0.03725405
               4.02005875                5.99466537               38.03810507                0.01000001               -0.35757825               -0.24905702                0.11826468                1.19741965                0.12853764                0.05499910
               5.01654556                5.99919297               38.03941831                0.01000002               -0.34246170               -0.20325251                0.12460709                1.14869664                0.16828478                0.10165257
               6.01320952                6.00371512               38.04117292                0.01000000               -0.28834094               -0.23451759                0.13067369                0.99857164                0.18904443                0.16061109
               7.01077874                6.00716121               38.04314313                0.01000001               -0.17373943               -0.31715306                0.13639142                0.78250405                0.18857334                0.22934316
               8.00973473                6.00906404               38.04505056                0.01000000               -0.04467095               -0.40551406                0.14193014                0.55949813                0.16052169                0.29515579
               9.00988532                6.00912484               38.04651032                0.01000001                0.02177112               -0.39803224                0.14744298                0.30529400                0.09736851                0.33786227
              10.01017015                6.00683358               38.04711022                0.01000000                0.02848341               -0.14959950                0.15336631                0.14663624                0.05765478                0.32541254
               0.03798742                6.99606217               38.04038574                0.99891946               -0.03058677               -0.02791324                0.09900510               -0.00059375               -0.01119335                0.03827584
               1.03768155                6.99186054               38.03928651                1.00000000               -0.03142487               -0.03078080                0.10473329               -0.00055218               -0.01092279                0.01579115
               2.03735892                6.98766741               38.03818153                0.01000000               -0.29347500               -0.17565111                0.11058456                0.56396341                0.02509114                0.01636261
               3.03181205                6.98865246               38.03779443                0.01000001               -0.46597900               -0.40717719                0.11402237                1.10121685                0.09724122               -0.03647281
               4.02803934                6.99218467               38.03858746                0.01000001               -0.43970525               -0.16464211                0.12090773                1.16354722                0.18692351                0.03100688
               5.02301794                6.99758565               38.04030930                0.01000000               -0.48611563               -0.09551994                0.12913123                1.03486514                0.24271458                0.09175484
               6.01831703                7.00184161               38.04257722                0.01000001               -0.42068020               -0.10747377                0.13646465                0.73981612                0.27534482                0.15836158
               7.01460434                7.00444449               38.04526464                0.01000000               -0.29104638               -0.18770906                0.14328857                0.41766422                0.28650493                0.24262783
               8.01249610                7.00539860               38.04798142                0.01000002               -0.13120101               -0.30360240                0.14960280                0.13273461                0.25484852                0.36437454
               9.01198032                7.00557225               38.05013898                0.01000002               -0.02986444               -0.34045526                0.15533259               -0.00384526                0.15719853                0.45876012
              10.01189881                7.00596276               38.05089070                0.01000001               -0.00815096               -0.09417502                0.16041241               -0.03097687                0.08891473                0.50571852
               0.04220316                7.99576281               38.04057149                1.00000000               -0.03145242               -0.03038937                0.10176393                0.00048277               -0.00106755                0.02047149
               1.04188864                7.99154234               38.03945345                0.99999999               -0.03231686               -0.03226605                0.10763758                0.00004564               -0.00086900                0.00332405
               2.04155682                7.98733053               38.03833414                0.27140974               -0.03422179               -0.03412039                0.11347740               -0.00038743               -0.00580437               -0.01385516
               3.04120420                7.98311932               38.03711499                0.01000001               -0.35801562               -0.29437033                0.11393968                0.88232003                0.13881712               -0.07076104
               4.03439651                7.99137253               38.03889269                0.01000004               -0.68091375               -0.03872041                0.12440489                1.18868784                0.28397460                0.01544914
               5.02758593                7.99728257               38.04106954                0.01000001               -0.66247544                0.06149053                0.13326422                0.81451507                0.31366086                0.07245728
               6.02114700                8.00156564               38.04389966                0.01000000               -0.60054461                0.05049981                0.14173149                0.47154473                0.36225227                0.13366724
               7.01557503                8.00340703               38.04744097                0.01000001               -0.49426693               -0.00488615                0.14940580                0.08439841                0.42376582                0.21786921
               8.01126166                8.00299199               38.05181998                0.01000002               -0.31653900               -0.10956777                0.15700094               -0.28651996                0.41017794                0.36319628
               9.00924425                8.00231573               38.05530401                0.01000000               -0.12460319               -0.26390995                0.16308693               -0.49360896                0.27427397                0.75947462
              10.00876960                8.00495008               38.05701679                0.01000000               -0.04746533               -0.31332185                0.16761796               -0.35004977                0.18740459                0.72120086
               0.04643801                8.99545438               38.04084478                1.00000000               -0.03232604               -0.03131144                0.10476823                0.00049122                0.00251322                0.02001341
               1.04611475                8.99121522               38.03964121                0.99999998               -0.03319085               -0.03317515                0.11064509                0.00004392                0.00190613                0.00310044
               2.04577419                8.98698501               38.03842566                0.99999996               -0.03491534               -0.03497229                0.11654854                0.00009048               -0.00341103               -0.00980367
               3.04541644                8.98276506               38.03711924                0.01000000               -0.40621712               -0.03634838                0.12249800                0.64309765                0.15514923               -0.02095966
               4.03764985                8.99141026               38.03908173                0.01000000               -0.81506544                0.16912993                0.12885179                0.84131578                0.32073214                0.00478093
               5.02911513                8.99881546               38.04156672                0.01000000               -0.80131944                0.19018679                0.13748073                0.51427506                0.35917526                0.04329028
               6.02162346                9.00285160               38.04481835                0.01000002               -0.71245873                0.16330364                0.14591822                0.22093460                0.42959568                0.08050263
               7.01486596                9.00434677               38.04914289                0.01000002               -0.68832337                0.13632904                0.15420262               -0.04879695                0.53695393                0.13440667
               8.00785699                9.00320724               38.05490705                0.01000000               -0.73579521                0.13119588                0.16260508               -0.36302170                0.81744716                0.24569647
               9.00015006                9.00029405               38.06518971                0.99999997               -0.41139352               -0.12709154                0.17354754               -0.60038204                0.51371981                0.49257143
               9.99962912                8.99969632               38.06519057                0.99999999               -0.05209312               -0.28872182                0.17370264               -0.48687169               -0.00041057                0.40619092
               0.05069132                9.99513658               38.04101761                1.00000000               -0.03324245               -0.03178000                0.10769723               -0.00044366                0.01372270                0.01493016
               1.05035889                9.99087884               38.03980307                1.00000000               -0.03412610               -0.03363772                0.11359777               -0.00086098                0.01715083                0.00157593
               2.05000879                9.98663108               38.03866267                0.99999997               -0.03589984               -0.03539272                0.11954973               -0.00086417                0.01699783               -0.00292019
               3.04964090                9.98239235               38.03745342                0.46223645               -0.74181863               -0.03727021                0.12545662                0.82864782                0.15856374               -0.00498718
               4.03517242                9.99475513               38.03915569                0.01000001               -1.16054039                0.33448661                0.13288182                0.68695459                0.29958258                0.00940480
               5.02643009               10.00108630               38.04163462                0.01000001               -0.75690171                0.22708425                0.14059521                0.23532464                0.35803680                0.02870225
               6.02003439               10.00483172               38.04499422                0.01000001               -0.60933157                0.19801129                0.14870570                0.09345784                0.44844906                0.04901298
               7.01424346               10.00613361               38.04960504                0.01000000               -0.59902210                0.17868409                0.15686529               -0.02304065                0.60777351                0.07718850
               8.00805395               10.00561591               38.05641908                0.01000002               -0.67479616                0.24086685                0.16554557               -0.29829018                0.80344033                0.17271322
               9.00074753                9.99977390               38.06523146                0.99999999               -0.39131600               -0.05201491                0.17324036               -0.26226566                0.44091212                0.00033623
              10.00022763                9.99917564               38.06523230                1.00000000               -0.05199070               -0.05206792                0.17339541                0.00002417                0.00037509               -0.00037484
              -0.00278803                0.00408290               39.03193174                1.00000000               -0.02364301               -0.02193211                0.07278916                0.00210688               -0.00349365                0.00385569
               0.99697554                0.00228012               39.03276939                0.99999999               -0.02540340               -0.02567667                0.08477604                0.00191959               -0.00373850               -0.00140953
               1.99670390                0.00048266               39.03359898                0.01000000               -0.02884676               -0.02941792                0.09675088                0.03080873                0.00836262               -0.00148352
               2.99639860               -0.00073122               39.03467974                0.01000001               -0.06544438                0.02310303                0.09885988                0.07396158                0.05041872                0.04110813
               3.99539501                0.00159692               39.03693923                0.01000000               -0.17198372                0.05742674                0.10439313                0.18310664                0.08696347                0.00069638
               4.99295893                0.00782527               39.03863888                0.01000000               -0.46103276                0.09037425                0.09372845                0.47799785                0.09152969               -0.00175610
               5.98617436                0.02028890               39.04088085                0.09791755               -0.35365499               -0.02724172                0.08806429                0.52626373                0.06596981               -0.00151014
               6.98588583                0.02227443               39.04255232                0.99485973               -0.02976437               -0.02939811                0.09768462                0.00304133                0.02157708               -0.00463961
               7.98557907                0.02423090               39.04391487                1.00000000               -0.03203452               -0.03221860                0.10676517                0.00132919                0.00813845               -0.00044896
               8.98524514                0.02619000               39.04531517                1.00000000               -0.03473303               -0.03493404                0.11587427                0.00133662                0.00802122                0.00096010
               9.98488441                0.02815404               39.04667461                1.00000000               -0.03607289               -0.03772534                0.12484093                0.00120753                0.00593769                0.00539952
              -0.00096418                1.00386358               39.03183907                0.99669900               -0.02409661               -0.02211589                0.07428798                0.00029465                0.00154535                0.00444473
               0.99879486                1.00202335               39.03267458                0.09544620               -0.02590837               -0.02599506                0.08633089                0.00012177                0.00363138               -0.00342924
               1.99851765                1.00018848               39.03355224                0.01000000               -0.11068836               -0.02899099                0.09846946                0.05906381                0.03643975                0.02218480
               2.99658109                0.99949981               39.03504861                0.01000001               -0.27849091                0.01771789                0.10863678                0.14989638                0.03598511                0.04002024
               3.99294784                1.00217118               39.03686088                0.01000000               -0.40940861                0.04614204                0.10661987                0.38805532                0.05080924                0.00467058
               4.98839292                1.00872901               39.03835012                0.01000000               -0.43677115                0.03031764                0.09844174                0.74426660                0.04251856                0.01163321
               5.98421241                1.02001648               39.04012066                0.01000001               -0.22238374               -0.26355823                0.08957071                0.69298934                0.03227396                0.00675352
               6.98394524                1.02198045               39.04170131                0.99248076               -0.02889186               -0.02960767                0.09903366                0.00195279                0.01199924               -0.00456123
               7.98363458                1.02390871               39.04305776                1.00000000               -0.03241533               -0.03241066                0.10803093               -0.00006555                0.00132481               -0.00038316
               8.98329694                1.02584066               39.04442364                0.99999999               -0.03510642               -0.03510948                0.11703923               -0.00004967                0.00122636                0.00062513
               9.98293245                1.02777678               39.04577841                0.99999998               -0.03644872               -0.03789581                0.12599747               -0.00019642                0.00057803                0.00670884
               0.00089832                2.00364058               39.03175455                0.01000000               -0.02452469               -0.00914531                0.07587537                0.00334911                0.00202279                0.10917224
               1.00065308                2.00176022               39.03254008                0.01000000               -0.02448043               -0.09276726                0.08779812                0.00610659                0.03473624                0.09394145
               2.00040871                1.99990284               39.03398414                0.01000001               -0.16196258               -0.09466743                0.09203977                0.07121885                0.07678737                0.08461832
               2.99741382                1.99962314               39.03563305                0.01000000               -0.32408959               -0.03815517                0.10580478                0.33154378                0.06536380                0.05144598
               3.99392692                2.00251976               39.03691463                0.01000000               -0.37074298               -0.02663025                0.10662789                0.68561057                0.02986379                0.02703331
               4.98999896                2.00843162               39.03821968                0.01000001               -0.35721084               -0.10551448                0.10444723                0.93627767                0.01906771                0.03550354
               5.98678271                2.01501773               39.03952081                0.01000000               -0.39831558               -0.36549796                0.10313820                1.00018067                0.00988177                0.03028728
               6.98203265                2.02168228               39.04084917                0.01000000               -0.25325791               -0.20834300                0.10042162                0.59174233               -0.00550071                0.03083797
               7.98171755                2.02358268               39.04220093                0.13648343               -0.03282896               -0.03283027                0.10932243                0.00024159               -0.00566040               -0.00140514
               8.98137607                2.02548781               39.04352597                0.99999999               -0.03546568               -0.03538797                0.11818289                0.00004397               -0.00408458               -0.00168809
               9.98100823                2.02739612               39.04491059                1.00000000               -0.03678402               -0.03826503                0.12714256               -0.00014951               -0.00124667                0.00665537
               0.00286354                3.00368067               39.03375632                0.01000000               -0.02088075                0.00995935                0.07796382                0.01467546                0.00365793                0.22000748
               1.00265473                3.00016800               39.03439713                0.01000001               -0.03922170               -0.18839071                0.08721666                0.10879127                0.01142248                0.17749182
               2.00207911                2.99829513               39.03520956                0.01000000               -0.10298450               -0.20802699                0.09569047                0.30412245                0.02876023                0.11467624
               3.00059504                2.99873671               39.03620208                0.01000000               -0.21137696               -0.15303015                0.10374176                0.62129441                0.03542279                0.06248764
               3.99785157                3.00163858               39.03727732                0.01000000               -0.29872745               -0.14166521                0.10875852                0.90197935                0.03229609                0.05451049
               4.99462050                3.00661872               39.03839471                0.01000000               -0.34430987               -0.19978897                0.11032282                1.11054853                0.02553999                0.06377603
               5.99096537                3.01270652               39.03957227                0.01000001               -0.37026791               -0.25799820                0.11087566                1.12648253                0.01338835                0.08230528
               6.98721514                3.01781359               39.04070460                0.01000001               -0.55657488               -0.31994912                0.11196834                1.17687549               -0.02816673                0.09367889
               7.97983387                3.02325211               39.04132341                0.01000001               -0.38653788               -0.23750121                0.10894711                0.95212663               -0.04978844                0.10343146
               8.97948438                3.02513290               39.04258972                0.01000001               -0.03605178               -0.29004568                0.11929559                0.72850088               -0.00958779                0.09814227
               9.97911284                3.02701148               39.04401650                0.72801033               -0.03715416               -0.63458547                0.12829781                0.85066935               -0.00176022                0.08069377
               0.00821717                4.00383977               39.03575071                0.01000001               -0.00027254               -0.04492574                0.08123175                0.18154090               -0.00483361                0.23315511
               1.00821445                3.99799240               39.03602694                0.01000000               -0.01473561               -0.27554138                0.09022512                0.38001714                0.00066109                0.16279630
               2.00792246                3.99574230               39.03639681                0.01000000               -0.08590917               -0.27812768                0.09841323                0.68815136                0.01574630                0.10574315
               3.00649626                3.99656254               39.03699791                0.01000002               -0.19189802               -0.23915314                0.10605063                0.90222934                0.03415052                0.07140954
               4.00408450                3.99968645               39.03785224                0.01000000               -0.26771345               -0.22342574                0.11163876                1.09726170                0.04809428                0.06879141
               5.00114199                4.00443584               39.03893134                0.01000001               -0.29835055               -0.23958951                0.11558425                1.22136390                0.05499493                0.08971725
               5.99811749                4.00985777               39.04014576                0.01000001               -0.30587079               -0.29126037                0.11853501                1.29357241                0.05078090                0.12200380
               6.99502458                4.01528329               39.04136344                0.01000097               -0.23383600               -0.32714068                0.12079800                1.28325457                0.03883377                0.16070875
               7.99344077                4.01883266               39.04256555                0.01000001               -0.14189311               -0.46002795                0.12441553                1.37044157                0.02861568                0.21375374
               8.99218672                4.01968690               39.04369118                0.01000000                0.04118441               -0.55563267                0.12996902                0.98139627                0.01153419                0.21116546
               9.99426446                4.01470441               39.04463365                0.01000000                0.20777403               -0.89059767                0.13784261                0.74756633                0.01232596                0.15291341
               0.01818910                5.00278216               39.03794406                0.01000000                0.01634506               -0.37857039                0.08604517                0.50924725               -0.01005472                0.26715661
               1.01835255                4.99465718               39.03771789                0.01000000               -0.04585498               -0.30016500                0.09409907                0.80438276               -0.00365481                0.17754818
               2.01727200                4.99273258               39.03758853                0.01000001               -0.18285374               -0.25544649                0.10189659                0.95036947                0.01430551                0.08704306
               3.01469547                4.99395365               39.03781907                0.01000000               -0.26742502               -0.27398512                0.10898615                1.10241302                0.04731359                0.06294506
               4.01192350                4.99717006               39.03857479                0.01000001               -0.29095085               -0.25336578                0.11534437                1.20512244                0.08204746                0.07068263
               5.00887646                5.00182693               39.03973220                0.01000001               -0.29670665               -0.25635065                0.12078297                1.26158341                0.10377238                0.10324752
               6.00598937                5.00688131               39.04116171                0.01000008               -0.24855606               -0.29381162                0.12550543                1.22659765                0.11258083                0.15101611
               7.00390534                5.01127077               39.04270882                0.01000000               -0.15751325               -0.38792788                0.12995414                1.14199137                0.10831704                0.20515371
               8.00283910                5.01405155               39.04419936                0.01000001               -0.03323912               -0.46913619                0.13463965                0.94667320                0.08898302                0.24929809
               9.00324055                5.01402025               39.04542618                0.01000000                0.05950173               -0.51217313                0.14020148                0.63792033                0.05364906                0.26314127
              10.00402914                5.00919953               39.04615626                0.01000001                0.07885813               -0.38627242                0.14699903                0.31044237                0.03372796                0.22442509
               0.03465208                5.99626836               39.04068301                0.20167383               -0.03003967               -0.33818619                0.09214448                0.60989315               -0.00352481                0.16394612
               1.03435168                5.99198910               39.03983959                0.01000001               -0.35093507               -0.14791545                0.09854232                0.73286601               -0.02569886                0.11165132
               2.02763338                5.99063337               39.03854021                0.01000000               -0.51223252               -0.26709046                0.10546900                1.00740505               -0.01179145                0.06185172
               3.02410703                5.99108283               39.03854379                0.01000001               -0.36598579               -0.27637655                0.11225576                1.09216310                0.07514680                0.03639149
               4.02031366                5.99461914               39.03929126                0.01000001               -0.37223108               -0.25426572                0.11909553                1.24643066                0.12849839                0.05526650
               5.01666241                5.99930883               39.04067031                0.01000008               -0.35540342               -0.20795046                0.12582276                1.19546893                0.16815010                0.10405978
               6.01320560                6.00398154               39.04248641                0.01000000               -0.29841205               -0.24129088                0.13206522                1.03963049                0.18853433                0.16514585
               7.01069417                6.00752474               39.04451433                0.01000001               -0.17904183               -0.32761999                0.13784978                0.81522345                0.18783855                0.23559269
               8.00962476                6.00944994               39.04647741                0.01000000               -0.04485155               -0.41980181                0.14340099                0.58310503                0.15965438                0.30242954
               9.00979714                6.00944343               39.04799266                0.01000001                0.02449897               -0.41303359                0.14897470                0.31806225                0.09664921                0.34497701
              10.01011474                6.00697896               39.04865284                0.01000003                0.03175978               -0.15710070                0.15507144                0.15264248                0.05715860                0.33085804
               0.03894549                6.99601844               39.04136558                0.99683594               -0.03006212               -0.02725253                0.09704861               -0.00049923               -0.01131087                0.03876368
               1.03864486                6.99169887               39.04032612                0.99983890               -0.03095593               -0.03027186                0.10323535               -0.00051081               -0.01099656                0.01631802
               2.03832637                6.98739077               39.03928226                0.01000000               -0.30459490               -0.17889669                0.10955327                0.58662062                0.02445685                0.01689413
               3.03255297                6.98842611               39.03894471                0.01000001               -0.48501240               -0.41754080                0.11550784                1.14365067                0.09716261               -0.03812421
               4.02862612                6.99208475               39.03980677                0.01000183               -0.45647643               -0.16758118                0.12269442                1.20804019                0.18885478                0.03141667
               5.02342344                6.99766792               39.04160747                0.01000000               -0.50300260               -0.09702423                0.13065513                1.07532208                0.24485631                0.09412013
               6.01856607                7.00205550               39.04394984                0.01000001               -0.43410162               -0.11030318                0.13811389                0.77025911                0.27709053                0.16247977
               7.01474141                7.00471837               39.04670592                0.01000000               -0.29917823               -0.19407337                0.14498736                0.43691233                0.28788227                0.24838715
               8.01258250                7.00565551               39.04948585                0.01000001               -0.13343159               -0.31446848                0.15126034                0.14157657                0.25581920                0.37144003
               9.01207277                7.00575957               39.05170055                0.01000002               -0.02857872               -0.35293163                0.15692976               -0.00108985                0.15756366                0.46580703
              10.01201093                7.00605752               39.05250361                0.01000001               -0.00618454               -0.09867787                0.16208668               -0.03018490                0.08888964                0.51082700
               0.04328123                7.99572331               39.04158365                1.00000000               -0.03120947               -0.03008164                0.10070622                0.00063171               -0.00106393                0.02045282
               1.04296914                7.99138366               39.04052680                0.99999999               -0.03213432               -0.03210392                0.10706122                0.00006513               -0.00088898                0.00338908
               2.04263855                7.98705543               39.03946854                0.27943897               -0.03415367               -0.03413468                0.11342081               -0.00031534               -0.00775738               -0.01376995
               3.04228606                7.98273202               39.03827259                0.01000001               -0.37029415               -0.30272760                0.11693438                0.91348112                0.13910397               -0.07033343
               4.03523266                7.99126751               39.04015239                0.01000001               -0.70439779               -0.03849174                0.12700281                1.23090776                0.28784999                0.01680223
               5.02819811                7.99736834               39.04241300                0.01000001               -0.68361695                0.06435177                0.13538468                0.84499842                0.31730708                0.07465713
               6.02156032                8.00177547               39.04532525                0.01000000               -0.61828524                0.05231871                0.14358015                0.49095531                0.36561984                0.13704037
               7.01583240                8.00364327               39.04894440                0.01000001               -0.50726168               -0.00572708                0.15128870                0.09091744                0.42735399                0.22259419
               8.01141509                8.00316057               39.05339800                0.01000002               -0.32295317               -0.11462962                0.15860726               -0.29212666                0.41351745                0.36948745
               9.00937334                8.00238480               39.05694156                0.01000001               -0.12499649               -0.27509963                0.16439711               -0.50416247                0.27642352                0.76819917
              10.00891516                8.00500541               39.05869896                0.01000000               -0.04581797               -0.32027677                0.16876890               -0.35731874                0.18868569                0.72606649
               0.04763742                8.99541680               39.04189130                1.00000000               -0.03233723               -0.03124128                0.10453596                0.00062852                0.00253193                0.02005164
               1.04731405                8.99105679               39.04074917                0.99999998               -0.03328556               -0.03327913                0.11096491                0.00003907                0.00193381                0.00315598
               2.04697171                8.98670807               39.03959533                0.99999996               -0.03517681               -0.03526579                0.11742006                0.00003094               -0.00335304               -0.00970698
               3.04661051                8.98237156               39.03835109                0.01000000               -0.41818779               -0.03692589                0.12390166                0.66357517                0.15564981               -0.01891714
               4.03860795                8.99131492               39.04038425                0.01000000               -0.83975305                0.17470434                0.13144818                0.87003146                0.32303135                0.00615271
               5.02981545                8.99895496               39.04295335                0.01000000               -0.82488512                0.19625676                0.13990556                0.53273703                0.36274591                0.04475409
               6.02211025                9.00310187               39.04628836                0.01000002               -0.73203938                0.16803951                0.14820676                0.23002120                0.43363327                0.08249264
               7.01517466                9.00460383               39.05069504                0.01000002               -0.70559061                0.13962790                0.15628201               -0.04896345                0.54182700                0.13709459
               8.00799844                9.00336292               39.05654060                0.01000001               -0.75149869                0.13324570                0.16412490               -0.37479163                0.82478898                0.24954553
               9.00014469                9.00025758               39.06692635                0.99999997               -0.41875448               -0.13238759                0.17378434               -0.61675142                0.51884905                0.49774204
               9.99962335                8.99965198               39.06692765                0.99999999               -0.05213403               -0.29368639                0.17371141               -0.49483095               -0.00041472                0.40914576
               0.05201383                9.99509849               39.04209785                1.00000000               -0.03351805               -0.03183163                0.10833348               -0.00039941                0.01375125                0.01493760
               1.05167865                9.99071808               39.04094492                1.00000000               -0.03447188               -0.03387086                0.11475986               -0.00095806                0.01720657                0.00159388
               2.05132439                9.98635012               39.03986649                0.99999997               -0.03639618               -0.03579545                0.12121617               -0.00096051                0.01704575               -0.00288202
               3.05095073                9.98199350               39.03871881                0.49542234               -0.76372460               -0.03780626                0.12764235                0.85459575                0.15930227               -0.00500152
               4.03604990                9.99476160               39.04049721                0.01000003               -1.19424156                0.34466858                0.13553848                0.70919377                0.30153987                0.01028120
               5.02706589               10.00129348               39.04305439                0.01000000               -0.77690146                0.23385222                0.14347356                0.24377769                0.36078995                0.02938207
               6.02051187               10.00513626               39.04649443                0.01000001               -0.62369039                0.20343929                0.15147163                0.09727962                0.45202451                0.04985095
               7.01459209               10.00643583               39.05118515                0.01000000               -0.61231811                0.18319931                0.15924359               -0.02379654                0.61249902                0.07829997
               8.00826551               10.00582548               39.05808190                0.01000002               -0.69214176                0.24625625                0.16706018               -0.30823161                0.80910194                0.17445814
               9.00074925                9.99973705               39.06696382                0.99999999               -0.40178808               -0.05205325                0.17323367               -0.27423378                0.44436736                0.00033690
              10.00022975                9.99913168               39.06696511                1.00000000               -0.05195044               -0.05203022                0.17316072                0.00010277                0.00037702               -0.00037672
              -0.00372108                0.00420689               40.03265510                1.00000000               -0.02347655               -0.02176615                0.07188339                0.00232432               -0.00356522                0.00385091
               0.99604415                0.00235302               40.03361624                0.99999999               -0.02534180               -0.02571581                0.08457219                0.00200690               -0.00380119               -0.00145252
               1.99577208                0.00050643               40.03456932                0.01000001               -0.04392173               -0.02967973                0.09727546                0.03919333                0.03548694               -0.00146028
               2.99516572               -0.00058844               40.03631699                0.01000001               -0.07943104               -0.00387097                0.17176154                0.04186730                0.08184103                0.00971467
               3.99418346                0.00167192               40.03784967                0.01000000               -0.16525205                0.05408856                0.09435077                0.18756045                0.06550309               -0.00418889
               4.99186068                0.00808246               40.03954653                0.01000002               -0.46744817                0.09563270                0.08890873                0.49611033                0.08803274               -0.00066530
               5.98483450                0.02102532               40.04175695                0.09000310               -0.36602554               -0.02694778                0.08695864                0.54756230                0.06055184               -0.00172787
               6.98454017                0.02307285               40.04352625                0.99161021               -0.03001615               -0.02931017                0.09731721                0.00379073                0.02206816               -0.00449078
               7.98423417                0.02507750               40.04498114                1.00000000               -0.03197972               -0.03219436                0.10660500                0.00137830                0.00830491               -0.00036817
               8.98390057                0.02708522               40.04647399                1.00000000               -0.03473408               -0.03496679                0.11589877                0.00138260                0.00810251                0.00094715
               9.98353949                0.02909839               40.04792438                1.00000000               -0.03610790               -0.03783475                0.12511553                0.00122477                0.00594151                0.00539297
              -0.00184397                1.00398922               40.03258076                0.99243228               -0.02415792               -0.02206484                0.07412265                0.00041432                0.00162314                0.00445286
               0.99791445                1.00209586               40.03354025                0.11349428               -0.02606423               -0.02615269                0.08684785                0.00008852                0.00369660               -0.00351229
               1.99763474                1.00020963               40.03454251                0.01000000               -0.14564014               -0.02958369                0.09961425                0.05377901                0.04845258                0.01888330
               2.99500165                0.99937285               40.03640227                0.01000001               -0.29555647                0.00564872                0.14673956                0.17077069                0.07602598                0.00465975
               3.99172362                1.00221280               40.03785745                0.01000000               -0.39282852                0.04368883                0.09899547                0.41797457                0.04083443                0.00959554
               4.98714508                1.00903879               40.03931545                0.01000000               -0.44543448                0.03347229                0.09607318                0.77599582                0.03280587                0.01533817
               5.98281493                1.02075585               40.04101316                0.01000001               -0.22965445               -0.27194302                0.08875866                0.72140693                0.02431186                0.01250683
               6.98255199                1.02277975               40.04268994                0.99198529               -0.02865755               -0.02952816                0.09875678                0.00260083                0.01230128               -0.00445184
               7.98224177                1.02475555               40.04413768                1.00000000               -0.03240180               -0.03240046                0.10798901               -0.00004223                0.00136433               -0.00032417
               8.98190395                1.02673555               40.04559492                0.99999999               -0.03516026               -0.03516425                0.11722169               -0.00003352                0.00123863                0.00059550
               9.98153857                1.02872004               40.04704058                0.99999998               -0.03653824               -0.03802798                0.12642828               -0.00021650                0.00056938                0.00669736
               0.00007393                2.00376559               40.03251534                0.01000000               -0.02484179               -0.00567007                0.07642526                0.00887825                0.00209083                0.10913313
               0.99982552                2.00182996               40.03342389                0.01000000               -0.02516306               -0.09523858                0.08908265                0.01114147                0.03153381                0.09254041
               1.99957067                1.99991475               40.03492776                0.01000001               -0.16237772               -0.09951532                0.09601181                0.07389933                0.07372344                0.08184900
               2.99657796                1.99952453               40.03669997                0.01000000               -0.33468288               -0.03572324                0.10908873                0.37488695                0.05945409                0.02895221
               3.99287701                2.00254569               40.03799417                0.01000000               -0.38702059               -0.02591787                0.10884098                0.72683172                0.02315138                0.03103029
               4.98883755                2.00875191               40.03925310                0.01000001               -0.36776701               -0.10762017                0.10330787                0.97883816                0.00965132                0.04093070
               5.98552167                2.01558646               40.04054786                0.01000000               -0.41225362               -0.37738095                0.10275034                1.04070957                0.00004812                0.03964866
               6.98059248                2.02248229               40.04185292                0.01000000               -0.26220724               -0.21465570                0.10022799                0.61515891               -0.01129504                0.03610653
               7.98027753                2.02442949               40.04329478                0.13956127               -0.03285321               -0.03286554                0.10939362                0.00027744               -0.00578894               -0.00170048
               8.97993541                2.02638193               40.04470952                0.99999997               -0.03556754               -0.03548713                0.11852943                0.00006049               -0.00416844               -0.00173640
               9.97956618                2.02833783               40.04618504                1.00000000               -0.03692337               -0.03844441                0.12773196               -0.00017088               -0.00126692                0.00664904
               0.00220484                3.00387582               40.03453617                0.01000001               -0.02167306                0.01522313                0.07805535                0.02011346                0.00232922                0.22080705
               1.00198811                3.00019109               40.03527463                0.01000001               -0.03933411               -0.19411109                0.08816800                0.11856108                0.00981643                0.17620532
               2.00141816                2.99821932               40.03617758                0.01000000               -0.10598325               -0.21586198                0.09743220                0.32236490                0.02738268                0.11404198
               2.99986845                2.99865838               40.03725172                0.01000000               -0.21926423               -0.15376145                0.10517845                0.64819489                0.03236554                0.05785044
               3.99703288                3.00169444               40.03836321                0.01000008               -0.30936892               -0.14187159                0.10885544                0.94527553                0.02521742                0.05308354
               4.99368107                3.00688638               40.03949861                0.01000000               -0.35670708               -0.20505321                0.11071008                1.15891046                0.01796576                0.06815292
               5.98989874                3.01320823               40.04068096                0.01000001               -0.38344633               -0.26565041                0.11114260                1.17225846                0.00548342                0.08875955
               6.98601214                3.01848663               40.04182630                0.01000001               -0.57755284               -0.33004542                0.11256644                1.22290279               -0.03764486                0.10277303
               7.97834768                3.02409824               40.04242386                0.01000001               -0.40076619               -0.24510678                0.11039499                0.98910276               -0.05528743                0.10994331
               8.97799682                3.02602581               40.04378531                0.01000000               -0.03621605               -0.30039419                0.11981486                0.75714590               -0.00940823                0.10297184
               9.97762336                3.02795115               40.04530332                0.75332210               -0.03734615               -0.65913444                0.12904213                0.88438509               -0.00176951                0.08493606
               0.00784567                4.00407005               40.03655936                0.01000000                0.00075629               -0.04500017                0.08051846                0.19128257               -0.00516265                0.23491486
               1.00785323                3.99794774               40.03692792                0.01000000               -0.01474990               -0.28404550                0.09004712                0.39973836                0.00032077                0.16293899
               2.00755067                3.99559752               40.03738293                0.01000000               -0.08932476               -0.28531923                0.09882112                0.72049369                0.01491317                0.10507576
               3.00606674                3.99644930               40.03805878                0.01000001               -0.19980737               -0.24334845                0.10647624                0.94397490                0.03196367                0.06983061
               4.00355453                3.99970826               40.03897137                0.01000000               -0.27823816               -0.22770011                0.11227929                1.14587653                0.04420762                0.06894805
               5.00050198                4.00465084               40.04008950                0.01000001               -0.30939669               -0.24548501                0.11626275                1.27332045                0.04970835                0.09256499
               5.99736659                4.01027345               40.04133434                0.01000001               -0.31707288               -0.29982961                0.11937107                1.34603140                0.04493143                0.12773780
               6.99416052                4.01588138               40.04257571                0.01000001               -0.24230896               -0.33734466                0.12176219                1.33368129                0.03328243                0.16846511
               7.99252041                4.01952735               40.04381469                0.01000001               -0.14675495               -0.47576323                0.12549980                1.42385277                0.02463778                0.22525049
               8.99122542                4.02037405               40.04499644                0.01000000                0.04413875               -0.57657803                0.13105271                1.01955116                0.00965312                0.22045999
               9.99340319                4.01515514               40.04601751                0.01000001                0.21777688               -0.92635477                0.13892136                0.77683987                0.01168837                0.16065222
               0.01827511                5.00297582               40.03879527                0.01000000                0.01803027               -0.39457863                0.08426526                0.53255823               -0.00989645                0.26940366
               1.01845542                4.99451018               40.03865246                0.01000000               -0.04743203               -0.30824937                0.09295732                0.84088148               -0.00329482                0.17772182
               2.01732647                4.99251294               40.03860389                0.01000001               -0.19091081               -0.26053289                0.10145891                0.99300061                0.01432884                0.08657758
               3.01463720                4.99379142               40.03890989                0.01000000               -0.27888012               -0.27921208                0.10931265                1.15048845                0.04654831                0.06225494
               4.01174887                4.99714044               40.03973108                0.01000001               -0.30274578               -0.25847692                0.11613694                1.25664713                0.08026816                0.07108102
               5.00858228                5.00197668               40.04094480                0.01000001               -0.30800221               -0.26259771                0.12188317                1.31413142                0.10116885                0.10583624
               6.00558883                5.00721163               40.04242217                0.01000008               -0.25752056               -0.30217732                0.12671625                1.27663243                0.10944319                0.15598124
               7.00343187                5.01173974               40.04401398                0.01000000               -0.16283807               -0.40027065                0.13118018                1.18776625                0.10520291                0.21234538
               8.00233207                5.01458298               40.04555153                0.01000001               -0.03359100               -0.48506086                0.13586209                0.98417904                0.08638904                0.25771449
               9.00276005                5.01449424               40.04683442                0.01000000                0.06329530               -0.53120164                0.14146108                0.66292662                0.05209922                0.27133993
              10.00359797                5.00942406               40.04763337                0.01000001                0.08379177               -0.40258734                0.14838519                0.32246910                0.03285855                0.23109049
               0.03542812                5.99617848               40.04159031                0.17877971               -0.02943758               -0.35195079                0.08942285                0.63867794               -0.00358615                0.16538825
               1.03513374                5.99178275               40.04081410                0.01000001               -0.36493353               -0.15052481                0.09638334                0.76489512               -0.02526673                0.11205557
               2.02812945                5.99038686               40.03959212                0.01000000               -0.53423683               -0.27179875                0.10491571                1.04926518               -0.01134988                0.06166072
               3.02444901                5.99086506               40.03966773                0.01000001               -0.38136236               -0.28151227                0.11257004                1.13727251                0.07533370                0.03582263
               4.02050220                5.99453872               40.04048698                0.01000001               -0.38677971               -0.25942806                0.12009726                1.29693108                0.12871043                0.05554208
               5.01671341                5.99939889               40.04193477                0.01000008               -0.36830092               -0.21256638                0.12721408                1.24404536                0.16799477                0.10640876
               6.01313618                6.00422991               40.04381423                0.01000000               -0.30844554               -0.24796368                0.13359748                1.08243207                0.18790300                0.16963051
               7.01054450                6.00787597               40.04590013                0.01000001               -0.18433463               -0.33787887                0.13937295                0.84951595                0.18686699                0.24190778
               8.00944949                6.00982613               40.04791858                0.01000000               -0.04508150               -0.43380834                0.14486351                0.60799199                0.15859435                0.30982965
               9.00964287                6.00975001               40.04948982                0.01000002                0.02717287               -0.42773802                0.15043484                0.33155224                0.09583711                0.35217000
              10.00999295                6.00710339               40.05021165                0.01000001                0.03500760               -0.16454389                0.15662532                0.15896331                0.05660058                0.33629655
               0.03984012                6.99593680               40.04232671                0.99482275               -0.02951805               -0.02661633                0.09503244               -0.00033940               -0.01154592                0.03931808
               1.03954494                6.99149968               40.04135121                0.99711426               -0.03053261               -0.02978409                0.10192838               -0.00038084               -0.01122583                0.01684019
               2.03922947                6.98707697               40.04037259                0.01000000               -0.31570775               -0.18224042                0.10898513                0.60939617                0.02437376                0.01683958
               3.03323079                6.98816117               40.04010459                0.01000001               -0.50379003               -0.42793973                0.11599951                1.18641720                0.09785190               -0.03954461
               4.02915367                6.99195188               40.04104135                0.01000000               -0.47293898               -0.17038142                0.12396483                1.25375433                0.19053935                0.03203536
               5.02377201                6.99772536               40.04292241                0.01000000               -0.51966390               -0.09845276                0.13230063                1.11731358                0.24680510                0.09635537
               6.01876039                7.00225236               40.04533950                0.01000001               -0.44730190               -0.11309935                0.13992261                0.80243145                0.27866809                0.16646497
               7.01482597                7.00498216               40.04816439                0.01000000               -0.30712671               -0.20030874                0.14675367                0.45796532                0.28909281                0.25404446
               8.01261786                7.00590681               40.05100663                0.01000001               -0.13560644               -0.32495686                0.15289158                0.15213394                0.25658098                0.37844622
               9.01211384                7.00593948               40.05327758                0.01000002               -0.02736870               -0.36480498                0.15843752                0.00276293                0.15777385                0.47269973
              10.01207048                7.00613318               40.05413243                0.01000001               -0.00433573               -0.10280143                0.16360546               -0.02885252                0.08874730                0.51560432
               0.04429557                7.99564615               40.04258561                1.00000000               -0.03096099               -0.02977954                0.09964256                0.00073099               -0.00113705                0.02040561
               1.04398596                7.99118707               40.04159468                0.99999999               -0.03198454               -0.03197305                0.10659435                0.00001724               -0.00097982                0.00349842
               2.04365588                7.98674205               40.04060255                0.28578249               -0.03417648               -0.03420241                0.11359520               -0.00025306               -0.00886368               -0.01359804
               3.04330244                7.98230627               40.03945367                0.01000001               -0.38213906               -0.31103360                0.11900089                0.94493890                0.13955452               -0.07022786
               4.03601310                7.99113109               40.04143275                0.01000000               -0.72716155               -0.03816921                0.12855584                1.27390569                0.29136209                0.01789938
               5.02875920                7.99742983               40.04377724                0.01000001               -0.70425493                0.06718986                0.13735149                0.87653813                0.32036709                0.07676234
               6.02192800                8.00196792               40.04677126                0.01000000               -0.63549224                0.05399557                0.14567731                0.51170031                0.36887449                0.14026729
               7.01604936                8.00386979               40.05046674                0.01000001               -0.51965778               -0.00671286                0.15326202                0.09916864                0.43064828                0.22719072
               8.01153485                8.00332700               40.05499213                0.01000002               -0.32887992               -0.11962799                0.16021227               -0.29561323                0.41654828                0.37561672
               9.00947176                8.00245391               40.05859195                0.01000006               -0.12531695               -0.28564261                0.16565935               -0.51267436                0.27832003                0.77633935
              10.00902851                8.00504736               40.06039217                0.01000000               -0.04432518               -0.32600462                0.16982309               -0.36326807                0.18972905                0.73016232
               0.04877290                8.99534121               40.04293550                1.00000000               -0.03235110               -0.03119663                0.10434136                0.00073258                0.00257098                0.02004969
               1.04844939                8.99086022               40.04186051                0.99999998               -0.03338436               -0.03339267                0.11131264                0.00000632                0.00198161                0.00320695
               2.04810521                8.98639292               40.04077406                0.99999873               -0.03544351               -0.03554627                0.11832947                0.00001066               -0.00328832               -0.00959209
               3.04774052                8.98194050               40.03959727                0.01000001               -0.42984971               -0.03746917                0.12538452                0.68446843                0.15636955               -0.01770043
               4.03950822                8.99118850               40.04171069                0.01000000               -0.86372885                0.18018769                0.13363813                0.89915946                0.32530148                0.00716754
               5.03046594                8.99906915               40.04436483                0.01000000               -0.84768902                0.20210141                0.14237053                0.55166166                0.36598664                0.04619117
               6.02255444                9.00333227               40.04778248                0.01000002               -0.75078376                0.17243402                0.15071884                0.23974356                0.43734762                0.08437966
               7.01545027                9.00484791               40.05226853                0.01000002               -0.72164856                0.14247987                0.15848926               -0.04807085                0.54618897                0.13971299
               8.00812147                9.00351425               40.05818955                0.01000004               -0.76551410                0.13477335                0.16568241               -0.38494043                0.83125682                0.25325795
               9.00013998                9.00022663               40.06866540                0.99999997               -0.42516220               -0.13741105                0.17403170               -0.63106270                0.52344635                0.50251528
               9.99961822                8.99961309               40.06866480                0.99999999               -0.05217615               -0.29770902                0.17371703               -0.50115103               -0.00041891                0.41167574
               0.05327221                9.99502222               40.04318428                1.00000000               -0.03378233               -0.03189929                0.10890712               -0.00036895                0.01375381                0.01493703
               1.05293439                9.99051922               40.04209827                1.00000000               -0.03481951               -0.03410012                0.11588275               -0.00105496                0.01723343                0.00158494
               2.05257582                9.98603112               40.04108699                0.99999998               -0.03690812               -0.03617935                0.12288112               -0.00105597                0.01704902               -0.00288816
               3.05219622                9.98155688               40.04000627                0.54194586               -0.78540913               -0.03836133                0.12983591                0.88075683                0.16001073               -0.00499745
               4.03686764                9.99473485               40.04186646                0.01000001               -1.22737811                0.35463513                0.13834435                0.73169070                0.30344801                0.01091539
               5.02764866               10.00147186               40.04450410                0.01000003               -0.79617580                0.24027076                0.14661978                0.25235981                0.36328428                0.02998036
               6.02094412               10.00541660               40.04802365                0.01000001               -0.63713486                0.20843299                0.15453821                0.10134475                0.45507228                0.05062966
               7.01490597               10.00671939               40.05278991                0.01000001               -0.62434037                0.18714813                0.16182447               -0.02413703                0.61633966                0.07933001
               8.00845731               10.00602246               40.05976028                0.01000002               -0.70771472                0.25082135                0.16866610               -0.31709994                0.81345217                0.17603952
               9.00075167                9.99970569               40.06869613                0.99999999               -0.41123664               -0.05209384                0.17323014               -0.28529529                0.44715987                0.00033754
              10.00023258                9.99909318               40.06869552                1.00000000               -0.05190897               -0.05199027                0.17291546                0.00018482                0.00037891               -0.00037860
              -0.00478162                0.00430860               41.03336941                0.99976491               -0.02330830               -0.02161944                0.07103242                0.00253964               -0.00356984                0.00388839
               0.99498530                0.00240306               41.03446083                0.99999999               -0.02527440               -0.02576021                0.08437050                0.00209822               -0.00382651               -0.00143491
               1.99471289                0.00050707               41.03554449                0.01699482               -0.01151127               -0.02993642                0.09774851                0.03565306                0.07008887               -0.00146630
               2.99475507               -0.00070747               41.03811497                0.01000001               -0.06186748               -0.00824940                0.15122117                0.05268555                0.09271978               -0.03683983
               3.99347554                0.00149759               41.03882624                0.01000000               -0.19713801                0.07210099                0.10681268                0.18665977                0.04691044               -0.02461828
               4.99081231                0.00827412               41.04041705                0.01000002               -0.50349343                0.10550861                0.09149487                0.52031778                0.08448441                0.00215094
               5.98340567                0.02174191               41.04262002                0.08227870               -0.38546546               -0.02662070                0.08583295                0.57100448                0.05668304               -0.00183914
               6.98310300                0.02385723               41.04449867                0.98866407               -0.03041232               -0.02924914                0.09708346                0.00480257                0.02291300               -0.00452654
               7.98279743                0.02591046               41.04604697                1.00000000               -0.03195268               -0.03218741                0.10652997                0.00143910                0.00834429               -0.00038139
               8.98246395                0.02796709               41.04763315                1.00000000               -0.03474825               -0.03500467                0.11595339                0.00143764                0.00812733                0.00095156
               9.98210246                0.03002950               41.04917692                0.99999999               -0.03614861               -0.03794293                0.12539621                0.00124572                0.00595780                0.00538828
              -0.00285069                1.00409240               41.03332153                0.98817912               -0.02422737               -0.02203795                0.07406116                0.00053773                0.00167102                0.00447288
               0.99690704                1.00214546               41.03441154                0.13214178               -0.02623135               -0.02632068                0.08740833                0.00006700                0.00373326               -0.00352375
               1.99662469                1.00020771               41.03554452                0.01000000               -0.10601860               -0.03011642                0.10078271                0.04793962                0.07090956                0.01627738
               2.99478667                0.99921003               41.03798340                0.01000001               -0.28866716                0.00301040                0.15167148                0.13961540                0.16214932               -0.05043798
               3.99085134                1.00221860               41.03884079                0.01000000               -0.44466721                0.05685065                0.10505735                0.42402247                0.03045388                0.01050882
               4.98589332                1.00932920               41.04027158                0.01000000               -0.47635920                0.03964768                0.09829265                0.80415535                0.02498730                0.02079135
               5.98132416                1.02147571               41.04189583                0.01000001               -0.24132856               -0.27995056                0.08797072                0.75068545                0.01635481                0.01856152
               6.98106675                1.02356474               41.04367645                0.99131775               -0.02836367               -0.02945949                0.09852965                0.00348548                0.01284157               -0.00447294
               7.98075689                1.02558859               41.04521754                1.00000000               -0.03239740               -0.03239858                0.10797721                0.00000268                0.00137738               -0.00033087
               8.98041880                1.02761705               41.04676807                0.99999999               -0.03521877               -0.03522023                0.11741424               -0.00000101                0.00124198                0.00059260
               9.98005251                1.02965007               41.04830697                0.99999998               -0.03662937               -0.03815677                0.12684814               -0.00022838                0.00056778                0.00669026
              -0.00087697                2.00386784               41.03328306                0.01000000               -0.02516961               -0.00198091                0.07713772                0.01507556                0.00210756                0.10848575
               0.99887133                2.00187665               41.03432174                0.01000000               -0.02579600               -0.09786862                0.09045267                0.01697566                0.02899112                0.09058771
               1.99860711                1.99990474               41.03590438                0.01000001               -0.16674206               -0.10434587                0.09902953                0.07505365                0.07171170                0.07823384
               2.99553649                1.99935273               41.03781483                0.01000000               -0.33851431               -0.03375651                0.10884194                0.34999558                0.04861658               -0.00390672
               3.99183682                2.00263460               41.03909145                0.01000000               -0.39490916               -0.02477704                0.11020400                0.74860061                0.01645215                0.03893231
               4.98763831                2.00906707               41.04028584                0.01000001               -0.38264881               -0.10919149                0.10465767                1.01385197                0.00077362                0.04739446
               5.98418384                2.01614290               41.04157581                0.01000000               -0.42892383               -0.38902403                0.10355479                1.08120789               -0.00973627                0.04960355
               6.97905983                2.02326804               41.04285373                0.01000000               -0.27193354               -0.22092417                0.09999422                0.63860887               -0.01733501                0.04181460
               7.97874517                2.02526249               41.04438881                0.14257397               -0.03286927               -0.03287645                0.10943491                0.00034393               -0.00581971               -0.00174026
               8.97840244                2.02726269               41.04589656                0.99999998               -0.03566647               -0.03558183                0.11887466                0.00009143               -0.00419523               -0.00175277
               9.97803184                2.02926636               41.04746523                1.00000000               -0.03706002               -0.03861654                0.12829788               -0.00018603               -0.00128215                0.00664328
               0.00143321                3.00405279               41.03531742                0.01000001               -0.02235644                0.02055631                0.07816906                0.02621914                0.00125890                0.22036374
               1.00120965                3.00018808               41.03616049                0.01000001               -0.03917710               -0.20016489                0.08896570                0.12969830                0.00835832                0.17343134
               2.00064967                2.99812079               41.03715820                0.01000000               -0.10764622               -0.22436214                0.09847895                0.34147847                0.02488309                0.11199369
               2.99905672                2.99853490               41.03830565                0.01000000               -0.22703250               -0.15258795                0.10570353                0.68064395                0.02862267                0.05155300
               3.99610902                3.00172306               41.03945443                0.01000007               -0.31973318               -0.14685241                0.10970594                0.98557904                0.01777510                0.05183822
               4.99266206                3.00714537               41.04060891                0.01000000               -0.36808372               -0.21130585                0.11171128                1.20535242                0.01061472                0.07338830
               5.98874735                3.01369523               41.04179512                0.01000001               -0.39713587               -0.27357915                0.11211013                1.21734722               -0.00237909                0.09555005
               6.98471934                3.01914626               41.04295592                0.01000001               -0.59891141               -0.34015581                0.11343688                1.26929387               -0.04714152                0.11237414
               7.97676912                3.02493106               41.04353131                0.01000001               -0.41512918               -0.25262429                0.11135745                1.02633858               -0.06108241                0.11687908
               8.97641676                3.02690541               41.04498602                0.01000002               -0.03638403               -0.31078485                0.12033197                0.78606014               -0.00941716                0.10801954
               9.97604144                3.02887774               41.04659735                0.77913598               -0.03753215               -0.68394820                0.12974664                0.91844577               -0.00177354                0.08927326
               0.00737681                4.00427897               41.03736108                0.01000000                0.00204794               -0.04567471                0.07983891                0.20161739               -0.00533993                0.23512173
               1.00739729                3.99787335               41.03782788                0.01000000               -0.01434768               -0.29313263                0.08997587                0.42034588                0.00003081                0.16161074
               2.00708986                3.99541750               41.03837323                0.01000000               -0.09250940               -0.29329233                0.09931404                0.75395515                0.01407372                0.10315352
               3.00554710                3.99630098               41.03912743                0.01000001               -0.20759635               -0.24725524                0.10723140                0.98612924                0.02950357                0.06840269
               4.00293793                3.99969755               41.04009782                0.01000000               -0.28869595               -0.23234941                0.11325612                1.19624545                0.04014725                0.06951517
               4.99977318                4.00484095               41.04125659                0.01000001               -0.32040130               -0.25234920                0.11747932                1.32602254                0.04427209                0.09568626
               5.99652991                4.01067132               41.04253318                0.01000001               -0.32816544               -0.30870867                0.12061896                1.39928395                0.03889538                0.13369686
               6.99320988                4.01646492               41.04379869                0.01000001               -0.25085565               -0.34764938                0.12298337                1.38496891                0.02754255                0.17626333
               7.99151279                4.02021000               41.04507555                0.01000001               -0.15164543               -0.49145513                0.12662542                1.47796936                0.02045016                0.23671177
               8.99017697                4.02104699               41.04631224                0.01000000                0.04716534               -0.59758682                0.13207800                1.05806652                0.00752109                0.22995852
               9.99245610                4.01558740               41.04741208                0.01000000                0.22791323               -0.96252717                0.13995263                0.80638890                0.01090072                0.16853630
               0.01827680                5.00313929               41.03962936                0.01000001                0.02012340               -0.41171397                0.08258583                0.55641206               -0.00956403                0.27002850
               1.01847803                4.99432543               41.03957703                0.01000000               -0.04878251               -0.31709455                0.09208635                0.87814499               -0.00262746                0.17633860
               2.01730115                4.99225494               41.03961771                0.01000001               -0.19893857               -0.26598081                0.10154192                1.03636302                0.01458511                0.08539512
               3.01449926                4.99358980               41.04000533                0.01000000               -0.29035966               -0.28481953                0.11027634                1.19964309                0.04589671                0.06136750
               4.01149395                4.99707607               41.04089753                0.01000001               -0.31452578               -0.26389235                0.11745255                1.30957469                0.07845553                0.07153074
               5.00820874                5.00209839               41.04216986                0.01000001               -0.31924495               -0.26907795                0.12338551                1.36834324                0.09830631                0.10853905
               6.00510905                5.00752105               41.04369603                0.01000000               -0.26643528               -0.31072533                0.12823172                1.32816356                0.10594917                0.16095371
               7.00288004                5.01219327               41.04533243                0.01000000               -0.16813069               -0.41262235                0.13260890                1.23490960                0.10170166                0.21956842
               8.00174644                5.01510196               41.04691660                0.01000001               -0.03396716               -0.50092876                0.13719360                1.02272835                0.08350517                0.26606176
               9.00220069                5.01495367               41.04825541                0.01000000                0.06709789               -0.55016576                0.14271311                0.68845412                0.05039097                0.27955280
              10.00308840                5.00962720               41.04912396                0.01000001                0.08877034               -0.41907817                0.14967338                0.33470164                0.03190505                0.23779872
               0.03613277                5.99604469               41.04247147                0.15738237               -0.02882338               -0.36649003                0.08677194                0.66811558               -0.00384266                0.16599807
               1.03584454                5.99153146               41.04176725                0.01000001               -0.37900096               -0.15351688                0.09424855                0.79748194               -0.02443948                0.11169057
               2.02855275                5.99009789               41.04063852                0.01000000               -0.55628483               -0.27689109                0.10465921                1.09162242               -0.01014433                0.06086102
               3.02471884                5.99060459               41.04079519                0.01000001               -0.39659591               -0.28702600                0.11313492                1.18319025                0.07585013                0.03412875
               4.02062083                5.99441970               41.04169321                0.01000001               -0.40118890               -0.26481881                0.12154902                1.34899731                0.12894464                0.05545643
               5.01669506                5.99945939               41.04321459                0.01000004               -0.38112688               -0.21729149                0.12894476                1.29448779                0.16764433                0.10853493
               6.01299830                6.00445681               41.04515836                0.01000000               -0.31839494               -0.25466437                0.13537579                1.12707392                0.18688087                0.17400164
               7.01032716                6.00821248               41.04730179                0.01000001               -0.18956707               -0.34803114                0.14101722                0.88553574                0.18553645                0.24813654
               8.00920696                6.01019143               41.04937468                0.01000000               -0.04531776               -0.44755351                0.14636359                0.63428461                0.15726596                0.31718121
               9.00942081                6.01004368               41.05100135                0.01000002                0.02980649               -0.44211184                0.15183716                0.34580816                0.09487562                0.35930572
              10.00980309                6.00720584               41.05178535                0.01000001                0.03822757               -0.17190585                0.15803335                0.16560468                0.05595624                0.34162998
               0.04066557                6.99580949               41.04326623                0.98922891               -0.02910967               -0.02610216                0.09342972               -0.00006007               -0.01139846                0.03995621
               1.04037447                6.99125509               41.04236469                0.99468168               -0.03025502               -0.02935578                0.10098533               -0.00021533               -0.01118800                0.01750109
               2.04006047                6.98671712               41.04146196                0.01000000               -0.32666127               -0.18579405                0.10874726                0.63218529                0.02419931                0.01642287
               3.03384124                6.98784928               41.04126470                0.01000001               -0.52206879               -0.43849009                0.11546577                1.22953426                0.09867278               -0.04120989
               4.02961909                6.99177969               41.04228607                0.01000001               -0.48899271               -0.17317714                0.12481610                1.30093944                0.19296638                0.03167702
               5.02406139                6.99775256               41.04425348                0.01000000               -0.53608209               -0.09991121                0.13420714                1.16099761                0.24885165                0.09821484
               6.01889745                7.00242777               41.04674829                0.01000001               -0.46026266               -0.11594880                0.14195476                0.83650475                0.27997691                0.17016817
               7.01485614                7.00523265               41.04964099                0.01000000               -0.31482568               -0.20647670                0.14860076                0.48102287                0.28991103                0.25954799
               8.01260093                7.00615089               41.05254368                0.01000001               -0.13768433               -0.33507247                0.15449398                0.16463416                0.25706289                0.38527662
               9.01210245                7.00611144               41.05486930                0.01000002               -0.02623828               -0.37599553                0.15985971                0.00785387                0.15782440                0.47939700
              10.01207617                7.00618908               41.05577572                0.01000001               -0.00262810               -0.10647779                0.16496418               -0.02692499                0.08849404                0.52004284
               0.04524036                7.99552264               41.04357650                1.00000000               -0.03077634               -0.02951802                0.09882264                0.00083237               -0.00107154                0.02056103
               1.04493260                7.99094434               41.04265869                0.99999999               -0.03190440               -0.03188792                0.10631437                0.00000013               -0.00099225                0.00362305
               2.04460228                7.98638200               41.04174044                0.29226619               -0.03428210               -0.03426658                0.11388655               -0.00004239               -0.00951235               -0.01362753
               3.04424696                7.98183478               41.04065261                0.01000001               -0.39329664               -0.31921577                0.11901685                0.97670911                0.14019759               -0.07062964
               4.03673634                7.99095616               41.04272350                0.01000008               -0.74900080               -0.03775688                0.12886920                1.31768592                0.29455645                0.01877703
               5.02926694                7.99746117               41.04516003                0.01000001               -0.72440186                0.06996801                0.13918243                0.90918376                0.32416627                0.07855147
               6.02224831                8.00213784               41.04823879                0.01000000               -0.65212198                0.05546523                0.14811929                0.53389132                0.37174126                0.14323369
               7.01622450                8.00408294               41.05200964                0.01000001               -0.53137281               -0.00788580                0.15527840                0.10936894                0.43348159                0.23156994
               8.01162085                8.00348998               41.05660225                0.01000002               -0.33424039               -0.12454809                0.16178572               -0.29667073                0.41917091                0.38152725
               9.00953969                8.00252376               41.06025475                0.01000004               -0.12557749               -0.29538636                0.16686101               -0.51888927                0.27997041                0.78391822
              10.00910930                8.00507628               41.06209542                0.01000000               -0.04303953               -0.33034658                0.17076916               -0.36774847                0.19053052                0.73357017
               0.04983882                8.99521913               41.04397812                1.00000000               -0.03237063               -0.03114915                0.10417176                0.00084865                0.00257235                0.02008335
               1.04951511                8.99061734               41.04297542                0.99999998               -0.03348205               -0.03350447                0.11168158                0.00003314                0.00200347                0.00324874
               2.04916918                8.98603179               41.04196192                0.99999998               -0.03569211               -0.03577568                0.11925608                0.00013635               -0.00319204               -0.00954652
               3.04880127                8.98146496               41.04085878                0.01000000               -0.44113772               -0.03796125                0.12687410                0.70586382                0.15711505               -0.01693726
               4.04034642                8.99102455               41.04305702                0.01000000               -0.88689395                0.18561039                0.13527068                0.92858216                0.32776423                0.00850696
               5.03106339                8.99915192               41.04580076                0.01000000               -0.86964607                0.20766887                0.14495249                0.57099823                0.36923709                0.04749895
               6.02295350                9.00353707               41.04930274                0.01000001               -0.76860080                0.17643418                0.15347843                0.25011049                0.44056797                0.08614289
               7.01569137                9.00507493               41.05386482                0.01000002               -0.73634007                0.14483608                0.16077835               -0.04596984                0.54982236                0.14213703
               8.00822670                9.00365992               41.05985425                0.01000000               -0.77765049                0.13574172                0.16722935               -0.39318709                0.83676918                0.25681622
               9.00013836                9.00020371               41.07040698                0.99999997               -0.43052656               -0.14207122                0.17428984               -0.64301315                0.52750714                0.50692179
               9.99961617                8.99958215               41.07040199                0.99999999               -0.05221958               -0.30068065                0.17371948               -0.50569377               -0.00042308                0.41383289
               0.05446092                9.99489966               41.04427600                1.00000000               -0.03403229               -0.03194705                0.10935800               -0.00033006                0.01379063                0.01489038
               1.05412060                9.99027425               41.04326257                1.00000000               -0.03517745               -0.03430844                0.11693779               -0.00110937                0.01730643                0.00156364
               2.05375738                9.98566649               41.04232411                0.99999999               -0.03745654               -0.03653004                0.12457435               -0.00111472                0.01706765               -0.00287472
               3.05337147                9.98107556               41.04131553                0.59212562               -0.80681734               -0.03894044                0.13207310                0.90711420                0.16073644               -0.00499073
               4.03762103                9.99466837               41.04326409                0.01000020               -1.25985405                0.36438156                0.14145409                0.75441018                0.30543845                0.01161278
               5.02817439               10.00161455               41.04598679                0.01000001               -0.81467624                0.24626282                0.15015187                0.26100762                0.36546033                0.03058236
               6.02132750               10.00566652               41.04958519                0.01000001               -0.64960691                0.21294507                0.15797204                0.10565630                0.45731744                0.05128292
               7.01518225               10.00697967               41.05442164                0.01000000               -0.63495880                0.19047358                0.16460256               -0.02399753                0.61902627                0.08021751
               8.00862833               10.00620481               41.06145522                0.01000002               -0.72125218                0.25448900                0.17034023               -0.32470332                0.81631565                0.17745305
               9.00075721                9.99968234               41.07042842                0.99999999               -0.41948910               -0.05213680                0.17322979               -0.29522286                0.44924730                0.00033815
              10.00023855                9.99906267               41.07042342                1.00000000               -0.05186619               -0.05194795                0.17265942                0.00027056                0.00038073               -0.00038050
              -0.00597533                0.00438042               42.03407575                0.99790873               -0.02321276               -0.02153864                0.07045262                0.00272437               -0.00351254                0.00398139
               0.99379255                0.00242291               42.03530365                0.99999999               -0.02524738               -0.02584288                0.08430416                0.00218792               -0.00379689               -0.00138035
               1.99351973                0.00047703               42.03652429                0.03131025               -0.00270941               -0.03017439                0.09818675                0.02188340                0.07560935               -0.00148706
               2.99373836               -0.00106211               42.03934142                0.01000001               -0.03500705               -0.02736606                0.10055389                0.15467196                0.04309152               -0.02555502
               3.99281959                0.00115045               42.03998593                0.01000000               -0.19908861                0.10073131                0.11421859                0.19641975                0.01165615               -0.03206820
               4.98975659                0.00841642               42.04137642                0.01000000               -0.54665213                0.11694086                0.09922449                0.54764322                0.05980424                0.00353949
               5.98188654                0.02243692               42.04347361                0.07470070               -0.40925548               -0.02656388                0.08510835                0.59557796                0.04823117               -0.00201651
               6.98157148                0.02462676               42.04546792                0.98580348               -0.03099818               -0.02915276                0.09676453                0.00615408                0.02391105               -0.00456301
               7.98126658                0.02672873               42.04711174                1.00000000               -0.03191552               -0.03216360                0.10641195                0.00149365                0.00833533               -0.00041159
               8.98093317                0.02883440               42.04879306                1.00000000               -0.03477392               -0.03504034                0.11602178                0.00148516                0.00811244                0.00095784
               9.98057110                0.03094606               42.05043230                0.99999999               -0.03620654               -0.03805163                0.12568712                0.00126889                0.00595922                0.00538600
              -0.00399057                1.00416503               42.03406199                0.98397361               -0.02433069               -0.02205058                0.07413476                0.00064759                0.00173263                0.00452325
               0.99576612                1.00216448               42.03528841                0.15141558               -0.02641780               -0.02650706                0.08801129                0.00008629                0.00377932               -0.00348843
               1.99548107                1.00017529               42.03655816                0.01000000               -0.04088769               -0.03056383                0.10189008                0.02459182                0.08607320                0.01410124
               2.99494837                0.99866423               42.03943570                0.01000001               -0.27182772                0.00931303                0.11738035                0.13036705                0.12514363               -0.06879055
               3.99004452                1.00215777               42.03995860                0.01000000               -0.51792914                0.07801218                0.11379293                0.44185338               -0.00789044                0.00087881
               4.98458978                1.00958583               42.04128130                0.01000000               -0.51536813                0.04730203                0.10251771                0.83127975                0.00282748                0.02223100
               5.97973715                1.02217128               42.04277258                0.01000001               -0.25513358               -0.28788408                0.08776268                0.78109580                0.00533582                0.02540032
               6.97948711                1.02433523               42.04466053                0.99064440               -0.02797289               -0.02938279                0.09827964                0.00485604                0.01343171               -0.00450358
               7.97917770                1.02640710               42.04629722                1.00000000               -0.03238774               -0.03239112                0.10794866                0.00002454                0.00138142               -0.00034495
               8.97883936                1.02848399               42.04794320                0.99999999               -0.03527829               -0.03527343                0.11760528                0.00001808                0.00124510                0.00061040
               9.97847213                1.03056554               42.04957754                0.99999897               -0.03672267               -0.03828690                0.12727136               -0.00024085                0.00057196                0.00668356
              -0.00196127                2.00393941               42.03405809                0.01000000               -0.02547105                0.00200211                0.07785147                0.02205941                0.00211424                0.10717032
               0.99778402                2.00189277               42.03523294                0.01000000               -0.02634568               -0.10054545                0.09172216                0.02373645                0.02684597                0.08803891
               1.99751182                1.99986575               42.03690835                0.01000001               -0.17103999               -0.10924700                0.10129172                0.07604841                0.06578067                0.07374848
               2.99436322                1.99912415               42.03887681                0.01000000               -0.33883823               -0.01436946                0.10498805                0.30206237                0.04561973               -0.02525502
               3.99073505                2.00271070               42.04019825                0.01000000               -0.39972779               -0.02164635                0.10926927                0.76394581                0.00494166                0.03272365
               4.98636866                2.00936246               42.04134625                0.01000001               -0.39879964               -0.11012193                0.10707706                1.04657178               -0.01277885                0.04977478
               5.98275906                2.01667924               42.04261895                0.01000000               -0.44679398               -0.40047127                0.10512632                1.12218141               -0.02266425                0.05952937
               6.97743278                2.02403910               42.04385280                0.01000000               -0.28203757               -0.22730373                0.09981575                0.66238440               -0.02432172                0.04805039
               7.97711831                2.02608091               42.04548348                0.14610293               -0.03288486               -0.03290082                0.10949232                0.00040320               -0.00580619               -0.00125069
               8.97677509                2.02812893               42.04708701                0.99999995               -0.03575580               -0.03567387                0.11921549                0.00012421               -0.00417110               -0.00171672
               9.97640319                2.03018032               42.04875100                1.00000000               -0.03718955               -0.03878870                0.12885447               -0.00020571               -0.00127547                0.00663030
               0.00054389                3.00420508               42.03609955                0.01000001               -0.02293902                0.02605698                0.07818732                0.03317716                0.00032173                0.21857150
               1.00031450                3.00015357               42.03705394                0.01000001               -0.03866173               -0.20646780                0.08964668                0.14214775                0.00674380                0.16945151
               1.99977066                2.99799035               42.03814716                0.01000000               -0.10849163               -0.23323387                0.09912256                0.36220229                0.02189307                0.10805244
               2.99814467                2.99837684               42.03936579                0.01000000               -0.23427692               -0.15032317                0.10581219                0.71517472                0.02308932                0.04930366
               3.99508512                3.00172484               42.04055733                0.01000003               -0.32959980               -0.15276148                0.11076101                1.02499071                0.01106180                0.05052970
               4.99155267                3.00738339               42.04173284                0.01000000               -0.37904889               -0.21794220                0.11312356                1.25102083                0.00179468                0.07627392
               5.98750414                3.01416186               42.04292317                0.01000001               -0.41097725               -0.28163807                0.11359171                1.26245559               -0.01154873                0.10145047
               6.98333313                3.01978916               42.04409504                0.01000001               -0.62041041               -0.35044798                0.11450979                1.31617222               -0.05728539                0.12230536
               7.97509593                3.02574908               42.04465101                0.01000001               -0.42953472               -0.26023095                0.11240723                1.06394616               -0.06724567                0.12423508
               8.97474243                3.02777052               42.04619195                0.01000000               -0.03653487               -0.32125476                0.12087024                0.81524532               -0.00984927                0.11328485
               9.97436524                3.02978977               42.04789825                0.80558681               -0.03771986               -0.70905357                0.13042995                0.95284128               -0.00177619                0.09367696
               0.00680528                4.00446055               42.03815614                0.01000003                0.00364243               -0.04695344                0.07912848                0.21251657               -0.00550010                0.23388276
               1.00684170                3.99776341               42.03872744                0.01000000               -0.01363416               -0.30279972                0.08999724                0.44202732               -0.00024834                0.15900847
               2.00653259                3.99520108               42.03936922                0.01000000               -0.09547410               -0.30173980                0.10000011                0.78867486                0.01273633                0.10086911
               3.00493222                3.99611769               42.04020341                0.01000008               -0.21521410               -0.25129132                0.10833022                1.02925182                0.02676232                0.06744539
               4.00222831                3.99965547               42.04123649                0.01000000               -0.29900800               -0.23745830                0.11471458                1.24771292                0.03565518                0.07020616
               4.99895206                4.00500362               42.04243909                0.01000001               -0.33129535               -0.25969609                0.11922032                1.37941225                0.03839980                0.09852327
               5.99560241                4.01104648               42.04374672                0.01000001               -0.33915277               -0.31781629                0.12223904                1.45338136                0.03208793                0.13909965
               6.99216900                4.01703014               42.04503538                0.01000001               -0.25932682               -0.35805729                0.12440386                1.43710132                0.02111596                0.18384649
               7.99041587                4.02087629               42.04634720                0.01000002               -0.15648479               -0.50720043                0.12775587                1.53284732                0.01577552                0.24790376
               8.98903931                4.02170383               42.04763800                0.01000000                0.05028237               -0.61871661                0.13306068                1.09705123                0.00516700                0.23960660
               9.99142152                4.01599925               42.04881656                0.01000001                0.23822078               -0.99915037                0.14088893                0.83622722                0.00997975                0.17646742
               0.01818849                5.00326601               42.04044699                0.01000003                0.02260268               -0.42994860                0.08096148                0.58087788               -0.00899602                0.26906087
               1.01841452                4.99409758               42.04049419                0.01000000               -0.04993056               -0.32672497                0.09152972                0.91628689               -0.00163203                0.17342506
               2.01718988                4.99195555               42.04063473                0.01000001               -0.20696022               -0.27206237                0.10215110                1.08097341                0.01532763                0.08375845
               3.01427532                4.99335101               42.04111542                0.01000000               -0.30182180               -0.29147089                0.11175897                1.24996154                0.04512657                0.06055255
               4.01115345                4.99697567               42.04208013                0.01000001               -0.32627046               -0.26980778                0.11948047                1.36359194                0.07595006                0.07227358
               5.00774991                5.00218947               42.04341251                0.01000001               -0.33041008               -0.27588280                0.12536125                1.42394746                0.09474340                0.11102787
               6.00454524                5.00780553               42.04498680                0.01000002               -0.27522818               -0.31943968                0.13005396                1.38113676                0.10174713                0.16561041
               7.00224534                5.01262801               42.04666615                0.01000000               -0.17330274               -0.42500064                0.13418312                1.28347195                0.09760861                0.22643061
               8.00107919                5.01560507               42.04829540                0.01000000               -0.03424184               -0.51668116                0.13854838                1.06237746                0.08020893                0.27421389
               9.00156051                5.01539618               42.04968868                0.01000000                0.07098819               -0.56907980                0.14390646                0.71460468                0.04845864                0.28765893
              10.00249895                5.00980676               42.05062684                0.01000001                0.09384476               -0.43575033                0.15081928                0.34718548                0.03085322                0.24439755
               0.03675969                5.99586158               42.04332574                0.13727395               -0.02817966               -0.38175571                0.08402628                0.69807096               -0.00399280                0.16624443
               1.03647790                5.99122891               42.04269907                0.01000001               -0.39305322               -0.15696561                0.09219129                0.83045917               -0.02281157                0.11066781
               2.02889863                5.98975983               42.04168530                0.01000000               -0.57832839               -0.28260246                0.10532503                1.13414588               -0.00828012                0.05952287
               3.02491133                5.99028827               42.04193043                0.01000001               -0.41184668               -0.29357331                0.11591618                1.23021494                0.07623427                0.03197295
               4.02066169                5.99425931               42.04291796                0.01000001               -0.41550892               -0.27102745                0.12378924                1.40342272                0.12896070                0.05467155
               5.01660115                5.99948596               42.04451366                0.01000001               -0.39375468               -0.22226314                0.13117020                1.34676438                0.16637489                0.11052836
               6.01278660                6.00465769               42.04652174                0.01000000               -0.32811230               -0.26151239                0.13735933                1.17356718                0.18513747                0.17798473
               7.01003890                6.00853013               42.04872047                0.01000001               -0.19456780               -0.35813684                0.14271450                0.92342160                0.18364643                0.25398550
               8.00889524                6.01054267               42.05084585                0.01000000               -0.04545930               -0.46101475                0.14782910                0.66218635                0.15562647                0.32420206
               9.00912972                6.01032224               42.05252656                0.01000002                0.03244161               -0.45610775                0.15315041                0.36096801                0.09377078                0.36621910
              10.00954408                6.00728424               42.05337232                0.01000001                0.04143594               -0.17913988                0.15925078                0.17262882                0.05523408                0.34670526
               0.04141524                6.99563089               42.04419531                0.98150730               -0.02897867               -0.02580488                0.09281491                0.00024104               -0.01135890                0.04105767
               1.04112545                6.99095827               42.04337092                0.99270733               -0.03008957               -0.02900586                0.10040620               -0.00015552               -0.01122224                0.01857763
               2.04081344                6.98630350               42.04254754                0.01000000               -0.33726590               -0.18951473                0.10820622                0.65471840                0.02345540                0.01560192
               3.03438013                6.98747955               42.04241391                0.01000001               -0.53946192               -0.44943391                0.11421298                1.27318129                0.10042343               -0.04861496
               4.03002421                6.99155512               42.04353767                0.01000001               -0.50466562               -0.17618128                0.12659473                1.34998892                0.19560483                0.03043546
               5.02428682                6.99774421               42.04560655                0.01000000               -0.55258931               -0.10161883                0.13667727                1.20731251                0.25078282                0.09917795
               6.01897242                7.00257529               42.04817860                0.01000001               -0.47290138               -0.11897727                0.14421516                0.87238449                0.28037719                0.17362940
               7.01482879                7.00546527               42.05113640                0.01000000               -0.32208056               -0.21263863                0.15036933                0.50630646                0.29016617                0.26454903
               8.01253081                7.00638478               42.05409651                0.01000001               -0.13952479               -0.34478452                0.15598583                0.17933338                0.25727678                0.39170966
               9.01203830                7.00627403               42.05647477                0.01000002               -0.02516427               -0.38638210                0.16116199                0.01437282                0.15778197                0.48577053
              10.01202752                7.00622396               42.05743171                0.01000001               -0.00107720               -0.10958739                0.16611749               -0.02432228                0.08817308                0.52408167
               0.04610977                7.99534548               42.04456207                1.00000000               -0.03075899               -0.02937540                0.09845694                0.00105734               -0.00113291                0.02055061
               1.04580218                7.99064880               42.04372096                0.99999999               -0.03190254               -0.03184774                0.10625780                0.00021328               -0.00112519                0.00370608
               2.04547171                7.98596953               42.04288028                0.30231101               -0.03394228               -0.03425915                0.11399533               -0.00023184               -0.01157220               -0.01361321
               3.04512333                7.98129959               42.04183401                0.01000001               -0.40374515               -0.32703547                0.10856026                1.00868730                0.13831675               -0.06949591
               4.03739681                7.99073569               42.04401013                0.01000001               -0.76980459               -0.03685405                0.12754220                1.36256562                0.30356341                0.01860239
               5.02972724                7.99745359               42.04656088                0.01000000               -0.74417939                0.07240845                0.14297813                0.94302969                0.32779331                0.07979226
               6.02251322                8.00227814               42.04973364                0.01000000               -0.66858495                0.05667212                0.15049750                0.55765423                0.37394540                0.14568584
               7.01635554                8.00427736               42.05357231                0.01000001               -0.54200339               -0.00933136                0.15718253                0.12176278                0.43549515                0.23545893
               8.01167316                8.00364698               42.05822784                0.01000002               -0.33887741               -0.12935918                0.16319384               -0.29494386                0.42148146                0.38703942
               9.00957799                8.00259460               42.06192917                0.01000000               -0.12576949               -0.30413176                0.16796288               -0.52252003                0.28145173                0.79090824
              10.00915777                8.00509249               42.06380755                0.01000000               -0.04202247               -0.33311070                0.17157575               -0.37059941                0.19113541                0.73636080
               0.05082975                8.99504338               42.04501893                1.00000000               -0.03240877               -0.03105986                0.10392722                0.00104768                0.00260207                0.01998041
               1.05050566                8.99032131               42.04409414                0.99999998               -0.03358659               -0.03363035                0.11212336                0.00025788                0.00204858                0.00326035
               2.05015801                8.98561832               42.04315918                1.00000000               -0.03589664               -0.03601433                0.12023314                0.00050158               -0.00315709               -0.00946050
               3.04978773                8.98093884               42.04213475                0.01000001               -0.45182455               -0.03780072                0.12815772                0.72736838                0.15749603               -0.01485591
               4.04112152                8.99081804               42.04441611                0.01000000               -0.90913838                0.19086308                0.13655165                0.95809371                0.33080214                0.01040329
               5.03160496                8.99919238               42.04726388                0.01000000               -0.89098951                0.21289337                0.14827714                0.59001070                0.37239776                0.04876363
               6.02330173                9.00370873               42.05085205                0.01000001               -0.78548745                0.17996057                0.15635438                0.26143328                0.44285899                0.08728031
               7.01589521                9.00527865               42.05548409                0.01000002               -0.74935196                0.14663766                0.16293044               -0.04251053                0.55251379                0.14424671
               8.00831469                9.00379760               42.06153414                0.01000001               -0.78764134                0.13612939                0.16862334               -0.39917827                0.84136917                0.26011582
               9.00014238                9.00019139               42.07215120                0.99999997               -0.43474766               -0.14625104                0.17455903               -0.65227094                0.53107159                0.51101021
               9.99961974                8.99956175               42.07213919                0.99999999               -0.05226413               -0.30248897                0.17371881               -0.50834307               -0.00042742                0.41567763
               0.05557487                9.99472428               42.04537144                0.99999999               -0.03424669               -0.03191035                0.10956271               -0.00029714                0.01393635                0.01483959
               1.05523240                9.98997619               42.04443702                0.99999998               -0.03553229               -0.03451216                0.11786910               -0.00107756                0.01757808                0.00154301
               2.05486422                9.98524925               42.04357848                0.99999999               -0.03807132               -0.03690705                0.12634922               -0.00101008                0.01730017               -0.00284555
               3.05447097                9.98054358               42.04264773                0.64004145               -0.82795366               -0.03952614                0.13468949                0.93350972                0.16185888               -0.00507671
               4.03830515                9.99455295               42.04469554                0.01000000               -1.29171023                0.37349045                0.14533142                0.77675623                0.30726887                0.01294230
               5.02863677               10.00171145               42.04750713                0.01000000               -0.83247636                0.25190768                0.15419554                0.26940124                0.36687731                0.03097472
               6.02165562               10.00587735               42.05118309                0.01000000               -0.66101532                0.21686249                0.16171682                0.11032154                0.45837022                0.05158058
               7.01541646               10.00721011               42.05608196                0.01000004               -0.64393883                0.19314645                0.16740353               -0.02326401                0.62025754                0.08087152
               8.00877684               10.00636957               42.06316708                0.01000002               -0.73240206                0.25719721                0.17196346               -0.33081188                0.81757611                0.17868103
               9.00076842                9.99966957               42.07216073                0.99999999               -0.42633226               -0.05218193                0.17323273               -0.30373888                0.45062082                0.00033852
              10.00025020                9.99904271               42.07214871                1.00000000               -0.05182226               -0.05190341                0.17239225                0.00035959                0.00038277               -0.00038211
              -0.00730768                0.00441576               43.03477846                0.99618588               -0.02315021               -0.02152258                0.07011088                0.00289670               -0.00353633                0.00401462
               0.99246082                0.00240593               43.03614692                0.99999999               -0.02525017               -0.02595341                0.08434500                0.00225461               -0.00386490               -0.00135174
               1.99218732                0.00040958               43.03750822                0.04585160               -0.01527767               -0.03039075                0.09858129                0.01050200                0.05859398               -0.00149496
               2.99215526               -0.00140713               43.04012605                0.01000001               -0.02568295               -0.02940335                0.08085702                0.19844939                0.02075294               -0.01125838
               3.99167366                0.00091088               43.04111061                0.01000000               -0.18172737                0.11129644                0.10499131                0.21454163               -0.01619173               -0.02006654
               4.98852072                0.00853515               43.04240154                0.01000002               -0.56974271                0.12688459                0.10116308                0.57115618                0.02658922                0.00385802
               5.98027880                0.02310365               43.04432219                0.06754916               -0.42888129               -0.02652802                0.08437572                0.61956384                0.03649049               -0.00241500
               6.97994309                0.02538074               43.04643396                0.98312838               -0.03199052               -0.02909597                0.09648232                0.00814624                0.02487574               -0.00465178
               7.97963899                0.02753127               43.04817521                1.00000000               -0.03187301               -0.03213184                0.10627050                0.00154666                0.00823209               -0.00043363
               8.97930563                0.02968596               43.04995358                1.00000000               -0.03479187               -0.03506603                0.11605548                0.00154942                0.00805275                0.00096862
               9.97894315                0.03184675               43.05169067                0.99999999               -0.03624755               -0.03816979                0.12600567                0.00128963                0.00590390                0.00536068
              -0.00526889                1.00420053               43.03480422                0.97988268               -0.02446609               -0.02210373                0.07432881                0.00075099                0.00176021                0.00451490
               0.99448645                1.00214640               43.03617177                0.17102780               -0.02661202               -0.02670170                0.08862243                0.00011620                0.00381867               -0.00347191
               1.99419887                1.00010568               43.03758232                0.01000000               -0.02986701               -0.03094345                0.10293868                0.01219891                0.07263540                0.01195826
               2.99388911                0.99829883               43.04033101                0.01000001               -0.26754692                0.01623393                0.08764478                0.14609430                0.05404088               -0.04229000
               3.98884793                1.00202385               43.04111665                0.01000000               -0.53766059                0.08897269                0.10867109                0.46488591               -0.03611818               -0.00438162
               4.98313590                1.00980400               43.04232193                0.01000000               -0.53981424                0.05379394                0.10343197                0.86279159               -0.02747163                0.02125138
               5.97805165                1.02283837               43.04365108                0.01000001               -0.26625768               -0.29603742                0.08793426                0.81154936               -0.00773470                0.03255328
               6.97781074                1.02508978               43.04564204                0.98998193               -0.02748993               -0.02931009                0.09804044                0.00686811                0.01368351               -0.00456639
               7.97750185                1.02720995               43.04737651                0.99999999               -0.03236788               -0.03237905                0.10789909                0.00006886                0.00137720               -0.00037496
               8.97716338                1.02933530               43.04912018                0.99999999               -0.03532885               -0.03531802                0.11777470                0.00004857                0.00125253                0.00066453
               9.97679527                1.03146505               43.05085240                0.99999999               -0.03681153               -0.03842413                0.12771524               -0.00026564                0.00058018                0.00665715
              -0.00318440                2.00397368               43.03484009                0.01000000               -0.02576086                0.00628165                0.07853644                0.02980973                0.00211304                0.10513018
               0.99655799                2.00187190               43.03615618                0.01000000               -0.02683711               -0.10318868                0.09285825                0.03137498                0.02477396                0.08489088
               1.99627886                1.99979072               43.03793021                0.01000001               -0.16995072               -0.11423529                0.10254294                0.08112315                0.05755059                0.06823177
               2.99315898                1.99891754               43.03991459                0.01000000               -0.34063246               -0.00522303                0.10171350                0.30594271                0.03824609               -0.01605776
               3.98946621                2.00269034               43.04127684                0.01000000               -0.40984747               -0.01642173                0.10675371                0.79043807               -0.00981667                0.02374147
               4.98496203                2.00961103               43.04242738                0.01000001               -0.41211026               -0.11129920                0.10797657                1.08443929               -0.02805759                0.04970484
               5.98122400                2.01718290               43.04367834                0.01000000               -0.46265792               -0.41209501                0.10635519                1.16430157               -0.03851281                0.06910363
               6.97570887                2.02479454               43.04485004                0.01000000               -0.29145793               -0.23399966                0.09960080                0.68679185               -0.03235222                0.05483175
               7.97539485                2.02688369               43.04657865                0.15031471               -0.03286840               -0.03289563                0.10948212                0.00052576               -0.00572421               -0.00039735
               8.97505150                2.02897960               43.04828087                0.99999999               -0.03582457               -0.03575967                0.11955540                0.00018633               -0.00407211               -0.00158836
               9.97467835                2.03107826               43.05004232                1.00000000               -0.03731476               -0.03896643                0.12941757               -0.00023174               -0.00123454                0.00658786
              -0.00046913                3.00432616               43.03688117                0.01000000               -0.02339560                0.03177510                0.07805360                0.04107742               -0.00064221                0.21541050
               0.99929691                3.00008262               43.03795342                0.01000001               -0.03775917               -0.21293135                0.09017234                0.15580343                0.00466900                0.16441056
               1.99877569                2.99782097               43.03914065                0.01000000               -0.10942863               -0.24217015                0.09955656                0.38507492                0.01736325                0.10359740
               2.99710834                2.99819437               43.04042190                0.01000000               -0.24062396               -0.15086449                0.10618426                0.74652699                0.01670803                0.04971484
               3.99396321                3.00169541               43.04166965                0.01000001               -0.33881097               -0.15557289                0.11161146                1.06663940                0.00421924                0.05077631
               4.99033212                3.00757801               43.04287138                0.01000000               -0.39045194               -0.22396413                0.11459033                1.29849858               -0.00833497                0.07772821
               5.98615417                3.01459647               43.04406696                0.01000001               -0.42431641               -0.28966113                0.11508673                1.30915714               -0.02210473                0.10637096
               6.98184579                3.02040979               43.04524612                0.01000001               -0.64134350               -0.36118976                0.11560235                1.36392066               -0.06846300                0.13255685
               7.97332730                3.02655204               43.04577945                0.01000001               -0.44366286               -0.26799978                0.11344241                1.10205780               -0.07380101                0.13215586
               8.97297254                3.02862011               43.04740343                0.01000000               -0.03669899               -0.33186049                0.12146975                0.84465659               -0.01047842                0.11877004
               9.97259332                3.03068572               43.04920595                0.83275332               -0.03792178               -0.73450523                0.13112342                0.98757230               -0.00177022                0.09807790
               0.00612423                4.00460918               43.03894365                0.01000003                0.00550268               -0.04876276                0.07828591                0.22398945               -0.00567294                0.23123957
               1.00617925                3.99761327               43.03962782                0.01000000               -0.01278076               -0.31301630                0.09024131                0.46494310               -0.00069053                0.15553417
               2.00586861                3.99494731               43.04037323                0.01000000               -0.09820882               -0.31034723                0.10111878                0.82488832                0.01099572                0.09869396
               3.00421508                3.99590025               43.04129404                0.01000008               -0.22266266               -0.25602700                0.11003483                1.07398111                0.02335695                0.06726912
               4.00141536                3.99957888               43.04239211                0.01000000               -0.30920643               -0.24276747                0.11678240                1.29920738                0.03030508                0.07113698
               4.99803095                4.00513175               43.04364100                0.01000001               -0.34199924               -0.26668204                0.12129381                1.43378060                0.03158393                0.10082602
               5.99457537                4.01138968               43.04497796                0.01000001               -0.34996164               -0.32691136                0.12408852                1.50875909                0.02415541                0.14376159
               6.99103171                4.01757074               43.04628676                0.01000000               -0.26748465               -0.36864989                0.12590689                1.49059180                0.01380240                0.19096101
               7.98922568                4.02152369               43.04763066                0.01000001               -0.16103815               -0.52322234                0.12891192                1.58862227                0.01052022                0.25899186
               8.98781095                4.02234239               43.04897345                0.01000000                0.05364527               -0.64009080                0.13403266                1.13651796                0.00257309                0.24931329
               9.99029858                4.01638816               43.05022986                0.01000004                0.24876332               -1.03631648                0.14173968                0.86636763                0.00895163                0.18429630
               0.01800248                5.00335091               43.04124859                0.01000003                0.02551636               -0.44939638                0.07926229                0.60624111               -0.00821138                0.26661020
               1.01825764                4.99382230               43.04140763                0.01000000               -0.05080062               -0.33725966                0.09136375                0.95563086               -0.00034828                0.16907890
               2.01698647                4.99161403               43.04166073                0.01000001               -0.21506246               -0.27858870                0.10343112                1.12693583                0.01599949                0.08218387
               3.01395640                4.99307383               43.04224051                0.01000000               -0.31353037               -0.29773503                0.11410945                1.30109130                0.04392790                0.06121119
               4.01071586                4.99684006               43.04328714                0.01000001               -0.33797297               -0.27616451                0.12195771                1.41859984                0.07270723                0.07309647
               5.00719694                5.00224437               43.04467709                0.01000001               -0.34127545               -0.28279135                0.12774374                1.48030049                0.08985516                0.11310531
               6.00389035                5.00805824               43.04629711                0.01000001               -0.28366608               -0.32824812                0.13203838                1.43556422                0.09654888                0.16946653
               7.00152361                5.01303679               43.04801609                0.01000000               -0.17811298               -0.43744032                0.13580058                1.33368128                0.09279161                0.23258187
               8.00032809                5.01608759               43.04968757                0.01000000               -0.03425937               -0.53246645                0.13987740                1.10346104                0.07652189                0.28191273
               9.00083843                5.01581829               43.05113353                0.01000000                0.07505249               -0.58802138                0.14504752                0.74153026                0.04637074                0.29549641
              10.00182914                5.00995939               43.05214035                0.01000001                0.09907153               -0.45265448                0.15181598                0.35999294                0.02974555                0.25069832
               0.03730627                5.99562126               43.04415199                0.11800353               -0.02775155               -0.39782917                0.08137500                0.72891634               -0.00392759                0.16676499
               1.03702875                5.99086808               43.04361108                0.01000001               -0.40752359               -0.16087725                0.09062820                0.86472172               -0.01995303                0.10911078
               2.02915579                5.98937554               43.04274502                0.01000000               -0.60089426               -0.28899244                0.10697802                1.17887982               -0.00381961                0.05755889
               3.02501086                5.98994555               43.04311351                0.01000001               -0.42694899               -0.30502181                0.11807926                1.27916158                0.07657095                0.02952166
               4.02061681                5.99405559               43.04416899                0.01000001               -0.42960413               -0.27719164                0.12727168                1.45765241                0.12580231                0.05491319
               5.01641878                5.99947592               43.04583799                0.01000001               -0.40612877               -0.22777382                0.13357387                1.40041558                0.16372645                0.11198511
               6.01249424                6.00482471               43.04790554                0.01000000               -0.33713956               -0.26848928                0.13934607                1.22154021                0.18224438                0.18123642
               7.00967599                6.00882194               43.05015608                0.01000001               -0.19904213               -0.36825028                0.14427956                0.96337918                0.18120761                0.25889921
               8.00851340                6.01087436               43.05233127                0.01000000               -0.04531168               -0.47422514                0.14917973                0.69200198                0.15380530                0.33055933
               9.00876976                6.01058197               43.05406436                0.01000001                0.03514296               -0.46970298                0.15436131                0.37725824                0.09265475                0.37269119
              10.00921625                6.00733507               43.05497037                0.01000000                0.04464979               -0.18619579                0.16025681                0.18014042                0.05451106                0.35132095
               0.04208716                6.99539432               43.04512253                0.97518171               -0.02893669               -0.02556113                0.09234291                0.00072509               -0.01195663                0.04292578
               1.04179780                6.99060475               43.04437281                0.98377576               -0.03002867               -0.02864155                0.10042905                0.00014907               -0.01173298                0.02044835
               2.04148659                6.98583418               43.04362608                0.01000000               -0.34691098               -0.19387221                0.10873159                0.67353169                0.02155695                0.01412151
               3.03485958                6.98697340               43.04354895                0.01000001               -0.55740229               -0.46107666                0.12647813                1.31673161                0.09851428               -0.05821756
               4.03033854                6.99129623               43.04481796                0.01000000               -0.52117264               -0.18029058                0.12825713                1.40897116                0.19859762                0.02615883
               5.02443612                6.99768890               43.04698703                0.01000000               -0.56817022               -0.10381158                0.14003349                1.25363693                0.25012772                0.10156385
               6.01897514                7.00268845               43.04963259                0.01000001               -0.48472863               -0.12233071                0.14608702                0.91022181                0.27950111                0.17589397
               7.01474155                7.00567178               43.05264838                0.01000000               -0.32835176               -0.21887527                0.15180126                0.53394258                0.28989697                0.26857672
               8.01240810                7.00660309               43.05566340                0.01000001               -0.14093328               -0.35406114                0.15722804                0.19663370                0.25752675                0.39733058
               9.01192288                7.00642424               43.05809254                0.01000002               -0.02411784               -0.39582316                0.16230971                0.02258220                0.15786808                0.49162117
              10.01192575                7.00623547               43.05909807                0.01000001                0.00028617               -0.11195245                0.16702744               -0.02092695                0.08791520                0.52761661
               0.04689991                7.99511003               43.04554564                1.00000000               -0.03080313               -0.02924793                0.09801366                0.00118561               -0.00150779                0.02013545
               1.04659188                7.99029525               43.04478385                0.99999999               -0.03210615               -0.03191356                0.10658316                0.00030482               -0.00155540                0.00388145
               2.04625778                7.98549809               43.04402035                0.31443905               -0.03542166               -0.03448966                0.11468743                0.00038029               -0.02349126               -0.01314688
               3.04588344                7.98072402               43.04282382                0.01000001               -0.40885240               -0.33096341                0.05780321                1.03931869                0.15434427               -0.07556152
               4.03808074                7.99044978               43.04527435                0.01000000               -0.78920727               -0.03745107                0.14120557                1.40852317                0.31506924                0.01899144
               5.03009930                7.99739969               43.04801959                0.01000000               -0.76824757                0.07460236                0.14567414                0.97837988                0.33082147                0.08027763
               6.02271579                8.00237810               43.05124874                0.01000000               -0.68295442                0.05723872                0.15261530                0.58300342                0.37351744                0.14709080
               7.01644021                8.00444443               43.05515329                0.01000001               -0.55110831               -0.01107836                0.15852703                0.13665266                0.43721261                0.23840515
               8.01169362                8.00379314               43.05986612                0.01000002               -0.34255977               -0.13400449                0.16426214               -0.29000264                0.42377715                0.39181183
               9.00958901                8.00266550               43.06361400                0.01000000               -0.12591898               -0.31159388                0.16890297               -0.52326305                0.28305104                0.79724672
              10.00917524                8.00509602               43.06552694                0.01000000               -0.04137745               -0.33404632                0.17221168               -0.37165402                0.19165197                0.73861610
               0.05174045                8.99480937               43.04605667                1.00000000               -0.03246160               -0.03092989                0.10349913                0.00114029                0.00273319                0.01965868
               1.05141583                8.98996648               43.04521789                0.99999998               -0.03375125               -0.03379556                0.11267195                0.00041323                0.00213142                0.00324572
               2.05106542                8.98514439               43.04436659                1.00000000               -0.03607819               -0.03635552                0.12143160                0.00112687               -0.00340912               -0.00923390
               3.05069427                8.98035413               43.04342193                0.01000000               -0.46160410               -0.03879750                0.12967494                0.75054836                0.15685740               -0.00362862
               4.04183334                8.99054721               43.04578805                0.01000000               -0.93094337                0.19592811                0.13969714                0.98265397                0.33217435                0.01377830
               5.03207540                8.99918094               43.04876630                0.01000000               -0.91214378                0.21739201                0.15219582                0.61055541                0.37444048                0.04740990
               6.02359046                9.00383323               43.05242983                0.01000001               -0.80079169                0.18289764                0.15879604                0.27367864                0.44361655                0.08786049
               7.01605956                9.00545022               43.05712343                0.01000002               -0.76017418                0.14784673                0.16456824               -0.03735149                0.55443639                0.14571201
               8.00838698                9.00392300               43.06322671                0.01000005               -0.79524108                0.13597014                0.16963530               -0.40251981                0.84537373                0.26297908
               9.00015474                9.00019236               43.07389816                0.99999997               -0.43776729               -0.14977253                0.17483953               -0.65847314                0.53427628                0.51484894
               9.99963163                8.99955455               43.07387637                0.99999995               -0.05231095               -0.30300149                0.17371409               -0.50903113               -0.00043085                0.41729440
               0.05660848                9.99449143               43.04646725                0.99999999               -0.03433582               -0.03179305                0.10935611               -0.00040652                0.01416913                0.01477394
               1.05626512                9.98961934               43.04561996                0.99999998               -0.03579013               -0.03471465                0.11857309               -0.00109336                0.01808683                0.00145096
               2.05589268                9.98477098               43.04485110                0.99999994               -0.03867681               -0.03734008                0.12808588               -0.00083762                0.01805473               -0.00280474
               3.05549159                9.97994807               43.04400932                0.69128247               -0.84928382               -0.04060568                0.13768135                0.95959973                0.16393083               -0.00498563
               4.03890700                9.99436834               43.04617072                0.01000002               -1.32335987                0.38211301                0.14997799                0.79733910                0.30915741                0.01505429
               5.02902439               10.00174753               43.04907070                0.01000002               -0.84934586                0.25665857                0.15859536                0.27828454                0.36700013                0.02982940
               6.02192008               10.00603605               43.05281953                0.01000000               -0.67104880                0.22028242                0.16534816                0.11565395                0.45792843                0.05137802
               7.01560341               10.00740137               43.05776971                0.01000001               -0.65095003                0.19511492                0.16987753               -0.02179088                0.62003229                0.08119840
               8.00890108               10.00651254               43.06489449                0.01000002               -0.74077053                0.25895448                0.17333050               -0.33515536                0.81734959                0.17970639
               9.00078800                9.99967005               43.07389308                0.99999997               -0.43154222               -0.05223050                0.17323800               -0.31050179                0.45135829                0.00033989
              10.00027024                9.99903599               43.07387127                1.00000000               -0.05177626               -0.05185571                0.17211503                0.00045420                0.00038345               -0.00038503
              -0.00878296                0.00440919               44.03547797                0.99452976               -0.02315486               -0.02154870                0.06982526                0.00294971               -0.00382250                0.00409969
               0.99098549                0.00234618               44.03699055                0.99999999               -0.02522802               -0.02604006                0.08425040                0.00237685               -0.00389658               -0.00134762
               1.99071248                0.00029893               44.03849592                0.06155182               -0.02172326               -0.03064657                0.09904562                0.00403590                0.04343318               -0.00149105
               2.99055102               -0.00169721               44.04095856                0.01000001               -0.02461121               -0.02729054                0.08060807                0.21628983                0.01329713               -0.00688713
               3.99022025                0.00073705               44.04208575                0.01000000               -0.17371143                0.11668566                0.09401755                0.22859785               -0.03024794               -0.01127464
               4.98707680                0.00865280               44.04339969                0.01000000               -0.58181590                0.13322267                0.09697436                0.59260106                0.00199344                0.00622823
               5.97858394                0.02373083               44.04516112                0.06073731               -0.44304133               -0.02646339                0.08374309                0.64107982                0.02677543               -0.00343977
               6.97821597                0.02611756               44.04739756                0.98072126               -0.03361708               -0.02897379                0.09630833                0.01126990                0.02602314               -0.00460882
               7.97791159                0.02831746               44.04923715                1.00000000               -0.03186022               -0.03213042                0.10605553                0.00170176                0.00824051               -0.00054584
               8.97757877                0.03052058               44.05111417                1.00000000               -0.03482889               -0.03505754                0.11613189                0.00159256                0.00781431                0.00109702
               9.97721502                0.03272980               44.05295242                1.00000000               -0.03637485               -0.03827731                0.12627419                0.00135046                0.00570984                0.00518415
              -0.00669045                1.00419371               44.03554856                0.97652687               -0.02451554               -0.02220640                0.07458316                0.00079587                0.00188874                0.00448078
               0.99306439                1.00208578               44.03706086                0.19073799               -0.02675073               -0.02686256                0.08918717                0.00013189                0.00389178               -0.00345152
               1.99277453                0.99999246               44.03861694                0.01000000               -0.02847662               -0.03134318                0.10402131                0.00680224                0.05664671                0.00932598
               2.99249486                0.99802988               44.04118859                0.01000001               -0.27216517                0.02046591                0.08350128                0.15709702                0.02599270               -0.02720828
               3.98733123                1.00190391               44.04213202                0.01000000               -0.54944715                0.09477352                0.09870893                0.48804076               -0.05116454                0.00003994
               4.98150592                1.00998502               44.04334994                0.01000000               -0.55344378                0.05771568                0.10099664                0.89457525               -0.05006376                0.02176251
               5.97626235                1.02346620               44.04453126                0.01000001               -0.27352808               -0.30426960                0.08768398                0.84124986               -0.02070736                0.03930960
               6.97603535                1.02582782               44.04662134                0.98940442               -0.02676263               -0.02929496                0.09800849                0.00997065                0.01373513               -0.00493818
               7.97572710                1.02799616               44.04845520                0.99999999               -0.03234178               -0.03237177                0.10781344                0.00017944                0.00134020               -0.00037413
               8.97538852                1.03017000               44.05029870                0.99999999               -0.03539024               -0.03533320                0.11793844                0.00010440                0.00122468                0.00084757
               9.97501930                1.03234703               44.05213185                0.99999999               -0.03692229               -0.03856378                0.12815841               -0.00026833                0.00059931                0.00652458
              -0.00455119                2.00396506               44.03562882                0.01000000               -0.02594332                0.01080086                0.07910034                0.03823642                0.00212490                0.10242161
               0.99518937                2.00180893               44.03709011                0.01000000               -0.02721938               -0.10578202                0.09370895                0.03955035                0.02226898                0.08122816
               1.99490442                1.99967206               44.03895921                0.01000001               -0.17039288               -0.11865925                0.10152220                0.08890469                0.04675964                0.06197671
               2.99178152                1.99871211               44.04091108                0.01000000               -0.34392442               -0.00190985                0.09952656                0.32077162                0.02458295               -0.00517105
               3.98802593                2.00263252               44.04233333                0.01000000               -0.41877523               -0.01394092                0.10525942                0.82418955               -0.02180806                0.02534471
               4.98340601                2.00980711               44.04350578                0.01000001               -0.42298968               -0.11303449                0.10767442                1.12478366               -0.04178617                0.05101235
               5.97956614                2.01764544               44.04474606                0.01000000               -0.47602928               -0.42382717                0.10703718                1.20747527               -0.05490677                0.07868351
               6.97388543                2.02553166               44.04584482                0.01000000               -0.29965690               -0.24121249                0.09898858                0.71203023               -0.04108615                0.06231444
               7.97357300                2.02767003               44.04767312                0.15575548               -0.03277233               -0.03279840                0.10927944                0.00088821               -0.00554631                0.00112804
               8.97322998                2.02981392               44.04947812                0.99999999               -0.03587017               -0.03583353                0.11991641                0.00031775               -0.00381283               -0.00128670
               9.97285560                2.03195853               44.05133935                1.00000000               -0.03743835               -0.03916233                0.12999875               -0.00026385               -0.00112540                0.00645920
              -0.00161345                3.00440972               44.03766062                0.01000001               -0.02381442                0.03764264                0.07788521                0.04977505               -0.00175418                0.21063339
               0.99814840                2.99997014               44.03885739                0.01000001               -0.03685487               -0.21945190                0.09073166                0.17092444                0.00197203                0.15862274
               1.99764945                2.99761927               44.04013829                0.01000000               -0.10992852               -0.25085929                0.10026134                0.41017122                0.01169340                0.10033319
               2.99594983                2.99799169               44.04148947                0.01000000               -0.24647148               -0.15338235                0.10782826                0.78023898                0.00949107                0.05266729
               3.99272002                3.00162509               44.04278956                0.01000001               -0.34805797               -0.15859010                0.11309503                1.10970843               -0.00430846                0.05278583
               4.98898867                3.00772433               44.04402464                0.01000000               -0.40163537               -0.22963367                0.11630176                1.34782227               -0.01916044                0.07992668
               5.98468731                3.01498966               44.04522490                0.01000001               -0.43686479               -0.29769430                0.11655452                1.35764239               -0.03372505                0.11111281
               6.98025138                3.02100357               44.04640709                0.01000001               -0.66123513               -0.37261318                0.11661255                1.41287291               -0.08023500                0.14334824
               7.97146261                3.02734019               44.04691986                0.01000001               -0.45725020               -0.27610052                0.11463923                1.14081773               -0.08051455                0.14075887
               8.97110637                3.02945333               44.04862135                0.01000001               -0.03689078               -0.34269624                0.12220341                0.87425966               -0.01137504                0.12447350
               9.97072479                3.03156378               44.05052072                0.86092123               -0.03815785               -0.76038803                0.13187399                1.02265198               -0.00174367                0.10238179
               0.00532347                4.00471792               44.03972186                0.01000003                0.00748368               -0.05099254                0.07717443                0.23618001               -0.00585825                0.22698081
               1.00539831                3.99741989               44.04053226                0.01000000               -0.01185888               -0.32371184                0.09102724                0.48919864               -0.00144723                0.15139348
               2.00508630                3.99465488               44.04139159                0.01000000               -0.10089154               -0.31959187                0.10349830                0.86260577                0.00846315                0.09659399
               3.00338048                3.99564446               44.04240411                0.01000003               -0.22994212               -0.26179613                0.11292590                1.11917408                0.01869965                0.06749305
               4.00048745                3.99946072               44.04357214                0.01000000               -0.31912939               -0.24821819                0.11966841                1.35104837                0.02360051                0.07193364
               4.99699789                4.00521444               44.04486496                0.01000001               -0.35238524               -0.27348744                0.12381981                1.48895992                0.02321543                0.10251153
               5.99343975                4.01169156               44.04622849                0.01000001               -0.36027701               -0.33611863                0.12616321                1.56574333                0.01501722                0.14766537
               6.98979235                4.01807939               44.04755352                0.01000000               -0.27500793               -0.37966171                0.12750962                1.54579034                0.00557491                0.19759736
               7.98793959                4.02214802               44.04892544                0.01000001               -0.16503872               -0.53987311                0.13010143                1.64550848                0.00479317                0.26970472
               8.98649158                4.02295999               44.05031866                0.01000000                0.05740716               -0.66190662                0.13506425                1.17657585               -0.00012055                0.25894819
               9.98908773                4.01675077               44.05165135                0.01000001                0.25961563               -1.07417839                0.14259306                0.89684976                0.00788752                0.19183722
               0.01770620                5.00338987               44.04203223                0.01000003                0.02892184               -0.46974876                0.07714581                0.63257775               -0.00725396                0.26285792
               1.01799541                4.99349590               44.04232146                0.01000000               -0.05146014               -0.34869723                0.09170566                0.99625285                0.00097621                0.16355779
               2.01667699                4.99122744               44.04270336                0.01000001               -0.22339739               -0.28546100                0.10567044                1.17466850                0.01630546                0.08022163
               3.01352747                4.99275576               44.04339761                0.01000000               -0.32529919               -0.30371046                0.11712291                1.35357959                0.04139917                0.05957291
               4.01017101                4.99666073               44.04451928                0.01000001               -0.34952160               -0.28169848                0.12501488                1.47323131                0.06757664                0.07344991
               5.00653704                5.00225458               44.04596738                0.01000001               -0.35168952               -0.28993579                0.13037982                1.53738960                0.08362072                0.11372492
               6.00313722                5.00826728               44.04762757                0.01000001               -0.29131563               -0.33723093                0.13411810                1.49147024                0.09016539                0.17190023
               7.00071072                5.01341034               44.04938216                0.01000000               -0.18225188               -0.45017853                0.13741968                1.38602124                0.08733092                0.23753353
               7.99949218                5.01654273               44.05109295                0.01000000               -0.03377934               -0.54849974                0.14121691                1.14641716                0.07260267                0.28888649
               9.00003514                5.01621520               44.05258963                0.01000000                0.07940255               -0.60714656                0.14621642                0.76948126                0.04426801                0.30286023
              10.00108023                5.01008022               44.05366316                0.01000001                0.10450973               -0.46989121                0.15276002                0.37322930                0.02867073                0.25646913
               0.03776297                5.99532294               44.04495324                0.09960881               -0.02771646               -0.41470565                0.07868855                0.76076751               -0.00455951                0.16806445
               1.03748580                5.99044595               44.04451163                0.01000001               -0.42215812               -0.16507190                0.08965844                0.90072662               -0.01673169                0.10738002
               2.02931980                5.98894566               44.04382486                0.01000000               -0.62335101               -0.29584165                0.10909633                1.22578747               -0.00028313                0.05544175
               3.02501878                5.98957025               44.04429201                0.01000001               -0.44332719               -0.30754383                0.12097035                1.32560829                0.07614259                0.03686786
               4.02045326                5.99382675               44.04546340                0.01000001               -0.44398273               -0.28438907                0.12998354                1.51162717                0.12293651                0.05292074
               5.01613913                5.99941572               44.04718514                0.01000001               -0.41699288               -0.23303519                0.13600936                1.45289478                0.15885731                0.11257890
               6.01211340                6.00494694               44.04930867                0.01000000               -0.34508969               -0.27586600                0.14098157                1.27119885                0.17857528                0.18239228
               7.00923733                6.00907582               44.05160606                0.01000000               -0.20251674               -0.37853690                0.14558539                1.00581408                0.17854617                0.26213173
               8.00806307                6.01117802               44.05382944                0.01000000               -0.04468105               -0.48730967                0.15039938                0.72431202                0.15219735                0.33574695
               9.00834371                6.01081706               44.05561379                0.01000001                0.03796100               -0.48291966                0.15553305                0.39503904                0.09179351                0.37843631
              10.00882229                6.00735294               44.05657745                0.01000000                0.04785756               -0.19302483                0.16113712                0.18831526                0.05393168                0.35521886
               0.04267554                6.99509576               44.04604217                0.96958262               -0.02883038               -0.02544483                0.09145549                0.00188220               -0.01239674                0.04574605
               1.04238723                6.99019446               44.04537950                0.96896205               -0.03035492               -0.02823013                0.10145884                0.00127002               -0.01233948                0.02304952
               2.04206844                6.98531060               44.04472217                0.01000000               -0.36143477               -0.19897807                0.11100754                0.70262692                0.03135089                0.01219760
               3.03515854                6.98660489               44.04494347                0.01000001               -0.57551771               -0.48274360                0.12749568                1.37998908                0.09806586               -0.10192146
               4.03055808                6.99097295               44.04610282                0.01000003               -0.53418961               -0.18406613                0.13471975                1.45190762                0.18689705                0.03598213
               5.02447475                6.99759388               44.04840722                0.01000000               -0.58284955               -0.10679278                0.14173845                1.30035809                0.24877286                0.10073790
               6.01890109                7.00274996               44.05110034                0.01000000               -0.49394124               -0.12621087                0.14709059                0.94910973                0.27744124                0.17630169
               7.01459592                7.00583960               44.05417243                0.01000000               -0.33319532               -0.22527088                0.15261080                0.56458248                0.29001992                0.27062050
               8.01223719                7.00679653               44.05724107                0.01000001               -0.14174638               -0.36290577                0.15813923                0.21710626                0.25841040                0.40159101
               9.01176099                7.00655681               44.05972096                0.01000002               -0.02312090               -0.40415771                0.16332664                0.03288354                0.15849872                0.49664719
              10.01177477                7.00621972               44.06077226                0.01000001                0.00137758               -0.11332151                0.16774851               -0.01657624                0.08793602                0.53049368
               0.04760320                7.99481405               44.04652234                1.00000000               -0.03068416               -0.02904060                0.09728193                0.00105127               -0.00183331                0.01980576
               1.04729636                7.98988134               44.04585263                0.99999999               -0.03206396               -0.03221752                0.10723124                0.00015931               -0.00213224                0.00405605
               2.04696192                7.98496609               44.04517403                0.15265106               -0.01700673               -0.03538549                0.11729398               -0.00743077               -0.07820196               -0.01280650
               3.04695622                7.97991538               44.04299007                0.01000001               -0.42297493               -0.34620619                0.12363153                1.07621031                0.14428642               -0.07505415
               4.03850242                7.99014543               44.04683425                0.01000008               -0.82934756               -0.03878561                0.14418067                1.46135220                0.35517737                0.01953791
               5.03036927                7.99727987               44.04947437                0.01000000               -0.78262699                0.07477951                0.14769534                1.01272666                0.32006395                0.07905090
               6.02284988                8.00242272               44.05278595                0.01000000               -0.69434288                0.05725931                0.15319895                0.61031911                0.37425285                0.14679046
               7.01648241                8.00457041               44.05674285                0.01000001               -0.55809490               -0.01315660                0.15900330                0.15441591                0.43908971                0.23964478
               8.01168798                8.00391991               44.06151308                0.01000002               -0.34521086               -0.13838635                0.16480656               -0.28131238                0.42696225                0.39531259
               9.00957820                8.00273391               44.06530723                0.01000004               -0.12615221               -0.31737531                0.16965033               -0.52080654                0.28524155                0.80281723
              10.00916494                8.00508651               44.06725179                0.01000000               -0.04132577               -0.33282056                0.17269425               -0.37074195                0.19231661                0.74041863
               0.05256196                8.99451495               44.04708891                1.00000000               -0.03235947               -0.03077260                0.10291612                0.00099868                0.00292189                0.01934290
               1.05223837                8.98955011               44.04634758                0.99999998               -0.03380882               -0.03401343                0.11320072                0.00009403                0.00206058                0.00319982
               2.05188579                8.98460289               44.04558782                0.99999999               -0.03674798               -0.03709833                0.12356198                0.00023428               -0.00424786               -0.00866757
               3.05150341                8.97968076               44.04472825                0.01000000               -0.47325724               -0.03231409                0.13390162                0.75340410                0.15659235                0.05041736
               4.04242064                8.99019723               44.04721005                0.01000000               -0.95257108                0.19716295                0.14677616                1.01666009                0.33201555                0.00258127
               5.03245199                8.99908947               44.05030779                0.01000000               -0.93018543                0.22096929                0.15474698                0.63283038                0.37433391                0.04650334
               6.02381693                9.00389515               44.05402797                0.01000001               -0.81324673                0.18513944                0.16012336                0.28761464                0.44367543                0.08721156
               7.01618705                9.00557647               44.05877546                0.01000002               -0.76847468                0.14855607                0.16522585               -0.03033053                0.55650233                0.14622044
               8.00844744                9.00402881               44.06492684                0.01000196               -0.80043998                0.13541144                0.17000130               -0.40273393                0.84960461                0.26507499
               9.00017825                9.00020930               44.07564799                0.99999997               -0.43963640               -0.15236815                0.17513025               -0.66124393                0.53740098                0.51855983
               9.99965471                8.99956331               44.07561347                0.99999999               -0.05235411               -0.30206494                0.17371121               -0.50777173               -0.00043933                0.41876933
               0.05755284                9.99419859               44.04755856                1.00000000               -0.03425473               -0.03163536                0.10871026               -0.00066451                0.01421532                0.01465914
               1.05721029                9.98920108               44.04680849                0.99999994               -0.03584411               -0.03490387                0.11905703               -0.00153127                0.01841619                0.00133351
               2.05683595                9.98422413               44.04614020                0.99999999               -0.03901622               -0.03787662                0.12944821               -0.00158225                0.01884502               -0.00233864
               3.05642996                9.97926910               44.04540135                0.74586153               -0.87045195               -0.04116667                0.13988155                0.98588348                0.16654259               -0.00364742
               4.03942691                9.99408869               44.04769510                0.01000001               -1.35510015                0.38914546                0.15439150                0.82213490                0.31196520                0.01593286
               5.02932796               10.00169925               44.05067904                0.01000000               -0.86558685                0.26097801                0.16299133                0.28943839                0.36649464                0.02744906
               6.02211518               10.00612551               44.05449006                0.01000000               -0.67929079                0.22303585                0.16822107                0.12193824                0.45674077                0.05077508
               7.01574215               10.00754153               44.05947951                0.01000001               -0.65573554                0.19650623                0.17167964               -0.01935949                0.61908499                0.08105139
               8.00900047               10.00662813               44.06663369                0.01000002               -0.74616658                0.25993276                0.17420605               -0.33744661                0.81616150                0.18048669
               9.00081881                9.99968654               44.07562549                0.99999999               -0.43494895               -0.05227595                0.17325175               -0.31508989                0.45165099                0.00033532
              10.00030149                9.99904522               44.07559101                1.00000000               -0.05173258               -0.05180940                0.17182036                0.00054486                0.00039089               -0.00038113
              -0.01040930                0.00435656               45.03617497                0.99314795               -0.02257591               -0.02172667                0.06947917                0.00353872               -0.00195209                0.00305844
               0.98936494                0.00223836               45.03783193                0.99999999               -0.02513593               -0.02605503                0.08449585                0.00215513               -0.00424033               -0.00080141
               1.98908798                0.00013772               45.03948913                0.07652898               -0.02667838               -0.03088133                0.09943561               -0.00055584                0.02475834               -0.00195167
               2.98883137               -0.00200495               45.04173821                0.01000001               -0.02302039               -0.01929044                0.07146204                0.22900814               -0.00378414               -0.00581005
               3.98862757                0.00059286               45.04299096                0.01000002               -0.16730754                0.11842137                0.08813935                0.24177978               -0.03531171               -0.00484352
               4.98548522                0.00875920               45.04434103                0.01000000               -0.59055684                0.13739471                0.09264309                0.61010186               -0.01475662                0.00971551
               5.97681643                0.02429457               45.04599705                0.05423486               -0.45488460               -0.02549505                0.08295551                0.65905688                0.01974496               -0.00355244
               6.97638753                0.02684101               45.04836013                0.97873311               -0.03646170               -0.02972484                0.09627495                0.01688136                0.03045671               -0.00850388
               7.97608720                0.02908424               45.05029632                1.00000000               -0.03204395               -0.03177503                0.10657489                0.00130201                0.00779023                0.00063418
               8.97574665                0.03133885               45.05227622                1.00000000               -0.03531728               -0.03505437                0.11610632                0.00182507                0.00704971                0.00104466
               9.97538085                0.03359157               45.05421615                1.00000000               -0.03657943               -0.03829641                0.12629481                0.00128215                0.00498362                0.00482553
              -0.00825572                1.00413929               45.03629589                0.97061567               -0.02483737               -0.02232544                0.07471425                0.00109286                0.00128997                0.00464344
               0.99149591                1.00197781               45.03795551                0.21206918               -0.02701038               -0.02692123                0.08980179               -0.00011687                0.00387612               -0.00330659
               1.99120407                0.99982891               45.03966275                0.01000000               -0.03010135               -0.03144134                0.10497619                0.00647225                0.03774181                0.00417953
               2.99089388                0.99780215               45.04200104                0.01000001               -0.27703914                0.02590959                0.07489079                0.16966569                0.00207942               -0.01614797
               3.98566329                1.00177707               45.04309083                0.01000000               -0.55792502                0.09734142                0.09491101                0.50693891               -0.05650580                0.00551260
               4.97973538                1.01013315               45.04434187                0.01000000               -0.56485963                0.05986848                0.09845552                0.92454533               -0.06741520                0.02522605
               5.97436610                1.02403962               45.04540476                0.01000001               -0.27869380               -0.31158227                0.08647411                0.86905043               -0.03087096                0.04540605
               6.97416150                1.02654376               45.04760221                0.98843676               -0.02574003               -0.02929648                0.09719998                0.01497146                0.01305810               -0.00511627
               7.97385130                1.02876649               45.04953278                0.99999999               -0.03251350               -0.03213269                0.10774639                0.00039864                0.00074361                0.00005197
               8.97351123                1.03098831               45.05147895                0.99999999               -0.03551717               -0.03538159                0.11811187                0.00022419                0.00112531                0.00106551
               9.97314095                1.03320861               45.05341557                0.99999999               -0.03702800               -0.03864979                0.12848575               -0.00034366                0.00053316                0.00619032
              -0.00606448                2.00391005               45.03642210                0.01000000               -0.02625315                0.01532464                0.08005507                0.04688734                0.00248793                0.09957957
               0.99367299                2.00169994               45.03803036                0.01000000               -0.02712153               -0.10824423                0.09467995                0.04808084                0.01806022                0.07702060
               1.99339309                1.99950889               45.03996066                0.01000001               -0.16982345               -0.12168290                0.09003988                0.09933503                0.03399170                0.05522231
               2.99027652                1.99851324               45.04190512                0.01000000               -0.34788713               -0.00237305                0.10239021                0.33919034                0.01232488                0.00697744
               3.98643534                2.00253969               45.04338203                0.01000000               -0.42814703               -0.01323771                0.10499899                0.85609521               -0.03241240                0.03052338
               4.98171358                2.00995657               45.04458087                0.01000001               -0.43242567               -0.11578940                0.10820235                1.16507160               -0.05393904                0.05514585
               5.97778683                2.01806293               45.04581908                0.01000000               -0.48767458               -0.43516678                0.10778883                1.25148148               -0.07167696                0.08932233
               6.97196008                2.02625508               45.04682981                0.01000000               -0.30681028               -0.24878529                0.09821404                0.73816472               -0.04983189                0.07119142
               7.97165062                2.02844159               45.04876424                0.16288166               -0.03255334               -0.03258003                0.10899030                0.00137960               -0.00472168                0.00347982
               8.97130902                2.03063122               45.05067919                0.99999999               -0.03586222               -0.03596336                0.12037154                0.00049632               -0.00321029               -0.00079270
               9.97093338                2.03281858               45.05264229                1.00000000               -0.03756370               -0.03936273                0.13056795               -0.00032706               -0.00091158                0.00616931
              -0.00289774                3.00444579               45.03843887                0.01000000               -0.02435747                0.04335674                0.07777802                0.05925122               -0.00310410                0.20402753
               0.99685868                2.99981293               45.03976806                0.01000001               -0.03623943               -0.22614358                0.09191167                0.18785277               -0.00123342                0.15264299
               1.99637747                2.99739525               45.04114588                0.01000000               -0.11058946               -0.25973819                0.10419857                0.43573506                0.00538122                0.09835860
               2.99464689                2.99775469               45.04257846                0.01000000               -0.25178016               -0.15856307                0.11045544                0.81245384                0.00086290                0.05630912
               3.99134186                3.00151232               45.04393155                0.01000001               -0.35666599               -0.16259283                0.11612855                1.15269213               -0.01453666                0.05614811
               4.98751357                3.00781736               45.04519742                0.01000000               -0.41223218               -0.23586678                0.11879644                1.39746462               -0.03127051                0.08308973
               5.98309722                3.01533629               45.04639805                0.01000001               -0.44837185               -0.30613070                0.11851765                1.40755130               -0.04640732                0.11605282
               6.97854614                3.02156806               45.04757837                0.01000001               -0.67972355               -0.38537322                0.11785989                1.46323934               -0.09259195                0.15513443
               7.96950275                3.02811489               45.04807223                0.01000001               -0.47009803               -0.28484472                0.11589975                1.18033820               -0.08724168                0.15017770
               8.96914418                3.03026904               45.04984749                0.01000001               -0.03715248               -0.35390728                0.12315288                0.90400362               -0.01238802                0.13034837
               9.96875970                3.03242135               45.05184343                0.89000293               -0.03844746               -0.78680573                0.13275183                1.05810946               -0.00168558                0.10648807
               0.00438626                4.00477719               45.04048714                0.01000000                0.00943178               -0.05345526                0.07561779                0.24882251               -0.00601556                0.22041743
               1.00448058                3.99717707               45.04144837                0.01000000               -0.01101159               -0.33494230                0.09295508                0.51421544               -0.00244149                0.14666044
               2.00416603                3.99431413               45.04244320                0.01000000               -0.10360276               -0.33050308                0.10749333                0.90119409                0.00448817                0.09475886
               3.00240852                3.99534198               45.04355256                0.01000002               -0.23697593               -0.26886512                0.11760712                1.16476306                0.01133011                0.06709548
               3.99942651                3.99928783               45.04478548                0.01000000               -0.32848111               -0.25472593                0.12374409                1.40265032                0.01417111                0.07216609
               4.99583890                4.00523924               45.04611740                0.01000001               -0.36196731               -0.28093340                0.12713703                1.54499852                0.01275776                0.10315309
               5.99218716                4.01194031               45.04750123                0.01000001               -0.36963178               -0.34601081                0.12868163                1.62450177                0.00439681                0.15055042
               6.98844626                4.01854762               45.04883696                0.01000008               -0.28153798               -0.39165694                0.12934527                1.60315518               -0.00355939                0.20356211
               7.98655640                4.02274470               45.05023269                0.01000001               -0.16818174               -0.55767875                0.13144967                1.70376946               -0.00128596                0.27995436
               8.98508263                4.02355307               45.05167473                0.01000000                0.06172706               -0.68443352                0.13628226                1.21735826               -0.00279700                0.26835348
               9.98779095                4.01708246               45.05308172                0.01000001                0.27083150               -1.11293406                0.14362878                0.92772861                0.00686984                0.19893285
               0.01727895                5.00337668               45.04279151                0.01000003                0.03270989               -0.49022873                0.07394838                0.65934180               -0.00645780                0.25774071
               1.01760605                4.99311408               45.04324174                0.01000000               -0.05212573               -0.36097145                0.09283795                1.03752135                0.00165851                0.15633699
               2.01623643                4.99078519               45.04377414                0.01000001               -0.23187976               -0.29242851                0.10983885                1.22335136                0.01424899                0.07679581
               3.01296845                4.99237738               45.04458296                0.01000000               -0.33694092               -0.31024675                0.12207674                1.40596355                0.03613154                0.05749341
               4.00949762                4.99641780               45.04578744                0.01000001               -0.36036951               -0.28786813                0.12913280                1.52886090                0.06006435                0.07040127
               5.00576106                5.00219870               45.04728468                0.01000001               -0.36093683               -0.29757881                0.13344758                1.59550150                0.07539990                0.11182835
               6.00227888                5.00841607               45.04897947                0.01000001               -0.29781023               -0.34702606                0.13640645                1.54969402                0.08261996                0.17186898
               6.99980486                5.01373492               45.05076448                0.01000000               -0.18530988               -0.46366537                0.13915248                1.44125601                0.08135069                0.24068431
               7.99857268                5.01696132               45.05251190                0.01000000               -0.03256409               -0.56517585                0.14269563                1.19193338                0.06868794                0.29476392
               8.99915358                5.01658037               45.05405786                0.01000000                0.08414087               -0.62668581                0.14759003                0.79881701                0.04233943                0.30953293
              10.00025550                5.01016267               45.05519555                0.01000001                0.11019233               -0.48760588                0.15389054                0.38706072                0.02772959                0.26148558
               0.03809830                5.99497261               45.04572576                0.08213091               -0.02757981               -0.43182653                0.07508313                0.79278287               -0.00560056                0.17064003
               1.03782250                5.98995764               45.04540425                0.01000001               -0.43642720               -0.16946654                0.08897920                0.93789516               -0.01428678                0.10601578
               2.02936975                5.98846556               45.04492695                0.01000000               -0.64636591               -0.30281145                0.11237754                1.27463081                0.00321731                0.05128828
               3.02489518                5.98913705               45.04553292                0.01000001               -0.45936679               -0.30702400                0.12407624                1.37683515                0.07243520                0.02619861
               4.02018242                5.99353047               45.04676866                0.01000001               -0.45722599               -0.28863873                0.13252271                1.56328662                0.11768379                0.05025139
               5.01575066                5.99928766               45.04855818                0.01000001               -0.42687973               -0.23921346                0.13831562                1.50611601                0.15384111                0.10825003
               6.01164482                6.00499979               45.05072517                0.01000000               -0.35122612               -0.28394340                0.14226633                1.32332612                0.17448959                0.17997269
               7.00872614                6.00927431               45.05306778                0.01000000               -0.20476018               -0.38937566                0.14670856                1.05188739                0.17631408                0.26265669
               8.00754962                6.01144118               45.05533925                0.01000000               -0.04342605               -0.50050262                0.15161192                0.76000717                0.15128518                0.33918673
               9.00785762                6.01101936               45.05717502                0.01000001                0.04089691               -0.49583178                0.15684381                0.41486278                0.09151152                0.38312809
              10.00836756                6.00733034               45.05819311                0.01000000                0.05099395               -0.19958305                0.16214840                0.19741731                0.05366102                0.35812221
               0.04316456                6.99474015               45.04695164                0.96328541               -0.02935533               -0.02566058                0.09091044                0.00367835               -0.01415756                0.05033347
               1.04287100                6.98972475               45.04640199                0.95668541               -0.03074580               -0.02746716                0.10231437                0.00319232               -0.01274729                0.02624948
               2.04254964                6.98472896               45.04584623                0.01000000               -0.37153786               -0.20446209                0.11345532                0.73493496                0.02732604                0.01092330
               3.03544025                6.98623690               45.04609887                0.01000001               -0.59684533               -0.48494452                0.12420953                1.40649235                0.10367402               -0.06192929
               4.03061273                6.99064503               45.04751236                0.01000001               -0.55130931               -0.18985829                0.14075332                1.48475484                0.18917620                0.02790192
               5.02441406                6.99741443               45.04982180                0.01000000               -0.59269893               -0.11037644                0.14158766                1.34451942                0.24432323                0.09652227
               6.01875875                7.00273720               45.05257440                0.01000000               -0.50064202               -0.13067594                0.14704439                0.99102564                0.27729496                0.17230782
               7.01440122                7.00594740               45.05570059                0.01000000               -0.33654896               -0.23200053                0.15278570                0.59913980                0.29149566                0.26959312
               8.01202778                7.00695127               45.05882619                0.01000001               -0.14197760               -0.37137817                0.15878526                0.24175994                0.26081595                0.40372566
               9.01156167                7.00666373               45.06135907                0.01000002               -0.02229508               -0.41122664                0.16435477                0.04586336                0.16017042                0.50048274
              10.01158187                7.00617101               45.06245304                0.01000001                0.00202071               -0.11335808                0.16850246               -0.01102745                0.08850199                0.53249633
               0.04820266                7.99445940               45.04749128                1.00000000               -0.03051274               -0.02900752                0.09680347                0.00073944               -0.00168834                0.01970138
               1.04789754                7.98940829               45.04692847                0.99999999               -0.03231830               -0.03250658                0.10803358                0.00020272               -0.00193323                0.00373382
               2.04755630                7.98437632               45.04636623                0.14985955               -0.03942887               -0.03620453                0.11988132                0.00400067               -0.02776208               -0.01209321
               3.04710896                7.97943816               45.04529645                0.01000001               -0.44281533               -0.36428545                0.21079364                1.10603098                0.12163491               -0.06185354
               4.03869999                7.98973330               45.04815796                0.01000000               -0.82800436               -0.04535248                0.13901619                1.49616746                0.30795033                0.01420125
               5.03054887                7.99708013               45.05097350                0.01000000               -0.78838173                0.07459552                0.14658097                1.04915318                0.32470401                0.07587447
               6.02293236                8.00238627               45.05431272                0.01000000               -0.70270003                0.05680755                0.15221026                0.63958582                0.37515945                0.14314719
               7.01649487                8.00463430               45.05833335                0.01000001               -0.56319353               -0.01547169                0.15830092                0.17584323                0.44353595                0.23803605
               8.01166849                8.00401362               45.06316225                0.01000002               -0.34698660               -0.14236902                0.16483431               -0.26803527                0.43199786                0.39676863
               9.00955514                8.00279483               45.06700701                0.01000001               -0.12680154               -0.32092180                0.17027823               -0.51479830                0.28871048                0.80743708
              10.00913246                8.00506318               45.06898082                0.01000000               -0.04226839               -0.32901484                0.17315547               -0.36766408                0.19339455                0.74180160
               0.05328156                8.99416000               45.04811499                1.00000000               -0.03234188               -0.03070397                0.10227097                0.00097536                0.00278978                0.01899506
               1.05295814                8.98907462               45.04748190                0.99999999               -0.03408840               -0.03420550                0.11374827               -0.00004307                0.00231669                0.00328727
               2.05259979                8.98400487               45.04683782                0.99999999               -0.03771301               -0.03784370                0.12592238               -0.00015061               -0.00336457               -0.00862790
               3.05220388                8.97895120               45.04609997                0.01000000               -0.48528419               -0.04546222                0.13867630                0.79458405                0.15899425                0.00085348
               4.04289411                8.98973798               45.04872357                0.01000000               -0.97298632                0.19917919                0.15395607                1.05618842                0.33289305                0.00683632
               5.03274415                8.99890634               45.05186124                0.01000000               -0.94489000                0.22369410                0.15495354                0.65729169                0.37353194                0.04410973
               6.02399631                9.00387335               45.05563230                0.01000001               -0.82267056                0.18705577                0.15953749                0.30268533                0.44560972                0.08534080
               7.01629074                9.00563797               45.06042795                0.01000002               -0.77448817                0.14899978                0.16447805               -0.02114335                0.56038506                0.14486649
               8.00850654                9.00410389               45.06662674                0.01000003               -0.80373035                0.13474793                0.16963244               -0.39914109                0.85543529                0.26599056
               9.00021613                9.00024530               45.07740077                0.99999997               -0.44073321               -0.15365316                0.17542029               -0.66023024                0.54078794                0.52218024
               9.99969188                8.99959071               45.07735059                1.00000000               -0.05242558               -0.29949438                0.17369441               -0.50473068               -0.00042121                0.42020110
               0.05839293                9.99384532               45.04864146                1.00000000               -0.03411270               -0.03146792                0.10785470               -0.00097605                0.01403320                0.01433204
               1.05805181                9.98872418               45.04800110                1.00000000               -0.03581124               -0.03504349                0.11939620               -0.00192700                0.01809232                0.00143644
               2.05767671                9.98361944               45.04744006                0.99999999               -0.03921380               -0.03854240                0.13073508               -0.00207159                0.01826726               -0.00264371
               3.05726753                9.97852891               45.04680695                0.80407480               -0.89040456               -0.04222825                0.14195864                1.01123744                0.16842522               -0.00497675
               4.03986862                9.99371689               45.04925855                0.01000001               -1.38541015                0.39789108                0.15892606                0.84870637                0.31684040                0.01280396
               5.02955933               10.00155402               45.05233052                0.01000000               -0.88070941                0.26476786                0.16715767                0.30204268                0.36788873                0.02697052
               6.02225443               10.00612739               45.05618395                0.01000000               -0.68589276                0.22540350                0.17006115                0.12882633                0.45645236                0.04957728
               7.01584147               10.00761429               45.06120330                0.01000001               -0.65880472                0.19763236                0.17249937               -0.01586755                0.61890763                0.08009461
               8.00907834               10.00670857               45.06837861                0.01000000               -0.74888834                0.26046888                0.17451720               -0.33744726                0.81505772                0.18095687
               9.00086371                9.99972176               45.07735811                1.00000000               -0.43656621               -0.05235369                0.17325706               -0.31700679                0.45184260                0.00036182
              10.00034701                9.99907329               45.07730767                1.00000000               -0.05166948               -0.05174196                0.17152869                0.00066655                0.00036582               -0.00040952
              -0.01213592                0.00422853               46.03686755                0.99366443               -0.02775649               -0.01890787                0.06908227                0.00064817               -0.00569205                0.00571675
               0.98758652                0.00208299               46.03868047                0.99999999               -0.02813595               -0.02617730                0.08473526                0.00305988               -0.00609083               -0.00124269
               1.98730136               -0.00008734               46.04048463                0.08031211               -0.03065032               -0.03081317                0.09950017               -0.00285523               -0.00154990               -0.00274483
               2.98697351               -0.00233907               46.04238780                0.01000000               -0.01950830               -0.01209178                0.06217324                0.23987593               -0.01964615               -0.00337326
               3.98691120                0.00044046               46.04384854                0.01000002               -0.15989663                0.11826421                0.08493464                0.25413352               -0.03325976                0.00071384
               4.98377558                0.00884543               46.04525255                0.01000003               -0.59757291                0.14042784                0.09113038                0.62700496               -0.02780390                0.01384167
               5.97495974                0.02484436               46.04682023                0.04804316               -0.46248726               -0.02920712                0.08194420                0.67337913                0.01254500               -0.00374786
               6.97452583                0.02746331               46.04932306                0.97723145               -0.04042189               -0.02075026                0.09604723                0.01491011                0.02658017               -0.00304442
               7.97415130                0.02985723               46.05136865                1.00000000               -0.03629515               -0.03279516                0.10693832                0.00502898                0.00496545               -0.00028166
               8.97379993                0.03213602               46.05343630                1.00000000               -0.03582331               -0.03476770                0.11568195                0.00134339                0.00496868                0.00108978
               9.97343484                0.03442748               46.05547831                1.00000000               -0.03650949               -0.03827855                0.12579880                0.00133477                0.00391673                0.00423866
              -0.00998390                1.00403945               46.03704285                0.97090789               -0.02410528               -0.02074290                0.07467786               -0.00092553                0.00149931                0.00634229
               0.98977505                1.00182121               46.03885690                0.19918703               -0.02661311               -0.02730963                0.09011933               -0.00047107                0.00378453               -0.00369639
               1.98948384                0.99960453               46.04071646                0.01000000               -0.03333392               -0.03096394                0.10540459                0.00634627                0.01158851               -0.01212289
               2.98910837                0.99754001               46.04268641                0.01000001               -0.28117790                0.03066509                0.06568731                0.18258522               -0.01632354               -0.00192008
               3.98386028                1.00162310               46.04403024                0.01000000               -0.56323471                0.09809041                0.09405606                0.52502187               -0.05435289                0.01203617
               4.97784368                1.01024971               46.04531905                0.01000000               -0.57378455                0.06045227                0.09892672                0.95218925               -0.08367256                0.02967507
               5.97238459                1.02455229               46.04626074                0.01000001               -0.28375883               -0.32028773                0.08562159                0.89650039               -0.04462817                0.05650532
               6.97216850                1.02725581               46.04856534                0.98221619               -0.02596780               -0.02419913                0.09666380                0.01973916                0.01386387               -0.00298753
               7.97186524                1.02952928               46.05061013                0.99999999               -0.03201314               -0.03285303                0.10791213                0.00052104                0.00106066               -0.00017123
               8.97152824                1.03178834               46.05266093                0.99999999               -0.03542561               -0.03532521                0.11819532                0.00016052                0.00082513                0.00118107
               9.97115672                1.03404469               46.05470156                1.00000000               -0.03715145               -0.03867117                0.12852124               -0.00054835                0.00034753                0.00567753
              -0.00771796                2.00381367               46.03722992                0.01000000               -0.02700212                0.01928909                0.08085603                0.05481266                0.00258637                0.09690497
               0.99201202                2.00153679               46.03898371                0.01000000               -0.02862726               -0.11081122                0.09555385                0.05606956                0.00369539                0.07306586
               1.99170949                1.99929338               46.04076000                0.01000001               -0.17026862               -0.12503111                0.09137963                0.11001304                0.02466586                0.04953360
               2.98860664                1.99827423               46.04295888                0.01000000               -0.35037770               -0.00347885                0.10459340                0.35909642                0.00843862                0.02335729
               3.98470194                2.00240227               46.04443331                0.01000000               -0.43582344               -0.01392505                0.10677052                0.88651454               -0.04501671                0.03767108
               4.97989017                2.01005448               46.04566983                0.01000001               -0.44091442               -0.12000554                0.11072427                1.20447148               -0.06584222                0.06104043
               5.97588365                2.01843860               46.04690183                0.01000000               -0.49732729               -0.44618591                0.11008416                1.29592357               -0.08909446                0.10174561
               6.96994363                2.02697933               46.04780910                0.01000000               -0.31272323               -0.25783459                0.09885125                0.76592048               -0.05888712                0.08237109
               7.96962919                2.02920017               46.04985293                0.17227661               -0.03279537               -0.03269916                0.10949388                0.00168034               -0.00297916                0.00680056
               8.96928772                2.03142952               46.05188555                1.00000000               -0.03590097               -0.03617915                0.12096129                0.00065364               -0.00213933               -0.00021766
               9.96891117                2.03365406               46.05395071                0.99999999               -0.03765560               -0.03952873                0.13109559               -0.00042117               -0.00067371                0.00570739
              -0.00433390                3.00442523               46.03921618                0.01000000               -0.02493735                0.04799820                0.07804358                0.06790946               -0.00447980                0.19509781
               0.99541673                2.99960499               46.04069562                0.01000001               -0.03597185               -0.23286894                0.09473403                0.20300407               -0.00281449                0.14756089
               1.99494666                2.99710390               46.04222227                0.01000000               -0.11176569               -0.26857943                0.10817964                0.46139124               -0.00262744                0.10742901
               2.99318141                2.99747043               46.04369858                0.01000000               -0.25681681               -0.16461805                0.11493174                0.84494243               -0.01137798                0.05916765
               3.98981033                3.00134460               46.04511213                0.01000001               -0.36423235               -0.16770527                0.12036356                1.19416307               -0.02667278                0.06080060
               4.98589677                3.00784960               46.04640057                0.01000000               -0.42160583               -0.24321201                0.12260370                1.44655497               -0.04509317                0.08637693
               5.98137821                3.01562857               46.04759525                0.01000001               -0.45857097               -0.31587344                0.12160400                1.45869948               -0.06058767                0.12075765
               6.97672535                3.02209911               46.04876429                0.01000001               -0.69647800               -0.40074001                0.11970252                1.51463953               -0.10587103                0.16762451
               7.96744865                3.02887529               46.04923785                0.01000001               -0.48189639               -0.29463663                0.11682234                1.22062774               -0.09407228                0.16027593
               8.96708742                3.03106476               46.05108440                0.01000001               -0.03747167               -0.36564124                0.12437592                0.93388578               -0.01342992                0.13623940
               9.96669922                3.03325412               46.05317575                0.92303391               -0.03882017               -0.81383786                0.13381595                1.09393575               -0.00157984                0.11040593
               0.00328070                4.00477363               46.04123422                0.01000000                0.01127172               -0.05595818                0.07390331                0.26110220               -0.00665289                0.21060037
               1.00339342                3.99687942               46.04239136                0.01000000               -0.01044158               -0.34691122                0.09688607                0.53886922               -0.00541174                0.14237659
               2.00307187                3.99392179               46.04354146                0.01000000               -0.10643112               -0.34121513                0.11395366                0.93882696               -0.00312942                0.09303084
               3.00126480                3.99498187               46.04475625                0.01000001               -0.24329180               -0.27725811                0.12398057                1.20908783               -0.00020166                0.06860495
               3.99820604                3.99904816               46.04604702                0.01000000               -0.33637480               -0.26295123                0.12906961                1.45343072                0.00089966                0.07190504
               4.99453730                4.00519024               46.04740770                0.01000001               -0.36989568               -0.28996142                0.13134772                1.60146013               -0.00052996                0.10242527
               5.99080812                4.01212114               46.04880213                0.01000001               -0.37738029               -0.35739272                0.13187345                1.68529486               -0.00808659                0.15180040
               6.98698970                4.01896453               46.05014042                0.01000047               -0.28660144               -0.40529600                0.13162732                1.66331290               -0.01379303                0.20842456
               7.98507609                4.02330743               46.05155443                0.01000004               -0.17015436               -0.57719241                0.13316252                1.76380368               -0.00769895                0.28964389
               8.98358661                4.02411669               46.05304430                0.01000000                0.06675336               -0.70795939                0.13784186                1.25903609               -0.00535889                0.27740032
               9.98641116                4.01737730               46.05452393                0.01000001                0.28245512               -1.15277907                0.14510977                0.95907235                0.00594940                0.20555119
               0.01667658                5.00330606               46.04351120                0.01000003                0.03693752               -0.50990080                0.06862964                0.68673409               -0.00729859                0.25101875
               1.01704595                4.99266677               46.04417822                0.01000000               -0.05279138               -0.37366997                0.09606012                1.07894964               -0.00026716                0.14726514
               2.01562075                4.99027960               46.04490013                0.01000001               -0.24045751               -0.30112313                0.11742811                1.27210569                0.00853776                0.07343073
               3.01223680                4.99192527               46.04583914                0.01000000               -0.34750862               -0.32017755                0.12947839                1.45834739                0.02488082                0.05228012
               4.00867058                4.99608557               46.04710194                0.01000001               -0.36919042               -0.29706511                0.13469460                1.58503677                0.04718947                0.06527162
               5.00485299                5.00205037               46.04863634                0.01000001               -0.36803795               -0.30733149                0.13718271                1.65586376                0.06416023                0.10663570
               6.00130982                5.00848072               46.05035570                0.01000000               -0.30238433               -0.35848364                0.13903315                1.61141447                0.07358029                0.16863651
               6.99880531                5.01399319               46.05216521                0.01000000               -0.18686292               -0.47858402                0.14121630                1.50052833                0.07494521                0.24140710
               7.99757256                5.01733144               46.05394686                0.01000000               -0.03035155               -0.58299808                0.14456740                1.24089094                0.06493082                0.29924019
               8.99819828                5.01690557               46.05554143                0.01000000                0.08934444               -0.64691380                0.14943369                0.83002857                0.04070249                0.31536533
               9.99935945                5.01019854               46.05674097                0.01000000                0.11611722               -0.50596983                0.15557867                0.40170529                0.02697301                0.26563842
               0.03829398                5.99457562               46.04645491                0.06553329               -0.02951081               -0.44845768                0.06904859                0.82379544               -0.00870268                0.17718484
               1.03799888                5.98940602               46.04629122                0.01000001               -0.45192526               -0.17357676                0.08890226                0.97577247               -0.01211433                0.10104463
               2.02925548                5.98789933               46.04607241                0.01000000               -0.66865506               -0.30949060                0.11964829                1.32348144                0.00050799                0.04438083
               3.02462578                5.98857832               46.04677354                0.01000001               -0.47369024               -0.31612504                0.13168350                1.42683101                0.06419493                0.01838606
               4.01978167                5.99310686               46.04811385                0.01000001               -0.46831695               -0.29719440                0.13692582                1.62066933                0.11041594                0.04095852
               5.01525944                5.99904361               46.04995145                0.01000000               -0.43440438               -0.24706831                0.14051029                1.56453880                0.14683482                0.09820613
               6.01109359                6.00495146               46.05215399                0.01000000               -0.35549507               -0.29360722                0.14355597                1.38038088                0.17014900                0.17257297
               7.00814953                6.00939285               46.05454023                0.01000000               -0.20560263               -0.40136514                0.14791470                1.10323762                0.17481140                0.25956537
               8.00698153                6.01164747               46.05686168                0.01000000               -0.04147242               -0.51416993                0.15309264                0.80040206                0.15143989                0.34034609
               9.00732009                6.01117842               46.05875066                0.01000001                0.04388999               -0.50855498                0.15858809                0.43748525                0.09203852                0.38650604
              10.00785933                6.00725790               46.05982042                0.01000000                0.05392476               -0.20583039                0.16372685                0.20782009                0.05381122                0.35983521
               0.04349168                6.99433691               46.04786037                0.95462936               -0.02539958               -0.02654485                0.09124371                0.00588496               -0.01179048                0.05554986
               1.04323769                6.98919523               46.04742579                0.94479918               -0.02868041               -0.02649573                0.10296315                0.00683706               -0.01208591                0.03055849
               2.04291808                6.98408979               46.04699128                0.01000000               -0.38358975               -0.20833445                0.11509114                0.75953807                0.03110795                0.00831107
               3.03556589                6.98560277               46.04742766                0.01000001               -0.61496993               -0.49505544                0.12731578                1.45116558                0.10284547               -0.05755461
               4.03061868                6.99014169               46.04891788                0.01000000               -0.56333644               -0.19443091                0.14203754                1.53544650                0.18759290                0.01539203
               5.02429916                6.99710900               46.05123897                0.01000000               -0.60252408               -0.11428472                0.14125733                1.39580183                0.24211949                0.08274530
               6.01856820                7.00260857               46.05404123                0.01000000               -0.50625572               -0.13618465                0.14635548                1.03782591                0.27887810                0.16252741
               7.01417405                7.00596589               46.05722814                0.01000000               -0.33865822               -0.23945365                0.15264291                0.63967702                0.29552106                0.26390118
               8.01179503                7.00704805               46.06041677                0.01000001               -0.14182496               -0.37963737                0.15949424                0.27206642                0.26544071                0.40306696
               9.01133755                7.00673447               46.06300806                0.01000002               -0.02190784               -0.41687325                0.16568622                0.06238166                0.16328966                0.50278485
              10.01135687                7.00608193               46.06414231                0.01000001                0.00193235               -0.11164561                0.16971079               -0.00396071                0.08978694                0.53340035
               0.04869505                7.99404472               46.04845841                1.00000000               -0.03123072               -0.02961204                0.09680905                0.00275056               -0.00184328                0.01904663
               1.04838274                7.98887610               46.04801330                0.99999999               -0.03281732               -0.03259986                0.10875695                0.00060501               -0.00187771                0.00413167
               2.04803870                7.98373264               46.04757166                0.15372739               -0.03927736               -0.03666422                0.12139275                0.00417327                0.00167407               -0.01130470
               3.04759719                7.97867721               46.04720595                0.01000001               -0.45271632               -0.37077191                0.20367564                1.13586265                0.15502081               -0.09426122
               4.03898437                7.98921824               46.04961457                0.01000006               -0.84443021               -0.04541594                0.13590435                1.53896259                0.29622463                0.01131019
               5.03070859                7.99675791               46.05240599                0.01000000               -0.79955782                0.07528196                0.14419266                1.08621341                0.32662565                0.06566470
               6.02299322                8.00222777               46.05583016                0.01000000               -0.71024934                0.05610822                0.14919313                0.67200431                0.38257722                0.13348239
               7.01650360                8.00460377               46.05990887                0.01000001               -0.56694678               -0.01810218                0.15674703                0.20266082                0.45161764                0.23179661
               8.01165428                8.00405473               46.06480977                0.01000002               -0.34848831               -0.14578943                0.16467070               -0.24872620                0.44031989                0.39545715
               9.00953383                8.00284095               46.06871279                0.01000004               -0.12845389               -0.32163330                0.17102222               -0.50485628                0.29391072                0.81087839
              10.00908520                8.00502499               46.07071490                0.01000000               -0.04486310               -0.32207242                0.17386123               -0.36210774                0.19507765                0.74257744
               0.05388393                8.99374467               46.04913433                1.00000000               -0.03220613               -0.03062083                0.10165585                0.00081481                0.00280228                0.01839072
               1.05356187                8.98854323               46.04862254                0.99999999               -0.03417478               -0.03423411                0.11422782                0.00013130                0.00256493                0.00329813
               2.05320043                8.98335651               46.04810626                0.99999999               -0.03821605               -0.03829297                0.12761200                0.00004243               -0.00226216               -0.00801277
               3.05279755                8.97818733               46.04750178                0.01000001               -0.49416025               -0.04608049                0.14188533                0.81298239                0.16278630               -0.02601417
               4.04331723                8.98923337               46.05028917                0.01000000               -0.98918221                0.20282839                0.15411552                1.08415415                0.33632431                0.00703954
               5.03301390                8.99861464               46.05340686                0.01000000               -0.95774039                0.22710931                0.15217435                0.67745582                0.37454594                0.04197852
               6.02416242                9.00373074               46.05721872                0.01000001               -0.83067954                0.18929853                0.15564291                0.31837187                0.45265664                0.07888004
               7.01640031                9.00560385               46.06206502                0.01000002               -0.77895454                0.14944727                0.16245742               -0.00882210                0.56883241                0.14061611
               8.00858333                9.00413226               46.06831949                0.01000001               -0.80650760                0.13443974                0.16898313               -0.39047553                0.86414447                0.26514654
               9.00027016                9.00030181               46.07915639                1.00000000               -0.44183459               -0.15309309                0.17562242               -0.65495006                0.54489151                0.52587671
               9.99974664                8.99964048               46.07908736                0.99999998               -0.05235216               -0.29510649                0.17366407               -0.49990851               -0.00042083                0.42149027
               0.05911422                9.99343230               46.04971565                1.00000000               -0.03406876               -0.03123687                0.10695206               -0.00105946                0.01366604                0.01394236
               1.05877353                9.98819142               46.04919641                0.99999999               -0.03593845               -0.03518136                0.11969599               -0.00210993                0.01762511                0.00142040
               2.05839545                9.98296678               46.04875490                0.99999999               -0.03967755               -0.03897256                0.13223246               -0.00228953                0.01744494               -0.00261905
               3.05797998                9.97775560               46.04824053                0.86152593               -0.90776503               -0.04317332                0.14452289                1.03364449                0.17027536               -0.00464771
               4.04024015                9.99327481               46.05087362                0.01000001               -1.41098216                0.40414405                0.16703373                0.86951672                0.32521756                0.00765560
               5.02976033               10.00130010               46.05402219                0.01000002               -0.89343494                0.26854550                0.17040198                0.31158991                0.37115447                0.02706957
               6.02237145               10.00601374               46.05789128                0.01000000               -0.69173491                0.22830052                0.16969447                0.13553381                0.45971666                0.04655192
               7.01592564               10.00759272               46.06292950                0.01000001               -0.66123186                0.19888701                0.17247643               -0.01097852                0.62122955                0.07777312
               8.00914681               10.00674352               46.07012404                0.01000000               -0.74995148                0.26112631                0.17466102               -0.33433335                0.81478798                0.18096686
               9.00092661                9.99977909               46.07909063                0.99999998               -0.43685649               -0.05227186                0.17326541               -0.31538820                0.45216491                0.00038401
              10.00040968                9.99912286               46.07902158                1.00000000               -0.05169258               -0.05176215                0.17133224                0.00068161                0.00039816               -0.00039786
              -0.01414899                0.00412030               47.03755661                0.99230259               -0.02249718               -0.02165332                0.06932062                0.00354986               -0.00923148                0.00866021
               0.98562604                0.00186065               47.03952663                0.99999999               -0.02506808               -0.02600068                0.08433512                0.00213681               -0.00781842               -0.00148579
               1.98534965               -0.00038084               47.04147914                0.06844304               -0.02757543               -0.03080832                0.09928031               -0.00084623               -0.03055404               -0.00342139
               2.98507453               -0.00266963               47.04298167                0.01000000               -0.01260143               -0.01377017                0.06123670                0.24913894               -0.03264998                0.00008532
               3.98509762                0.00024374               47.04468966                0.01000002               -0.15585417                0.11892915                0.08593044                0.26322975               -0.02728610                0.00671300
               4.98195745                0.00890303               47.04616364                0.01000001               -0.60504037                0.14063427                0.09326860                0.64214027               -0.04006827                0.01797644
               5.97299682                0.02533859               47.04763593                0.04211916               -0.47933678               -0.02504667                0.08059731                0.69266970                0.00645038               -0.00586136
               6.97237071                0.02829557               47.05028107                0.97587845               -0.04617704               -0.02975924                0.09549425                0.03472058                0.02301516                0.00275459
               7.97207328                0.03059564               47.05243509                1.00000000               -0.03171809               -0.03168559                0.10550876                0.00115472                0.00227169               -0.00102348
               8.97173635                0.03291137               47.05458986                1.00000000               -0.03490634               -0.03486948                0.11479891                0.00170551                0.00296736                0.00108255
               9.97137515                0.03522985               47.05673213                1.00000000               -0.03612038               -0.03800871                0.12465292                0.00099768                0.00286007                0.00365671
              -0.01185384                1.00390377               47.03778944                0.98104872               -0.02481801               -0.02227446                0.07466597                0.00112018                0.00169539                0.00818070
               0.98789798                1.00160065               47.03975790                0.19037895               -0.02699145               -0.02690602                0.08964383               -0.00009643                0.00375793               -0.00378416
               1.98760633                0.99931108               47.04177084                0.01000000               -0.03221756               -0.03126977                0.10481918                0.00767983               -0.01733025               -0.01698564
               2.98725363                0.99719266               47.04331478                0.01000001               -0.28313724                0.03189259                0.06444760                0.19097041               -0.03047343                0.01295330
               3.98194359                1.00143303               47.04497195                0.01000000               -0.57111030                0.09837381                0.09638414                0.54215728               -0.04663153                0.02009228
               4.97583143                1.01030937               47.04632040                0.01000000               -0.58581722                0.05964160                0.10351726                0.98129249               -0.09933508                0.03326505
               5.97022724                1.02508813               47.04711719                0.01000001               -0.28710157               -0.32876327                0.08934198                0.92787266               -0.05922268                0.06642196
               6.97008939                1.02799797               47.04953549                0.97753649               -0.02251628               -0.02960046                0.09814472                0.03255980                0.01496870               -0.00051952
               7.96977692                1.03027879               47.05169102                0.99999999               -0.03265449               -0.03228834                0.10823373                0.00030121                0.00124085               -0.00024032
               8.96943630                1.03256268               47.05384286                0.99999999               -0.03551362               -0.03539881                0.11813650                0.00015353                0.00048292                0.00125231
               9.96906665                1.03484976               47.05598599                1.00000000               -0.03696577               -0.03856599                0.12817818               -0.00056967                0.00019988                0.00515807
              -0.00952033                2.00367482               47.03803922                0.01000000               -0.02628568                0.02198372                0.07997393                0.06015294                0.00277712                0.09449993
               0.99021681                2.00132253               47.03994144                0.01000000               -0.02842170               -0.11220780                0.09468726                0.06086373                0.00066938                0.07119264
               1.98991123                1.99899376               47.04178825                0.01000001               -0.17224121               -0.12743498                0.10060062                0.11806540                0.01607879                0.04504664
               2.98677198                1.99796822               47.04399699                0.01000000               -0.35435854               -0.00259965                0.10546083                0.37466431               -0.00389238                0.04523736
               3.98282406                2.00221122               47.04551744                0.01000000               -0.44218903               -0.01592061                0.11072024                0.91452358               -0.05501567                0.04609296
               4.97792820                2.01009586               47.04679535                0.01000001               -0.44791965               -0.12511733                0.11601407                1.24246372               -0.07756521                0.06562278
               5.97386567                2.01876333               47.04802077                0.01000000               -0.50484780               -0.46184892                0.11517631                1.34511017               -0.10767902                0.11301806
               6.96783125                2.02770356               47.04880684                0.01000000               -0.31755363               -0.27043744                0.10080519                0.79416358               -0.06902628                0.09364413
               7.96751460                2.02994988               47.05095412                0.18390951               -0.03313999               -0.03299423                0.11098805                0.00120543               -0.00158658                0.00953289
               8.96716845                2.03220340               47.05309842                0.99999999               -0.03625064               -0.03638017                0.12172413                0.00050120               -0.00121962                0.00035817
               9.96678958                2.03445853               47.05526420                0.99999999               -0.03788658               -0.03967553                0.13158063               -0.00054876               -0.00039165                0.00523518
              -0.00594621                3.00434345               47.03999975                0.01000002               -0.02574759                0.05096798                0.07968011                0.07426672               -0.00529584                0.18529086
               0.99379631                2.99935649               47.04166274                0.01000001               -0.03659137               -0.23902677                0.09921727                0.21336115               -0.00755261                0.14749920
               1.99332196                2.99676238               47.04330947                0.01000000               -0.11334227               -0.27484418                0.11223581                0.48057507               -0.01321667                0.11325164
               2.99152946                2.99714067               47.04487710                0.01000000               -0.26077707               -0.16973474                0.12001154                0.87395936               -0.02438684                0.06768366
               3.98810642                3.00111462               47.04633882                0.01000000               -0.37004381               -0.17375443                0.12528072                1.23176703               -0.04097991                0.06617313
               4.98412859                3.00780703               47.04764949                0.01000000               -0.42923318               -0.25219399                0.12772372                1.49407597               -0.06022774                0.08821485
               5.97952175                3.01585115               47.04883013                0.01000001               -0.46712359               -0.32737262                0.12597961                1.51046223               -0.07656235                0.12320148
               6.97478612                3.02258922               47.04997242                0.01000001               -0.71102824               -0.41941881                0.12252871                1.56773014               -0.12104487                0.17921917
               7.96530119                3.02961890               47.05040868                0.01000001               -0.49242204               -0.30606553                0.11682625                1.26149000               -0.10104861                0.17002644
               8.96493768                3.03183507               47.05233501                0.01000001               -0.03778933               -0.37796712                0.12585237                0.96374296               -0.01398020                0.14200438
               9.96454540                3.03405625               47.05451974                0.95580156               -0.03922739               -0.84151307                0.13509460                1.13017287               -0.00149560                0.11429323
               0.00193891                4.00469418               47.04196521                0.01000000                0.01261924               -0.05835399                0.07420975                0.27204003               -0.00977023                0.19732465
               1.00206510                3.99654200               47.04338609                0.01000000               -0.01001782               -0.35984809                0.10419856                0.56090836               -0.01320858                0.14319811
               2.00173855                3.99349688               47.04472227                0.01000000               -0.10830872               -0.35197643                0.12223672                0.97279174               -0.01788925                0.09971865
               2.99989893                3.99457352               47.04603217                0.01000001               -0.24727533               -0.28674860                0.13092823                1.24870233               -0.01863115                0.07322422
               3.99679305                3.99873613               47.04736687                0.01000000               -0.34128666               -0.27291097                0.13471389                1.50081257               -0.01701578                0.07238223
               4.99307319                4.00505198               47.04874435                0.01000001               -0.37501668               -0.30096815                0.13600571                1.65708321               -0.01671567                0.09979488
               5.98929271                4.01221588               47.05013869                0.01000001               -0.38275497               -0.37071070                0.13566788                1.74815253               -0.02248568                0.15057151
               6.98541810                4.01931518               47.05146950                0.01000002               -0.28970837               -0.42129875                0.13442917                1.72695885               -0.02517379                0.21169057
               7.98349855                4.02382857               47.05289594                0.01000004               -0.17060681               -0.59900140                0.13552916                1.82613833               -0.01455172                0.29904884
               8.98200596                4.02464405               47.05443157                0.01000000                0.07260679               -0.73268787                0.13992504                1.30177705               -0.00787536                0.28607642
               9.98495068                4.01762827               47.05598391                0.01000001                0.29447229               -1.19386527                0.14730949                0.99094549                0.00515858                0.21193252
               0.01579894                5.00317637               47.04416410                0.01000003                0.04128327               -0.52635194                0.06204028                0.71395189               -0.01424617                0.24162224
               1.01621177                4.99215953               47.04516294                0.01000000               -0.05263356               -0.39055189                0.10404857                1.12220423               -0.01090215                0.13836346
               2.01474627                4.98972285               47.04612270                0.01000001               -0.24737551               -0.31174226                0.12940641                1.32026045               -0.00892619                0.07523596
               3.01126426                4.99140570               47.04717253                0.01000000               -0.35510298               -0.33286365                0.13861408                1.50861324                0.00343947                0.05322845
               4.00764421                4.99565640               47.04848133                0.01000001               -0.37368790               -0.31012163                0.14048341                1.64008686                0.02764869                0.05942398
               5.00379050                5.00178766               47.05002834                0.01000001               -0.37113020               -0.32014172                0.14110006                1.71772783                0.04877868                0.09850993
               6.00022161                5.00843693               47.05176014                0.01000161               -0.30389513               -0.37250748                0.14193943                1.67709474                0.06279716                0.16193438
               6.99771260                5.01416325               47.05358881                0.01000000               -0.18632618               -0.49562462                0.14379611                1.56492623                0.06812578                0.23945141
               7.99649508                5.01763888               47.05540325                0.01000000               -0.02695435               -0.60251903                0.14706973                1.29437539                0.06132157                0.30218072
               8.99717351                5.01718132               47.05704654                0.01000000                0.09503991               -0.66806021                0.15202817                0.86368800                0.03929948                0.32040299
               9.99839588                5.01017895               47.05830712                0.01000000                0.12223650               -0.52512812                0.15824666                0.41744226                0.02633991                0.26908533
               0.03825162                5.99416714               47.04710673                0.04970766               -0.02889158               -0.46643591                0.05653606                0.85633125               -0.01939581                0.19435687
               1.03796271                5.98873096               47.04718229                0.01000001               -0.46770142               -0.17728447                0.09392628                1.01907543               -0.01809709                0.08979501
               2.02889759                5.98726203               47.04731992                0.01000000               -0.69125332               -0.31634566                0.13366263                1.38044744               -0.00727273                0.03641419
               3.02413764                5.98791625               47.04816659                0.01000001               -0.48423863               -0.33761484                0.14082176                1.47889726                0.04416315                0.00437731
               4.01921282                5.99253370               47.04950718                0.01000001               -0.47452113               -0.31021249                0.14249589                1.68209829                0.09155011                0.03067111
               5.01464722                5.99864915               47.05136838                0.01000002               -0.43768997               -0.25864323                0.14239624                1.62873163                0.13558864                0.08278309
               6.01045902                6.00476573               47.05359629                0.01000000               -0.35662693               -0.30626731                0.14513410                1.44395412                0.16504612                0.15981491
               7.00751468                6.00940269               47.05602608                0.01000000               -0.20455172               -0.41532300                0.14962486                1.16179753                0.17413021                0.25243077
               8.00636799                6.01177819               47.05840111                0.01000000               -0.03875152               -0.52871800                0.15523635                0.84708759                0.15270724                0.33911923
               9.00673965                6.01128285               47.06034678                0.01000001                0.04681392               -0.52120088                0.16111710                0.46379641                0.09333695                0.38855743
              10.00730427                6.00712571               47.06146765                0.01000000                0.05646174               -0.21172039                0.16640258                0.21994734                0.05432763                0.36041462
               0.04379792                6.99384765               47.04877651                0.94780983               -0.02995336               -0.03003802                0.09168986                0.01683895               -0.00951665                0.06476343
               1.04349838                6.98861384               47.04846125                0.93245965               -0.03139941               -0.02183923                0.10428408                0.01661554               -0.01151677                0.03537791
               2.04316993                6.98339593               47.04814806                0.01000000               -0.39639184               -0.21133985                0.11685165                0.77695499                0.02815953                0.00243426
               3.03557055                6.98465340               47.04864518                0.01000001               -0.63083256               -0.52187163                0.14496492                1.50425215                0.10013083               -0.02511341
               4.03055328                6.98945215               47.05035311                0.01000002               -0.57187201               -0.19727373                0.13764366                1.60865101                0.18222876               -0.00792848
               5.02413311                6.99661480               47.05264695                0.01000000               -0.61030652               -0.12118054                0.14122680                1.45390100                0.23621476                0.06210802
               6.01834715                7.00231159               47.05550151                0.01000000               -0.50985071               -0.14436509                0.14560189                1.09319938                0.28264231                0.14363813
               7.01393609                7.00585679               47.05875345                0.01000000               -0.33952374               -0.24846673                0.15301728                0.68929303                0.30252561                0.25287078
               8.01155667                7.00706452               47.06201607                0.01000000               -0.14170845               -0.38790734                0.16088928                0.31017414                0.27255722                0.39941675
               9.01110192                7.00675730               47.06467279                0.01000002               -0.02237804               -0.42093949                0.16774055                0.08343003                0.16778994                0.50347022
              10.01110911                7.00594454               47.06584725                0.01000000                0.00071882               -0.10780129                0.17192462                0.00500096                0.09172566                0.53304088
               0.04905602                7.99356638               47.04942746                1.00000000               -0.03092862               -0.02885400                0.09652146                0.00094346               -0.00245387                0.01797779
               1.04874673                7.98829418               47.04910361                1.00000000               -0.03294430               -0.03281850                0.10962379                0.00039927               -0.00168405                0.00433756
               2.04839713                7.98303524               47.04879409                0.36539925               -0.02901325               -0.03672807                0.12190656               -0.01549876                0.04275477               -0.00975789
               3.04816647                7.97747882               47.04936996                0.01000001               -0.44863430               -0.36285349                0.08540730                1.16295671                0.14698283               -0.07378005
               4.03942445                7.98858822               47.05087605                0.01000005               -0.86503335               -0.04162191                0.14398867                1.59544729                0.25640095               -0.00815801
               5.03086580                7.99622554               47.05385735                0.01000000               -0.81717140                0.07574510                0.13776076                1.12313081                0.33923671                0.04194640
               6.02308102                8.00187842               47.05729659                0.01000000               -0.71590940                0.05391217                0.14518773                0.71259768                0.39463041                0.11239162
               7.01654761                8.00443335               47.06146829                0.01000000               -0.57050285               -0.02135613                0.15557195                0.23860720                0.46649208                0.21982508
               8.01167096                8.00402004               47.06645567                0.01000002               -0.35096929               -0.14859844                0.16520449               -0.22139537                0.45218356                0.39126162
               9.00952823                8.00286406               47.07042746                0.01000000               -0.13205786               -0.31861491                0.17227227               -0.49030924                0.30082029                0.81281529
              10.00902980                8.00496968               47.07245805                0.01000001               -0.04984224               -0.31153523                0.17518116               -0.35381694                0.19726019                0.74232453
               0.05436119                8.99327057               47.05014811                1.00000000               -0.03236788               -0.03024263                0.10090995                0.00112655                0.00271377                0.01748504
               1.05403751                8.98795747               47.04976646                0.99999999               -0.03429368               -0.03446613                0.11477756                0.00045691                0.00294092                0.00336767
               2.05367531                8.98266137               47.04939006                1.00000000               -0.03804050               -0.03827244                0.12833381                0.00116118               -0.00080567               -0.00756523
               3.05327670                8.97739633               47.04893767                0.01000001               -0.49799044               -0.02601808                0.14193425                0.81730939                0.16140822               -0.06564298
               4.04371550                8.98861971               47.05180588                0.01000000               -0.99855892                0.20564351                0.14284848                1.09501128                0.33506069                0.00944749
               5.03330552                8.99812970               47.05490473                0.01000000               -0.96621102                0.23196052                0.13923721                0.69345424                0.38849194                0.02270527
               6.02439128                9.00338983               47.05874515                0.01000001               -0.83694491                0.19174460                0.14909413                0.33802054                0.47252379                0.06447259
               7.01656662                9.00542967               47.06367710                0.01000002               -0.78466125                0.15037244                0.16086374                0.00942051                0.58557355                0.13262977
               8.00869806                9.00409255               47.07000640                0.01000001               -0.81102618                0.13493901                0.16910926               -0.37513307                0.87621252                0.26264272
               9.00034610                9.00038500               47.08091321                1.00000000               -0.44382647               -0.15015426                0.17565911               -0.64487385                0.54941947                0.52923488
               9.99982153                8.99971384               47.08082387                0.99999999               -0.05245681               -0.28863944                0.17364326               -0.49395342               -0.00042046                0.42235865
               0.05970474                9.99296152               47.05078050                1.00000000               -0.03396799               -0.03090448                0.10588926               -0.00131117                0.01355733                0.01346139
               1.05936506                9.98760485               47.05039502                1.00000000               -0.03616261               -0.03526166                0.11986934               -0.00183100                0.01744955                0.00158982
               2.05898149                9.98226979               47.05008471                0.99999998               -0.04053753               -0.03915840                0.13412851               -0.00170192                0.01690866               -0.00299696
               3.05855431                9.97695846               47.04969741                0.91741286               -0.91950947               -0.04378770                0.14849162                1.04932680                0.17653879               -0.00709531
               4.04059130                9.99270109               47.05259923                0.01000001               -1.42947748                0.40813787                0.18169436                0.88289450                0.33754152                0.00372354
               5.02996476               10.00086475               47.05573856                0.01000001               -0.90249211                0.27350470                0.16383016                0.31653582                0.38551626                0.01755235
               6.02254146               10.00571332               47.05957784                0.01000000               -0.69657294                0.23234847                0.16737693                0.14382052                0.47181951                0.03952024
               7.01603331               10.00744080               47.06465283                0.01000001               -0.66642480                0.20111354                0.17282004               -0.00305631                0.62893152                0.07420042
               8.00921297               10.00671882               47.07187183                0.01000000               -0.75119224                0.26262728                0.17545222               -0.32750075                0.81563828                0.18055266
               9.00100946                9.99986097               47.08082342                1.00000000               -0.43599497               -0.05240263                0.17331243               -0.30976003                0.45245489                0.00040622
              10.00049307                9.99919689               47.08073432                1.00000000               -0.05163953               -0.05169426                0.17129410                0.00074547                0.00043049               -0.00038621
              -0.01626058                0.00393607               48.03825396                0.99160771               -0.02317937               -0.02156122                0.07006366                0.00283606               -0.00730979                0.00770394
               0.98350763                0.00159074               48.04036717                0.99999999               -0.02520887               -0.02600180                0.08425679                0.00235588               -0.00817408               -0.00094029
               1.98323524               -0.00073918               48.04247024                0.04974443               -0.01988170               -0.03051191                0.09878183                0.00479408               -0.05653987               -0.00390432
               2.98310999               -0.00300359               48.04361253                0.01000000               -0.00258656               -0.02126528                0.06375638                0.25624623               -0.04443342                0.00454978
               3.98318351                0.00001014               48.04556715                0.01000000               -0.15410273                0.11870298                0.09343412                0.26860296               -0.02288850                0.01590184
               4.98002794                0.00889143               48.04711792                0.01000000               -0.61060983                0.13918671                0.10018634                0.65610304               -0.05857649                0.01932652
               5.97097131                0.02576461               48.04843218                0.03641845               -0.49204766               -0.02687152                0.07743041                0.70728083                0.00528788               -0.00991083
               6.97018698                0.02900957               48.05123295                0.97483954               -0.05416853               -0.02899194                0.09492279                0.04872021                0.02922811               -0.00109322
               7.96988794                0.03132489               48.05347882                1.00000000               -0.03123725               -0.03194506                0.10404133                0.00157993                0.00192580                0.00020459
               8.96956224                0.03365168               48.05573227                1.00000000               -0.03402172               -0.03468524                0.11353549                0.00146845                0.00229293                0.00101289
               9.96920751                0.03599288               48.05797137                1.00000000               -0.03547297               -0.03771047                0.12305138                0.00081362                0.00217703                0.00328561
              -0.01388689                1.00372046               48.03853617                0.98956580               -0.02442982               -0.02213535                0.07443130                0.00071264                0.00099892                0.00829920
               0.98586881                1.00133072               48.04064978                0.17300036               -0.02663800               -0.02674683                0.08874305                0.00019937                0.00371226               -0.00363103
               1.98558035                0.99895570               48.04281285                0.01000000               -0.02855063               -0.03025684                0.10346969                0.00966547               -0.04352872               -0.02276628
               2.98529780                0.99678376               48.04397536                0.01000001               -0.28291574                0.03101252                0.06610679                0.19655401               -0.04684881                0.03393297
               3.97992203                1.00119716               48.04595792                0.01000000               -0.57930336                0.09735570                0.10537074                0.55596435               -0.03821699                0.02814418
               4.97371173                1.01028330               48.04738940                0.01000000               -0.59684898                0.05732058                0.11260477                1.00531680               -0.11419051                0.03287867
               5.96798505                1.02549590               48.04804758                0.01000001               -0.29088411               -0.33892883                0.09796839                0.95918096               -0.07307266                0.06599659
               6.96789405                1.02871965               48.05052824                0.97270677               -0.02011846               -0.02971465                0.09940169                0.04761540                0.01223607               -0.00067237
               7.96758268                1.03100544               48.05277480                0.99999999               -0.03255606               -0.03258615                0.10854190                0.00015568                0.00061061                0.00022222
               8.96724293                1.03330483               48.05502366                0.99999999               -0.03541182               -0.03535810                0.11800770                0.00006725                0.00038271                0.00144308
               9.96687445                1.03561578               48.05726513                0.99999999               -0.03684785               -0.03839370                0.12757696               -0.00069280                0.00014023                0.00479545
              -0.01146686                2.00349336               48.03882940                0.01000001               -0.02567691                0.02422986                0.07846529                0.06229919                0.00302506                0.09340393
               0.98827637                2.00105581               48.04087745                0.01000000               -0.02788114               -0.11102026                0.09276691                0.06247309               -0.00419643                0.07269123
               1.98797552                1.99865568               48.04277202                0.01000001               -0.17383806               -0.12603933                0.10084555                0.12242398                0.00854265                0.04584621
               2.98479961                1.99761666               48.04506810                0.01000000               -0.35861268                0.00025841                0.10754389                0.38340468               -0.01172109                0.07179505
               3.98080326                2.00195725               48.04664771                0.01000000               -0.44820331               -0.01892703                0.11693539                0.93587393               -0.06372962                0.05327496
               4.97583554                2.01003784               48.04799011                0.01000001               -0.45423405               -0.13092000                0.12405839                1.27589829               -0.08783354                0.06447797
               5.97171858                2.01898603               48.04920536                0.01000000               -0.51028961               -0.47606123                0.12250249                1.39582085               -0.12906244                0.11651481
               6.96562975                2.02841527               48.04982521                0.01000000               -0.32063546               -0.28494076                0.10309590                0.82594895               -0.08155148                0.10343247
               7.96530587                2.03067316               48.05207269                0.19570060               -0.03382534               -0.03357195                0.11273264                0.00058271               -0.00086963                0.01020644
               8.96495324                2.03294452               48.05432003                1.00000000               -0.03670550               -0.03665679                0.12263467                0.00028354               -0.00069071                0.00081773
               9.96457176                2.03522501               48.05658232                0.99999999               -0.03814813               -0.03977509                0.13204427               -0.00068167               -0.00019143                0.00492838
              -0.00776579                3.00420506               48.04080978                0.01000005               -0.02782548                0.05312030                0.08275249                0.07604604               -0.00541892                0.17956365
               0.99195595                2.99911032               48.04267997                0.01000001               -0.03831178               -0.24063173                0.10296005                0.21628366               -0.01282045                0.15775937
               1.99146797                2.99643492               48.04446698                0.01000000               -0.11458128               -0.27763754                0.11624629                0.48855515               -0.02721604                0.13023478
               2.98966433                2.99678893               48.04609881                0.01000000               -0.26248175               -0.17328714                0.12347605                0.89158374               -0.04039659                0.08031238
               3.98621833                3.00081862               48.04761775                0.01000000               -0.37317073               -0.18019742                0.12995631                1.26131213               -0.05498344                0.07127788
               4.98220091                3.00766490               48.04895505                0.01000000               -0.43471492               -0.26152753                0.13346171                1.53758366               -0.07555661                0.08555654
               5.97752404                3.01597467               48.05011485                0.01000001               -0.47375074               -0.33917396                0.13117433                1.56353050               -0.09383844                0.12077198
               6.97272590                3.02302083               48.05121486                0.01000001               -0.72294736               -0.44166615                0.12590521                1.62292753               -0.13904895                0.18921143
               7.96306509                3.03033400               48.05157438                0.01000001               -0.50145710               -0.31896617                0.11738914                1.30339918               -0.10867043                0.17902556
               8.96269675                3.03257170               48.05360145                0.01000001               -0.03826231               -0.39089135                0.12754534                0.99370821               -0.01339581                0.14760219
               9.96229984                3.03482028               48.05587765                0.98729563               -0.03969107               -0.86982190                0.13656368                1.16675217               -0.00143162                0.11843278
               0.00024353                4.00455577               48.04271841                0.01000000                0.01286524               -0.06040362                0.07970425                0.27672855               -0.01472151                0.18474451
               1.00037218                3.99624317               48.04447533                0.01000000               -0.00877603               -0.37362430                0.11307755                0.57302607               -0.02875780                0.15967639
               2.00006801                3.99310293               48.04598619                0.01000000               -0.10623046               -0.36241187                0.12894254                0.99362081               -0.04352345                0.11908747
               2.99824757                3.99415092               48.04737481                0.01000001               -0.24572361               -0.29667534                0.13551658                1.27665046               -0.04406458                0.08467666
               3.99515354                3.99835330               48.04874130                0.01000000               -0.34082025               -0.28424369                0.13883315                1.54028898               -0.03841020                0.07269239
               4.99143117                4.00480729               48.05012782                0.01000001               -0.37601416               -0.31341807                0.14009563                1.70990507               -0.03438555                0.09424093
               5.98763326                4.01220255               48.05151548                0.01000001               -0.38510978               -0.38564330                0.13955518                1.81279575               -0.03804072                0.14605436
               6.98372897                4.01958195               48.05282901                0.01000001               -0.29051316               -0.43975923                0.13764565                1.79450504               -0.03732751                0.21297122
               7.98182299                4.02429384               48.05426502                0.01000004               -0.16939215               -0.62320515                0.13844346                1.89104595               -0.02180012                0.30877518
               8.98034113                4.02512670               48.05584280                0.01000000                0.07933277               -0.75866378                0.14270482                1.34591841               -0.01052166                0.29464247
               9.98340965                4.01782857               48.05747012                0.01000000                0.30685166               -1.23618807                0.15041599                1.02344891                0.00445067                0.21866274
               0.01439397                5.00299698               48.04475201                0.01000003                0.04753361               -0.53527126                0.06409743                0.73965609               -0.04112494                0.23149081
               1.01486931                4.99163783               48.04625919                0.01000000               -0.04806675               -0.41697809                0.12114297                1.16206313               -0.04543636                0.14754590
               2.01343264                4.98918668               48.04748826                0.01000001               -0.24611707               -0.32503371                0.14118881                1.36376535               -0.04805479                0.09304580
               3.00994697                4.99085542               48.04861142                0.01000000               -0.35324457               -0.34788542                0.14516278                1.55106382               -0.03310497                0.05648223
               4.00636775                4.99513375               48.04991161                0.01000001               -0.36986044               -0.32524008                0.14402965                1.68992269                0.00091308                0.05383934
               5.00254976                5.00139653               48.05145834                0.01000001               -0.36812280               -0.33633154                0.14405122                1.77894893                0.03090323                0.08723439
               5.99900529                5.00826180               48.05319449                0.01000191               -0.30125241               -0.38980840                0.14494888                1.74663364                0.05104625                0.15215319
               6.99652471                5.01422565               48.05504114                0.01000000               -0.18320132               -0.51525672                0.14692814                1.63532215                0.06094180                0.23557473
               7.99534126                5.01786990               48.05688825                0.01000000               -0.02221584               -0.62384018                0.15033729                1.35323779                0.05767664                0.30391139
               8.99608039                5.01739842               48.05858199                0.01000000                0.10119042               -0.69016942                0.15554887                0.90028868                0.03792287                0.32501916
               9.99736507                5.01009651               48.05990590                0.01000000                0.12846788               -0.54512509                0.16222867                0.43453510                0.02565912                0.27238635
               0.03775495                5.99385034               48.04758563                0.03461295               -0.03312001               -0.48427645                0.03371648                0.88222161               -0.05827994                0.24274754
               1.03742375                5.98790361               48.04816974                0.01000001               -0.48146110               -0.18281816                0.11173510                1.07592066               -0.06595108                0.06808608
               2.02812573                5.98660226               48.04874567                0.01000000               -0.70509867               -0.32611859                0.15374775                1.45771485               -0.04988248                0.03074820
               3.02332178                5.98719321               48.04958997                0.01000001               -0.48574247               -0.34791461                0.14618402                1.53313658                0.00784821                0.00987705
               4.01841088                5.99184850               48.05096377                0.01000001               -0.47198422               -0.32597517                0.14462095                1.73905961                0.06719621                0.01237018
               5.01388209                5.99808066               48.05279938                0.01000091               -0.43370328               -0.27671706                0.14416921                1.69415928                0.12039374                0.06341865
               6.00973681                6.00440639               48.05505667                0.01000000               -0.35273836               -0.32403818                0.14728267                1.51527011                0.16000894                0.14225369
               7.00682733                6.00927682               48.05753273                0.01000000               -0.20109198               -0.43222779                0.15241808                1.22979727                0.17419683                0.24233865
               8.00571497                6.01181704               48.05996641                0.01000000               -0.03535203               -0.54440383                0.15843646                0.90160315                0.15459512                0.33631344
               9.00612029                6.01132331               48.06197300                0.01000001                0.04945937               -0.53376080                0.16471150                0.49454032                0.09491413                0.38973652
              10.00670416                6.00692607               48.06314847                0.01000000                0.05838766               -0.21720844                0.17060886                0.23414610                0.05491231                0.36031549
               0.04393187                6.99331145               48.04969417                0.94274582               -0.02960665               -0.04088335                0.09142115                0.04393748               -0.01211061                0.08419212
               1.04363581                6.98798147               48.04951147                0.91068953               -0.03172707               -0.01229846                0.10610055                0.04557658               -0.01206809                0.03629060
               2.04329733                6.98266431               48.04932831                0.01000000               -0.41361743               -0.21533927                0.12014862                0.82086867                0.04608895               -0.01195393
               3.03536346                6.98389713               48.05032696                0.01000001               -0.65179201               -0.51420465                0.14333112                1.55415255                0.08568043               -0.10763429
               4.03026149                6.98861425               48.05167076                0.01000001               -0.57442009               -0.21230969                0.13725200                1.65895907                0.14798009               -0.01824092
               5.02387506                6.99586219               48.05406351                0.01000000               -0.60734787               -0.13708017                0.14014890                1.51787417                0.23314760                0.02671101
               6.01811453                7.00178104               48.05695326                0.01000000               -0.50825260               -0.15872130                0.14654200                1.16284849                0.28854539                0.11627271
               7.01371000                7.00558109               48.06028849                0.01000000               -0.33938493               -0.26000936                0.15523244                0.75239055                0.31256271                0.23762245
               8.01132684                7.00698182               48.06363456                0.01000000               -0.14239176               -0.39637052                0.16375902                0.35829642                0.28108252                0.39392464
               9.01086217                7.00672320               48.06636287                0.01000002               -0.02421820               -0.42332359                0.17090034                0.10990498                0.17282050                0.50293740
              10.01084247                7.00575235               48.06758080                0.01000000               -0.00196974               -0.10156036                0.17561881                0.01616703                0.09380916                0.53144930
               0.04929367                7.99303268               48.05038884                1.00000000               -0.03112368               -0.02850602                0.09572897                0.00097744               -0.00215544                0.01718196
               1.04898243                7.98765764               48.05020577                0.99999999               -0.03331119               -0.03311458                0.11063702                0.00028588               -0.00279818                0.00433815
               2.04862744                7.98229547               48.05000979                0.18788559               -0.02637715               -0.03748648                0.12463052               -0.00163730               -0.04892932               -0.00898132
               3.04845489                7.97690912               48.04891409                0.01000001               -0.45012228               -0.36750508                0.08912667                1.17766335                0.12816212               -0.06831336
               4.03962500                7.98760231               48.05249434                0.01000004               -0.86910527               -0.04575555                0.13441373                1.61099155                0.31639434               -0.04779901
               5.03107278                7.99533906               48.05516120                0.01000000               -0.81750566                0.06626727                0.13140919                1.17995343                0.34391551               -0.01461202
               6.02327489                8.00123196               48.05873391                0.01000000               -0.71992114                0.04789443                0.14387213                0.77317835                0.42203120                0.07886532
               7.01667436                8.00407663               48.06302031                0.01000000               -0.57680475               -0.02545921                0.15729046                0.28990992                0.48683850                0.20369848
               8.01173879                8.00388963               48.06811386                0.01000002               -0.35632505               -0.15064372                0.16758780               -0.18375826                0.46626504                0.38537469
               9.00954786                8.00285684               48.07215824                0.01000004               -0.13847845               -0.31163316                0.17446582               -0.47079286                0.30822382                0.81306599
              10.00896922                8.00489486               48.07421852                0.01000001               -0.05786375               -0.29704791                0.17745446               -0.34247536                0.19944766                0.74038076
               0.05470150                8.99274133               48.05115253                1.00000000               -0.03227673               -0.02979640                0.09985016                0.00091732                0.00302105                0.01688094
               1.05437873                8.98731918               48.05091809                0.99999999               -0.03441941               -0.03457682                0.11523815                0.00045592                0.00263885                0.00319198
               2.05401311                8.98191458               48.05067294                0.99999999               -0.03844174               -0.03889623                0.13018764                0.00158183               -0.00272424               -0.00592789
               3.05360989                8.97654703               48.05034046                0.01000000               -0.49808602               -0.04074451                0.14481892                0.81629549                0.14845467                0.02562289
               4.04405139                8.98769914               48.05314614                0.01000000               -0.98827118                0.20801422                0.11134574                1.09826659                0.39846041               -0.06295409
               5.03384447                8.99718754               48.05619161                0.01000000               -0.96054298                0.23222099                0.12140287                0.72295279                0.44980139               -0.02682387
               6.02484053                9.00273893               48.06020061                0.01000000               -0.84969668                0.19534043                0.14684478                0.37515285                0.51663571                0.04125936
               7.01685054                9.00507191               48.06528229                0.01000002               -0.79845315                0.15243174                0.16289416                0.03829649                0.61038685                0.12241323
               8.00887146                9.00396894               48.07170168                0.01000001               -0.82047290                0.13670396                0.17131688               -0.35155847                0.88967573                0.25924305
               9.00044108                9.00049054               48.08266958                1.00000000               -0.44772759               -0.14450162                0.17560776               -0.62960968                0.55343390                0.53162188
               9.99991691                8.99981139               48.08256022                0.99999995               -0.05241654               -0.28003069                0.17360882               -0.48655172               -0.00040236                0.42231781
               0.06015632                9.99243675               48.05183344                1.00000000               -0.03380166               -0.03045843                0.10440289               -0.00158175                0.01354912                0.01322443
               1.05981831                9.98696610               48.05159380                0.99999999               -0.03625457               -0.03530748                0.11990467               -0.00200219                0.01797363                0.00131138
               2.05943123                9.98151755               48.05143747                0.99999997               -0.04110342               -0.03970274                0.13577857               -0.00178134                0.01845338               -0.00153194
               3.05899624                9.97609423               48.05121036                0.98046564               -0.92407058               -0.04527991                0.15185000                1.05088652                0.19061551               -0.00327827
               4.04094982                9.99176259               48.05450751                0.01000000               -1.42520967                0.40634538                0.16831574                0.88430560                0.45143204               -0.04576044
               5.03049204                9.99998347               48.05729880                0.01000000               -0.90281236                0.27959368                0.15453690                0.33356647                0.43148786               -0.00559498
               6.02289357               10.00513877               48.06123882                0.01000000               -0.71408848                0.23998394                0.16832853                0.16239399                0.50360074                0.03067473
               7.01621027               10.00712526               48.06638590                0.01000001               -0.68022928                0.20533563                0.17603555                0.01022076                0.64130869                0.06995296
               8.00928899               10.00662371               48.07363308                0.01000000               -0.75485264                0.26547622                0.17778042               -0.31617079                0.81649537                0.17988954
               9.00111322                9.99996680               48.08255688                1.00000000               -0.43462461               -0.05237384                0.17336263               -0.29925855                0.45208924                0.00043280
              10.00059649                9.99929425               48.08244746                1.00000000               -0.05167274               -0.05171400                0.17135134                0.00070266                0.00040544               -0.00041461
              -0.01852160                0.00370998               49.03895789                0.99165452               -0.02321085               -0.02156575                0.07060017                0.00271921               -0.00769502                0.00769792
               0.98124629                0.00127664               49.04121177                1.00000000               -0.02524502               -0.02588985                0.08441400                0.00221971               -0.00829036               -0.00112354
               1.98097350               -0.00114415               49.04345477                0.02991699               -0.00786696               -0.03018827                0.09817596                0.01462073               -0.08084111               -0.00379751
               2.98108895               -0.00330430               49.04425680                0.01000000                0.00804844               -0.02799454                0.06085236                0.25448192               -0.04197749                0.01465097
               3.98113447               -0.00021977               49.04655834                0.01000000               -0.15840286                0.11351213                0.11489279                0.26561979               -0.03684958                0.03254677
               4.97792089                0.00874660               49.04816736                0.01000001               -0.60734603                0.13481505                0.10558680                0.66017312               -0.09032512                0.01411652
               5.96898754                0.02590957               49.04918454                0.03089772               -0.50061300               -0.02746913                0.07358465                0.71076690                0.00897930               -0.01921699
               6.96790863                0.02968313               49.05217953                0.97392809               -0.06875391               -0.02908574                0.09443334                0.07473637                0.03424376               -0.00105224
               7.96761247                0.03200777               49.05451591                1.00000000               -0.03094863               -0.03184045                0.10330367                0.00141004                0.00196368                0.00010727
               8.96728966                0.03434885               49.05686057                1.00000000               -0.03359882               -0.03450687                0.11220157                0.00141213                0.00208836                0.00114434
               9.96694049                0.03670806               49.05919315                1.00000000               -0.03491695               -0.03733343                0.12124940                0.00052436                0.00199672                0.00310139
              -0.01606108                1.00349432               49.03927807                0.99516071               -0.02433736               -0.02203514                0.07415697                0.00062550                0.00113694                0.00817197
               0.98369555                1.00101775               49.04153276                0.15704619               -0.02643740               -0.02652382                0.08798505                0.00018114                0.00387059               -0.00385929
               1.98341017                0.99855397               49.04384024                0.01000000               -0.02619854               -0.02996501                0.10208522                0.01579787               -0.06874061               -0.02452198
               2.98317158                0.99641576               49.04463692                0.01000001               -0.28224809                0.02924818                0.07185319                0.19671512               -0.07730993                0.06861820
               3.97776521                1.00091535               49.04707936                0.01000000               -0.58568113                0.09183290                0.12669018                0.55859934               -0.04067403                0.03436100
               4.97145796                1.01009476               49.04857250                0.01000000               -0.60691300                0.05365828                0.12216395                1.02062579               -0.13111665                0.02183925
               5.96562695                1.02563488               49.04907656                0.01000001               -0.29255308               -0.34416039                0.10936781                0.98796465               -0.09383571                0.05535627
               6.96560689                1.02939227               49.05152352                0.96736600               -0.01666241               -0.02987732                0.09992094                0.07393746                0.00605188               -0.00105841
               7.96529370                1.03168937               49.05386186                0.99999999               -0.03266282               -0.03266694                0.10887877                0.00007124                0.00057960                0.00024152
               8.96495364                1.03400378               49.05620301                0.99999999               -0.03535890               -0.03534444                0.11786198                0.00003489                0.00035799                0.00162237
               9.96458653                1.03633472               49.05853753                1.00000000               -0.03671109               -0.03817404                0.12689132               -0.00087182                0.00015582                0.00464124
              -0.01355594                2.00326928               49.03960852                0.01000000               -0.02537928                0.02756924                0.07768999                0.06099546                0.00306306                0.09459492
               0.98619026                2.00074617               49.04179678                0.01000000               -0.02763069               -0.10519739                0.09141618                0.05872157               -0.00567438                0.07664522
               1.98589144                1.99825655               49.04380516                0.01000001               -0.17641980               -0.12005369                0.10167050                0.12415578                0.00269018                0.04846503
               2.98266187                1.99728067               49.04614787                0.01000000               -0.36319934                0.00122216                0.11107002                0.38797633               -0.02009624                0.10202954
               3.97862746                2.00161689               49.04785615                0.01000000               -0.45239910               -0.02343808                0.12453574                0.94622013               -0.06794877                0.05209550
               4.97361389                2.00981977               49.04927652                0.01000001               -0.45890657               -0.13571541                0.13348019                1.30359357               -0.09699275                0.05221683
               5.96944932                2.01902636               49.05047082                0.01000000               -0.51404972               -0.48392057                0.13058148                1.45120137               -0.15249286                0.10865440
               6.96333289                2.02908558               49.05086876                0.01000000               -0.32234728               -0.30113087                0.10538561                0.86333923               -0.09731465                0.11248997
               7.96300238                2.03135443               49.05320877                0.20729489               -0.03439450               -0.03411407                0.11441083                0.00019341               -0.00070784                0.01006328
               8.96264500                2.03364196               49.05555111                0.99999999               -0.03706037               -0.03697188                0.12358252                0.00014991               -0.00045668                0.00110242
               9.96226117                2.03594458               49.05790509                0.99999999               -0.03838298               -0.03988056                0.13251370               -0.00084592               -0.00010209                0.00477207
              -0.00979495                3.00404571               49.04165480                0.01000005               -0.03223416                0.05887837                0.08493269                0.07113828               -0.00510513                0.18266846
               0.98988270                2.99891380               49.04372194                0.01000001               -0.04231274               -0.22949341                0.10191861                0.20695465               -0.01868318                0.17619787
               1.98935879                2.99615290               49.04563440                0.01000000               -0.11559693               -0.26996013                0.11420391                0.48017829               -0.04064982                0.14951591
               2.98757077                2.99644020               49.04734662                0.01000000               -0.26041395               -0.17631107                0.12338223                0.89471807               -0.05264127                0.09572890
               3.98415051                3.00044659               49.04893795                0.01000166               -0.37252043               -0.18603867                0.13351404                1.27923139               -0.06514054                0.07124952
               4.98012036                3.00738045               49.05031873                0.01000000               -0.43826710               -0.26931296                0.13845235                1.57536427               -0.08843938                0.07528746
               5.97538517                3.01595647               49.05145361                0.01000001               -0.47873757               -0.34845195                0.13603617                1.61852963               -0.11174355                0.11164630
               6.97054561                3.02336965               49.05249053                0.01000001               -0.73219898               -0.46686254                0.12899401                1.68198702               -0.15877664                0.19744016
               7.96074119                3.03100709               49.05275646                0.01000001               -0.50895573               -0.33321190                0.11950525                1.34705312               -0.11695103                0.18737442
               8.96036649                3.03326434               49.05488592                0.01000000               -0.03884061               -0.40428012                0.12942519                1.02377263               -0.01264595                0.15321048
               9.95996438                3.03553711               49.05725102                0.99932050               -0.04021129               -0.89856549                0.13814434                1.20347154               -0.00139946                0.12317116
              -0.00186936                4.00444684               49.04355929                0.01000000                0.00915310               -0.05533699                0.08771320                0.25879709               -0.01685991                0.18762447
               0.99822217                3.99615630               49.04564764                0.01000000               -0.00810151               -0.37488803                0.11523540                0.55472967               -0.04703828                0.20118185
               1.99796861                3.99285735               49.04730112                0.01000000               -0.09798174               -0.36643029                0.12757182                0.98361488               -0.07504123                0.15231474
               2.99626253                3.99375445               49.04874250                0.01000000               -0.23483837               -0.30600084                0.13427346                1.28234098               -0.07225641                0.09819380
               3.99327184                3.99789612               49.05014354                0.01000000               -0.33256169               -0.29679392                0.13945262                1.56720544               -0.05813537                0.07053385
               4.98961130                4.00443351               49.05154626                0.01000001               -0.37205630               -0.32598271                0.14249628                1.75832669               -0.05026230                0.08458182
               5.98583071                4.01205732               49.05292980                0.01000001               -0.38446435               -0.40088290                0.14276591                1.87946891               -0.05299419                0.13832218
               6.98192201                4.01974833               49.05422242                0.01000001               -0.28909821               -0.45993157                0.14092126                1.86624702               -0.04971014                0.21301219
               7.98004875                4.02469020               49.05566481                0.01000005               -0.16657920               -0.64956857                0.14170979                1.95872987               -0.02927218                0.31864260
               8.97859043                4.02555636               49.05728567                0.01000000                0.08681593               -0.78564234                0.14621960                1.39154525               -0.01319163                0.30361714
               9.98178507                4.01797327               49.05899223                0.01000000                0.31946397               -1.27943962                0.15448233                1.05653401                0.00368822                0.22663359
               0.01196207                5.00293897               49.04544605                0.01000003                0.06047185               -0.51834600                0.08323043                0.73706511               -0.07756387                0.23169789
               1.01256679                4.99141604               49.04758580                0.01000000               -0.02645650               -0.46579488                0.13218474                1.15734023               -0.10604743                0.21501474
               2.01143294                4.98882429               49.04894648                0.01000001               -0.21939872               -0.34101990                0.14045280                1.37076284               -0.11857423                0.13830482
               3.00817882                4.99032018               49.05007579                0.01000000               -0.33086937               -0.36780958                0.14267391                1.57501962               -0.07745086                0.06277809
               4.00481556                4.99451071               49.05136192                0.01000001               -0.35265652               -0.34370839                0.14324652                1.73080555               -0.02546027                0.04472826
               5.00112569                5.00086079               49.05290936                0.01000001               -0.35779129               -0.35605817                0.14543848                1.83894918                0.01444462                0.07408116
               5.99765973                5.00793881               49.05465912                0.01000003               -0.29440072               -0.41026479                0.14784571                1.82026813                0.04026875                0.14104878
               6.99523767                5.01417102               49.05652737                0.01000000               -0.17759863               -0.53731100                0.15050296                1.71218895                0.05382698                0.23140184
               7.99410776                5.01801571               49.05841000                0.01000000               -0.01616744               -0.64660221                0.15430589                1.41756726                0.05373743                0.30571543
               8.99491432                5.01755150               49.06015751                0.01000000                0.10767432               -0.71298289                0.15998044                0.93990228                0.03623121                0.32992691
               9.99626124                5.00994832               49.06155170                0.01000000                0.13469201               -0.56580753                0.16761817                0.45300774                0.02471260                0.27646311
               0.03591779                5.99407992               49.04778106                0.02019893               -0.04341458               -0.51053418                0.01571642                0.87399963               -0.21757078                0.39961708
               1.03548365                5.98684040               49.04941699                0.01000001               -0.47190390               -0.20562083                0.14857335                1.15065605               -0.24950673                0.10547990
               2.02647972                5.98603695               49.05039487                0.01000000               -0.67035739               -0.34657795                0.15360366                1.57005647               -0.13284477                0.02768394
               3.02207650                5.98639825               49.05109027                0.01000001               -0.45661873               -0.35717947                0.14354478                1.58739439               -0.04335776               -0.01261847
               4.01734734                5.99102195               49.05239960                0.01000001               -0.45571558               -0.34769770                0.14293558                1.79374329                0.04095674               -0.00500746
               5.01296219                5.99731235               49.05425177                0.01000003               -0.42107469               -0.30367998                0.14621167                1.76089702                0.10827760                0.04036747
               6.00892585                6.00385203               49.05654195                0.01000000               -0.34366528               -0.34895001                0.15070933                1.59615535                0.15555160                0.12429214
               7.00608888                6.00900211               49.05907444                0.01000000               -0.19531158               -0.45246808                0.15665403                1.30872518                0.17431700                0.23245545
               8.00501962                6.01175815               49.06156983                0.01000000               -0.03165079               -0.56100783                0.16284394                0.96453875                0.15575711                0.33387485
               9.00545587                6.01129670               49.06364101                0.01000000                0.05159809               -0.54603437                0.16939309                0.52983659                0.09580641                0.39097905
              10.00605158                6.00665712               49.06487982                0.01000000                0.05957105               -0.22224220                0.17645013                0.25045079                0.05502449                0.36035174
               0.04392111                6.99272828               49.05060493                0.93952101               -0.02982219               -0.08141335                0.09091843                0.13059594               -0.01190588                0.11761985
               1.04362288                6.98730362               49.05058326                0.89316237               -0.03224429                0.00669576                0.10778826                0.13753073               -0.01261072                0.02504642
               2.04327622                6.98189273               49.05055103                0.01000000               -0.43405889               -0.22629852                0.12374225                0.90517424                0.03578990               -0.03492630
               3.03494171                6.98317660               49.05151181                0.01000001               -0.67499464               -0.51496036                0.12991555                1.59163432                0.07155712               -0.09043569
               4.02977633                6.98755676               49.05309815                0.01000001               -0.57140779               -0.24325460                0.14224248                1.68842404                0.14102530               -0.06144462
               5.02351355                6.99478719               49.05544992                0.01000000               -0.59416263               -0.17535754                0.14204138                1.59727007                0.22695537               -0.01193763
               6.01789308                7.00095981               49.05843235                0.01000000               -0.50037503               -0.18218182                0.15130899                1.25355760                0.29791600                0.08643373
               7.01350605                7.00512166               49.06185810                0.01000000               -0.33945679               -0.27442964                0.16047511                0.83256506                0.32227302                0.22323072
               8.01110394                7.00679556               49.06529125                0.01000000               -0.14469807               -0.40488674                0.16851013                0.41739337                0.28830752                0.38903697
               9.01061209                7.00663081               49.06809080                0.01000002               -0.02772546               -0.42390136                0.17524121                0.14200457                0.17664233                0.50212772
              10.01054943                7.00550348               49.06935963                0.01000000               -0.00626588               -0.09296212                0.18090442                0.02959743                0.09514310                0.52887838
               0.04937903                7.99245166               49.05134204                1.00000000               -0.03092201               -0.02823491                0.09480562                0.00073512               -0.00261069                0.01680435
               1.04906981                7.98697432               49.05131635                0.99999999               -0.03344039               -0.03351674                0.11161823                0.00031583               -0.00276686                0.00401303
               2.04871023                7.98151098               49.05128670                0.19978460               -0.04123286               -0.03887975                0.12885301                0.00234840               -0.00869373               -0.00847671
               3.04824516                7.97609905               49.05115249                0.01000001               -0.46025011               -0.37820357                0.19712728                1.17383796                0.10071852               -0.07375019
               4.03950522                7.98615686               49.05356432                0.01000005               -0.83703073               -0.11046493                0.12050868                1.68816932                0.25809847               -0.12489425
               5.03150454                7.99380520               49.05648554                0.01000000               -0.79213453                0.03342169                0.13531862                1.28925307                0.38345074               -0.09202061
               6.02366253                8.00020839               49.06017403                0.01000000               -0.73000547                0.03751524                0.15086105                0.87242778                0.45224903                0.04325986
               7.01690443                8.00351352               49.06461410                0.01000000               -0.59021012               -0.03046573                0.16396076                0.36096312                0.50734632                0.18889415
               8.01185833                8.00366042               49.06980742                0.01000002               -0.36581966               -0.15186863                0.17239284               -0.13472447                0.47805771                0.38033198
               9.00958804                8.00281868               49.07391677                0.01000005               -0.14800679               -0.30060040                0.17773338               -0.44592015                0.31390111                0.81184038
              10.00889819                8.00479787               49.07600714                0.01000001               -0.06898448               -0.27861139                0.18076166               -0.32794245                0.20066565                0.73594339
               0.05489049                8.99216358               49.05214511                1.00000000               -0.03206086               -0.02937308                0.09849915                0.00076920                0.00291657                0.01648464
               1.05456988                8.98663329               49.05207122                0.99999999               -0.03460127               -0.03473237                0.11562275                0.00011226                0.00288273                0.00321447
               2.05419846                8.98111514               49.05199382                0.99999999               -0.03986435               -0.04004467                0.13330503                0.00015049               -0.00197172               -0.00612845
               3.05377259                8.97561252               49.05183405                0.01190584               -0.41824475               -0.04729776                0.15133740                0.76418758                0.11025089               -0.01528047
               4.04583356                8.98534746               49.05403280                0.01000000               -0.92627543                0.14531404                0.08814303                1.19346929                0.54732797               -0.20708154
               5.03524708                8.99545563               49.05733279                0.01000000               -1.01001266                0.23666360                0.12971616                0.83606627                0.56205751               -0.09452198
               6.02563331                9.00171011               49.06168205                0.01000000               -0.89868974                0.20209996                0.15708843                0.44602800                0.56977306                0.01856128
               7.01727329                9.00451234               49.06693498                0.01000002               -0.82645097                0.15595696                0.17058423                0.08044276                0.63337895                0.11325992
               8.00910429                9.00375819               49.07343274                0.01000007               -0.83585292                0.13966930                0.17619542               -0.31899891                0.89935546                0.25649561
               9.00055623                9.00061880               49.08442537                1.00000000               -0.45360546               -0.13618228                0.17555546               -0.60890562                0.55567276                0.53259503
              10.00003218                8.99993125               49.08429605                0.99999996               -0.05240450               -0.26918761                0.17356020               -0.47766528               -0.00041087                0.42076934
               0.06045501                9.99186419               49.05286855                1.00000000               -0.03345052               -0.02993897                0.10250627               -0.00199967                0.01371136                0.01303979
               1.06012051                9.98627967               49.05279311                1.00000000               -0.03605071               -0.03536162                0.11981622               -0.00264230                0.01820783                0.00150733
               2.05973400                9.98071009               49.05280028                0.99999994               -0.04119624               -0.04050483                0.13708738               -0.00277507                0.01866866               -0.00190488
               3.05929658                9.97515309               49.05273441                0.99999999               -0.81012460               -0.04594322                0.15412397                0.97005182                0.17938843               -0.00527584
               4.04353151                9.98906314               49.05596554                0.01000000               -1.37166829                0.37156769                0.15015301                0.93906303                0.67714501               -0.21892743
               5.03186322                9.99853847               49.05882930                0.01000026               -1.00025653                0.30828420                0.16703530                0.42097606                0.51389050               -0.01663065
               6.02352638               10.00425039               49.06294441                0.01000000               -0.76990010                0.25402762                0.17960951                0.19401578                0.53633454                0.02157400
               7.01646521               10.00663266               49.06817354                0.01000001               -0.70772411                0.21203117                0.18330029                0.02936352                0.64987932                0.06653025
               8.00937189               10.00645380               49.07542744                0.01000000               -0.76141754                0.26956166                0.18189254               -0.30012115                0.81331345                0.17907184
               9.00123686               10.00009503               49.08429067                0.99999996               -0.43259479               -0.05237733                0.17340464               -0.28392037                0.45005582                0.00042837
              10.00072000                9.99941412               49.08416134                1.00000000               -0.05168660               -0.05171262                0.17141184                0.00069078                0.00041290               -0.00041075
              -0.02092224                0.00344966               50.03966597                0.99161753               -0.02328288               -0.02164017                0.07105203                0.00253416               -0.00780780                0.00779532
               0.97884493                0.00092629               50.04205545                1.00000000               -0.02521867               -0.02577624                0.08428262                0.00212633               -0.00841670               -0.00122260
               1.97857339               -0.00158605               50.04443375                0.01000000                0.01609722               -0.02990708                0.09748122                0.03294361               -0.10795447               -0.00372546
               2.97916688               -0.00347081               50.04482958                0.01000000               -0.00187161               -0.02641363                0.13492779                0.19481344               -0.07570071                0.06237210
               3.97853595               -0.00038098               50.04786501                0.01000000               -0.17858217                0.09675558                0.12146434                0.25541672               -0.06115732                0.04823803
               4.97559523                0.00836349               50.04922966                0.01000001               -0.56986085                0.12474349                0.10594380                0.64855682               -0.13168352                0.00032762
               5.96713874                0.02559623               50.04990387                0.02551561               -0.50273724               -0.02794827                0.07154805                0.69870985                0.02623794               -0.03774703
               6.96554049                0.03030053               50.05312162                0.97327353               -0.09462833               -0.02912834                0.09402051                0.12087549                0.04096675               -0.00112092
               7.96524617                0.03263514               50.05554490                1.00000000               -0.03068607               -0.03177312                0.10247982                0.00131980                0.00184022                0.00010282
               8.96492677                0.03498970               50.05797630                1.00000000               -0.03319455               -0.03429577                0.11091936                0.00131553                0.00201786                0.00115535
               9.96458228                0.03736615               50.06039636                1.00000000               -0.03444860               -0.03694889                0.11941111                0.00026988                0.00192835                0.00306409
              -0.01837353                1.00323326               50.04001931                1.00000000               -0.02424191               -0.02205644                0.07418758                0.00053351                0.00120088                0.00821425
               0.98138405                1.00066853               50.04240948                0.14209900               -0.02625502               -0.02633816                0.08742440                0.00014620                0.00398433               -0.00400715
               1.98110137                0.99811488               50.04485455                0.01000000               -0.04357913               -0.02915611                0.10090094                0.03506839               -0.08739406               -0.02694271
               2.98051247                0.99626506               50.04541242                0.01000001               -0.29641997                0.02091804                0.13652431                0.18257641               -0.18251753                0.13187189
               3.97517297                1.00058658               50.04849173                0.01000000               -0.57101369                0.07607743                0.13331068                0.55627744               -0.04743160                0.01721726
               4.96909220                1.00961093               50.04983268                0.01000000               -0.60078288                0.04862280                0.13078628                1.02079763               -0.14476721                0.00133040
               5.96315732                1.02531675               50.05023494                0.01000001               -0.29312050               -0.34070794                0.12566216                1.01680357               -0.11275120                0.02598836
               6.96322979                1.03000925               50.05252665                0.96210312               -0.01212642               -0.03012322                0.10072136                0.12028375               -0.00609368               -0.00112420
               7.96291479                1.03231741               50.05495238                0.99999999               -0.03276864               -0.03276573                0.10921492                0.00003386                0.00057045                0.00022493
               8.96257441                1.03464674               50.05738090                0.99999999               -0.03531334               -0.03530174                0.11770391                0.00001407                0.00036270                0.00167997
               9.96220852                1.03699667               50.05980295                0.99999999               -0.03658943               -0.03795958                0.12620233               -0.00103297                0.00016312                0.00459873
              -0.01578211                2.00300854               50.04038320                0.01000002               -0.02516512                0.03371964                0.07739792                0.05766682                0.00315992                0.09675043
               0.98396624                2.00039953               50.04270578                0.01000000               -0.02698331               -0.09425602                0.09044506                0.05204597               -0.00790466                0.07910764
               1.98367823                1.99783082               50.04480543                0.01000001               -0.18097717               -0.10928021                0.09260738                0.12384719               -0.00010131                0.04906765
               2.98034670                1.99694755               50.04728950                0.01000000               -0.36812965               -0.00780917                0.11266269                0.40526122               -0.00129437                0.12879951
               3.97631564                2.00114057               50.04913843                0.01000000               -0.45328411               -0.03151784                0.13500236                0.95794171               -0.06668823                0.02751997
               4.97128102                2.00933595               50.05065971                0.01000001               -0.46195744               -0.13550125                0.13986907                1.32328808               -0.09924038                0.02850904
               5.96707649                2.01878207               50.05181699                0.01000000               -0.51677582               -0.47840666                0.13755882                1.51610858               -0.17584789                0.08574823
               6.96094550                2.02969807               50.05193292                0.01000000               -0.32335638               -0.31966369                0.10741179                0.91077392               -0.11579841                0.12128295
               7.96060936                2.03197983               50.05436090                0.21880927               -0.03488547               -0.03459811                0.11595542                0.00007408               -0.00060162                0.00976671
               8.96024779                2.03428366               50.05679168                0.99999999               -0.03737963               -0.03726936                0.12453025                0.00010015               -0.00035525                0.00124227
               9.95986177                2.03660696               50.05923260                0.99999999               -0.03860254               -0.04000552                0.13298878               -0.00101303               -0.00006605                0.00470984
              -0.01200218                3.00390766               50.04250844                0.01000005               -0.03951354                0.07542348                0.08373611                0.06316239               -0.00588154                0.19077669
               0.98760269                2.99878341               50.04471834                0.01000001               -0.04837645               -0.19982929                0.09491244                0.18724790               -0.02273309                0.19128200
               1.98703029                2.99592927               50.04675106                0.01000000               -0.11473692               -0.24968385                0.10509762                0.45597819               -0.04581852                0.16758174
               2.98530795                2.99610887               50.04856646                0.01000000               -0.25434383               -0.17809631                0.12212026                0.88201423               -0.05720424                0.10094855
               3.98194342                2.99995622               50.05028803                0.01000002               -0.36957435               -0.19002826                0.13431983                1.28317294               -0.06551679                0.06309252
               4.97791646                3.00690090               50.05172409                0.01000000               -0.44130243               -0.27138274                0.14101887                1.60755182               -0.09681708                0.05571912
               5.97311737                3.01574861               50.05283557                0.01000001               -0.48344742               -0.35092877                0.13877993                1.67679022               -0.12817425                0.09608756
               6.96824751                3.02361597               50.05379474                0.01000001               -0.73933455               -0.49463592                0.13137163                1.74655444               -0.17864088                0.20482014
               7.95833068                3.03162545               50.05396448                0.01000001               -0.51491152               -0.34833327                0.12218401                1.39251572               -0.12546385                0.19540075
               8.95794928                3.03390135               50.05618995                0.01000000               -0.03945096               -0.41781087                0.13141721                1.05365958               -0.01209882                0.15910031
               9.95754166                3.03619655               50.05864053                0.99999999               -0.04076247               -0.92732002                0.13976803                1.23994607               -0.00140073                0.12889208
              -0.00427037                4.00451701               50.04447268                0.01000000               -0.00400466               -0.02492429                0.08896541                0.21686240               -0.01728926                0.20892372
               0.99568959                3.99640294               50.04678004                0.01000000               -0.01286518               -0.33073167                0.10250746                0.49826932               -0.05730252                0.23728443
               1.99547233                3.99283715               50.04853763                0.01000000               -0.08647767               -0.35351223                0.11594327                0.92617798               -0.09437799                0.17601829
               2.99396003                3.99338563               50.05006028                0.01000000               -0.21426306               -0.31728292                0.12638094                1.25887105               -0.08814742                0.10461355
               3.99118707                3.99734001               50.05153035                0.01000000               -0.31601849               -0.30919831                0.13627957                1.58021073               -0.06859843                0.06164433
               4.98763966                4.00390829               50.05297774                0.01000001               -0.36449253               -0.33641244                0.14243212                1.80242425               -0.06048458                0.07181729
               5.98389722                4.01176350               50.05437080                0.01000001               -0.38199525               -0.41389909                0.14448095                1.94861725               -0.06550089                0.12921988
               6.97999976                4.01980535               50.05564743                0.01000003               -0.28614598               -0.48071570                0.14369834                1.94262603               -0.06128507                0.21338492
               7.97817430                4.02501316               50.05709921                0.01000001               -0.16249409               -0.67731332                0.14522779                2.02886440               -0.03653921                0.32913268
               8.97674988                4.02592744               50.05876719                0.01000000                0.09479912               -0.81298687                0.15031211                1.43807186               -0.01587165                0.31361736
               9.98007028                4.01806056               50.06055976                0.01000003                0.33204041               -1.32291837                0.15940945                1.08977690                0.00272493                0.23684204
               0.00856319                5.00340917               50.04641662                0.01000003                0.06847395               -0.39166010                0.09360031                0.59606283               -0.07154857                0.24988151
               1.00924793                4.99216878               50.04890289                0.01000000                0.00039882               -0.46935972                0.10961138                0.97900394               -0.15176704                0.32918532
               2.00857117                4.98885903               50.05029732                0.01000001               -0.16327115               -0.36428793                0.11748596                1.29588350               -0.17875976                0.17453439
               3.00598251                4.98976322               50.05146490                0.01000000               -0.27731005               -0.39404026                0.12983682                1.57015481               -0.10353989                0.05862537
               4.00302497                4.99377226               50.05277654                0.01000001               -0.32205258               -0.36639423                0.13863735                1.76454415               -0.04071892                0.03489931
               4.99954146                5.00017265               50.05436711                0.01000001               -0.34161559               -0.37804232                0.14555166                1.89820045                0.00416227                0.06189273
               5.99619265                5.00747063               50.05615140                0.01000002               -0.28455441               -0.43222518                0.15034288                1.89784829                0.03185270                0.13237963
               6.99385037                5.01400166               50.05805120                0.01000000               -0.17033925               -0.56050771                0.15419796                1.79472840                0.04706667                0.22944555
               7.99278587                5.01807918               50.05997437                0.01000000               -0.00935255               -0.66999400                0.15863525                1.48645997                0.04911267                0.30919556
               8.99366332                5.01764161               50.06178160                0.01000000                0.11425438               -0.73589209                0.16506074                0.98177786                0.03384753                0.33593556
               9.99507096                5.00973819               50.06325827                0.01000000                0.14076401               -0.58676947                0.17418348                0.47249508                0.02324812                0.28229427
               0.03013167                5.99668380               50.04789996                0.01000002               -0.03118663               -0.56531471                0.02308517                0.79189019               -0.38958174                0.63673043
               1.02981981                5.98701575               50.05114121                0.01000001               -0.31680570               -0.27928671                0.09961849                1.15285754               -0.44202290                0.30398636
               2.02379556                5.98555139               50.05181774                0.01000000               -0.46849549               -0.38925354                0.11870811                1.65012446               -0.21219940                0.00878091
               3.02044990                5.98550482               50.05246087                0.01000001               -0.38635231               -0.38685131                0.13127768                1.63628538               -0.07051664               -0.02007840
               4.01606851                5.99001212               50.05382248                0.01000001               -0.42723013               -0.37758133                0.14125475                1.84807686                0.02777881               -0.02121477
               5.01190530                5.99634745               50.05572361                0.01000002               -0.40216701               -0.33914909                0.14875367                1.83226868                0.10071912                0.02324455
               6.00802517                6.00311899               50.05807086                0.01000000               -0.33097590               -0.37964993                0.15568547                1.68598851                0.15196145                0.11225123
               7.00528578                6.00859519               50.06066581                0.01000000               -0.18808148               -0.47478086                0.16199181                1.39702430                0.17254704                0.22752119
               8.00426354                6.01161328               50.06322329                0.01000000               -0.02796758               -0.57771055                0.16803958                1.03444126                0.15441246                0.33423277
               9.00472643                6.01120960               50.06536087                0.01000000                0.05317445               -0.55758067                0.17477579                0.56876071                0.09485348                0.39337639
              10.00532703                6.00632517               50.06667747                0.01000000                0.06006073               -0.22677950                0.18355623                0.26839318                0.05406120                0.36139051
               0.04373710                6.99210288               50.05151254                0.93771133               -0.02996050               -0.24276080                0.09054730                0.40607457               -0.01240945                0.15490966
               1.04343750                6.98658304               50.05166724                0.87212487               -0.03262590               -0.03829065                0.10922521                0.40668540               -0.01351911               -0.00898314
               2.04308458                6.98107396               50.05180315                0.01000000               -0.45950078               -0.24341188                0.12701953                1.01325057                0.03413725               -0.04512845
               3.03424748                6.98202619               50.05292527                0.01000001               -0.69703511               -0.51964767                0.14088126                1.64442053                0.05714807               -0.09670005
               4.02914388                6.98622063               50.05451561                0.01000000               -0.55837604               -0.29211755                0.14430169                1.73744452                0.12892887               -0.08904402
               5.02307996                6.99338967               50.05690434                0.01000000               -0.57396027               -0.23658330                0.15092132                1.69418994                0.22532772               -0.04202211
               6.01766468                6.99987763               50.05997944                0.01000000               -0.48916970               -0.21357660                0.16007434                1.36412503                0.30273814                0.06909250
               7.01329657                7.00450604               50.06349799                0.01000000               -0.34021939               -0.29087811                0.16836737                0.92747243                0.32663744                0.21602371
               8.01086029                7.00652497               50.06700476                0.01000000               -0.14849635               -0.41292507                0.17458931                0.48588439                0.29051572                0.38774957
               9.01032664                7.00649000               50.06986769                0.01000002               -0.03263046               -0.42252640                0.18031752                0.17886841                0.17728980                0.50214687
              10.01020768                7.00520260               50.07119889                0.01000000               -0.01189603               -0.08239324                0.18733483                0.04499822                0.09473394                0.52566314
               0.04929283                7.99182859               50.05228495                1.00000000               -0.03103950               -0.02791826                0.09382228                0.00065982               -0.00285427                0.01639804
               1.04898244                7.98624994               50.05243814                0.99999999               -0.03377029               -0.03381673                0.11268624                0.00023712               -0.00314219                0.00394628
               2.04861743                7.98068315               50.05258685                0.21416835               -0.03954011               -0.03977667                0.13138169               -0.00059027                0.00212380               -0.00774022
               3.04819163                7.97511187               50.05285664                0.01000001               -0.45817508               -0.36833414                0.16356954                1.15075358                0.09846072               -0.07561258
               4.03945392                7.98416977               50.05490452                0.01000001               -0.80297718               -0.25321728                0.14338975                1.84296204                0.23863652               -0.19463928
               5.03213209                7.99161578               50.05786757                0.01000000               -0.76313114               -0.02181676                0.15005428                1.45170482                0.39876280               -0.13557621
               6.02419130                7.99884746               50.06175113                0.01000000               -0.74720999                0.02310681                0.16668553                1.00654856                0.47016090                0.02320035
               7.01718789                8.00277763               50.06629952                0.01000000               -0.60970128               -0.03641875                0.17450414                0.44890895                0.51636628                0.18186021
               8.01199728                8.00335478               50.07156172                0.01000002               -0.37808622               -0.15230663                0.17894949               -0.07553304                0.48251309                0.37901687
               9.00962617                8.00275907               50.07571291                0.01000001               -0.15977364               -0.28607289                0.18164100               -0.41564436                0.31539373                0.80955098
              10.00880180                8.00467731               50.07783375                0.01000001               -0.08243636               -0.25650149                0.18477564               -0.31019368                0.20001348                0.72837483
               0.05490760                8.99154451               50.05312251                1.00000000               -0.03199230               -0.02889657                0.09700247                0.00065020                0.00293603                0.01623411
               1.05458768                8.98590671               50.05323055                0.99999999               -0.03483767               -0.03487291                0.11614299                0.00011057                0.00306867                0.00318768
               2.05421084                8.98027842               50.05333904                1.00000000               -0.04058720               -0.04083140                0.13555991               -0.00006590               -0.00138595               -0.00572589
               3.05377593                8.97465951               50.05336721                0.01558387               -0.23558164               -0.04619328                0.15516915                0.60524880                0.06937090               -0.02484731
               4.04949921                8.98115628               50.05490900                0.01000000               -0.81697820               -0.03256092                0.10939750                1.36188646                0.57902088               -0.30483305
               5.03743637                8.99295333               50.05878593                0.01000000               -1.14327091                0.25210258                0.17042197                1.04211893                0.62048095               -0.13177686
               6.02663379                9.00033977               50.06334237                0.01000000               -0.98344706                0.20990312                0.17680825                0.54545288                0.58973638                0.00562148
               7.01776743                9.00377767               50.06869398                0.01000002               -0.86328040                0.16005590                0.18198563                0.13380038                0.64091859                0.10936173
               8.00936819                9.00347884               50.07522559                0.01000007               -0.85381016                0.14304779                0.18284779               -0.27841383                0.89967049                0.25609261
               9.00069122                9.00076854               50.08618068                1.00000000               -0.46004247               -0.12571542                0.17551295               -0.58259990                0.55478852                0.53160669
              10.00016734                9.00007257               50.08603143                1.00000000               -0.05238866               -0.25609332                0.17351300               -0.46651716               -0.00041439                0.41725482
               0.06058144                9.99125066               50.05388357                1.00000000               -0.03307031               -0.02938545                0.10045294               -0.00243364                0.01370563                0.01297389
               1.06025074                9.98555248               50.05399012                1.00000000               -0.03590650               -0.03542296                0.11961386               -0.00290060                0.01819789                0.00150865
               2.05986331                9.97986652               50.05417922                0.99999994               -0.04159943               -0.04118993                0.13878334               -0.00297732                0.01840001               -0.00195330
               3.05941875                9.97418800               50.05429284                0.99999998               -0.57327422               -0.04715023                0.15778454                0.74688311                0.16907277               -0.00528377
               4.04839782                9.98351855               50.05751057                0.01000003               -1.28138821                0.23622686                0.17615514                1.01335260                0.75034174               -0.30958586
               5.03379098                9.99665783               50.06063950                0.01000001               -1.20608998                0.37044965                0.19691910                0.61181006                0.53163173               -0.03456868
               6.02427602               10.00304552               50.06483101                0.01000000               -0.85330758                0.27057527                0.19545292                0.23026908                0.53406670                0.01586536
               7.01672483               10.00597875               50.07005190                0.01000001               -0.74189500                0.22010823                0.19202118                0.05425114                0.64193897                0.06486493
               8.00943812               10.00621573               50.07727093                0.01000000               -0.76721970                0.27368980                0.18653824               -0.27970537                0.80282853                0.17842500
               9.00138044               10.00024477               50.08602497                0.99999999               -0.42873583               -0.05237769                0.17345552               -0.26409323                0.44559419                0.00042997
              10.00086341                9.99955544               50.08587570                1.00000000               -0.05170291               -0.05171262                0.17145532                0.00067481                0.00041366               -0.00041375
              -0.02345673                0.00315921               51.04037893                0.99161939               -0.02330998               -0.02178327                0.07146135                0.00242716               -0.00794182                0.00772304
               0.97631017                0.00054415               51.04289742                1.00000000               -0.02514925               -0.02568680                0.08401130                0.00200960               -0.00852638               -0.00142093
               1.97604028               -0.00206025               51.04540440                0.01000000               -0.00832419               -0.02963082                0.09654203                0.07357171               -0.05670799               -0.00362926
               2.97614368               -0.00322254               51.04695536                0.01000000               -0.02645199               -0.01841773                0.18164501                0.05162683               -0.10114174                0.02298190
               3.97551124               -0.00050845               51.04898763                0.01000000               -0.14476633                0.04947254                0.11327497                0.22699175               -0.10095420                0.03648797
               4.97324836                0.00754712               51.05028624                0.01000000               -0.49454492                0.11441885                0.10932958                0.60715115               -0.13336911               -0.01631384
               5.96562034                0.02449249               51.05061550                0.02018989               -0.50807072               -0.02509669                0.07840431                0.67093625                0.07127136               -0.07929373
               6.96308694                0.03085063               51.05405994                0.97264895               -0.14128812               -0.02921463                0.09368180                0.20318204                0.04813319               -0.00112648
               7.96279458                0.03319486               51.05656551                1.00000000               -0.03041957               -0.03170031                0.10165289                0.00123514                0.00177525                0.00008591
               8.96247855                0.03556276               51.05907896                1.00000000               -0.03278182               -0.03407567                0.10960036                0.00124177                0.00196004                0.00115625
               9.96213895                0.03795616               51.06158138                1.00000000               -0.03396061               -0.03656946                0.11758702                0.00001410                0.00189891                0.00304577
              -0.02081740                1.00294137               51.04076182                1.00000000               -0.02426070               -0.02220282                0.07458973                0.00053191                0.00131856                0.00816180
               0.97893999                1.00028728               51.04328124                0.12824540               -0.02616264               -0.02623438                0.08715382                0.00009218                0.00413142               -0.00430970
               1.97865935                0.99764344               51.04585826                0.01000000               -0.15279700               -0.02991783                0.09989877                0.07857063               -0.04623213               -0.03605496
               2.97588405                0.99659328               51.04736741                0.01000001               -0.31315082               -0.00374148                0.17577132                0.22510650               -0.14591163                0.06560525
               3.97239633                0.99998628               51.04974558                0.01000000               -0.45323262                0.04397172                0.12530167                0.52551295               -0.05753878                0.00902123
               4.96681940                1.00869131               51.05118822                0.01000000               -0.58591895                0.04757082                0.13901359                0.99787022               -0.11125729               -0.02905591
               5.96067795                1.02424152               51.05158981                0.01000001               -0.30259099               -0.31758993                0.14654859                1.04529982               -0.10787137               -0.03520429
               6.96076758                1.03055848               51.05353795                0.95685985               -0.01135420               -0.03037386                0.10154085                0.20111982               -0.02740312               -0.00116255
               7.96045087                1.03287786               51.05604616                0.99999999               -0.03286299               -0.03285981                0.10953285                0.00002623                0.00056584                0.00021047
               8.96011032                1.03522201               51.05855709                0.99999999               -0.03525878               -0.03525037                0.11752333                0.00001306                0.00036614                0.00170262
               9.95974569                1.03759046               51.06106158                0.99999999               -0.03646288               -0.03774829                0.12552364               -0.00120051                0.00017187                0.00458378
              -0.01813790                2.00271515               51.04115648                0.01000000               -0.02521530                0.04151935                0.07780939                0.05468188                0.00323143                0.09745330
               0.98160994                2.00001946               51.04360568                0.01000000               -0.02781994               -0.08110528                0.09017565                0.04358372               -0.01678062                0.07724716
               1.98130570                1.99734140               51.04565731                0.01000001               -0.16534817               -0.09355579                0.04379793                0.13090611                0.01176249                0.06634120
               2.97830298                1.99670263               51.04840112                0.01000000               -0.36911111               -0.04524456                0.13616508                0.50176264                0.00840882                0.08058059
               3.97392347                2.00037099               51.05055619                0.01000000               -0.46762321               -0.03348791                0.13744317                0.95410583               -0.04952684                0.01167209
               4.96895051                2.00849853               51.05207390                0.01000001               -0.46321559               -0.12572534                0.13989961                1.32933906               -0.09033290               -0.00676606
               5.96465916                2.01814069               51.05322199                0.01000000               -0.52387535               -0.44585601                0.13937504                1.59088534               -0.19305648                0.04508141
               6.95847301                2.03024315               51.05301699                0.01000000               -0.32637897               -0.34034713                0.10937712                0.97366331               -0.13594276                0.12957033
               7.95813158                2.03253766               51.05552788                0.23036973               -0.03534013               -0.03505322                0.11741503                0.00002190               -0.00052462                0.00953510
               8.95776620                2.03485776               51.05804172                0.99999999               -0.03767816               -0.03755847                0.12547206                0.00008375               -0.00029327                0.00130726
               9.95737802                2.03720119               51.06056487                0.99999999               -0.03881852               -0.04013389                0.13346784               -0.00118047               -0.00004599                0.00470043
              -0.01433238                3.00377176               51.04332952                0.01000005               -0.04821957                0.10009946                0.08043192                0.05474236               -0.00865206                0.19322698
               0.98518542                2.99866517               51.04562019                0.01000001               -0.05366577               -0.16510100                0.08696588                0.17008935               -0.02628174                0.18578267
               1.98459430                2.99577233               51.04773635                0.01000000               -0.11478550               -0.22549689                0.11097707                0.42591604               -0.04448065                0.16581565
               2.98288971                2.99568839               51.04978902                0.01000000               -0.24558820               -0.18771760                0.11791074                0.83740378               -0.04732690                0.09194972
               3.97968254                2.99931652               51.05162435                0.01000002               -0.36266187               -0.18652459                0.13237997                1.27736724               -0.06190997                0.03969744
               4.97563647                3.00617680               51.05313910                0.01000000               -0.44657502               -0.26358439                0.13878570                1.63092621               -0.09893311                0.03286171
               5.97075104                3.01532440               51.05422921                0.01000001               -0.48962995               -0.34074037                0.13735952                1.73832934               -0.14124249                0.07808764
               6.96584388                3.02375154               51.05511796                0.01000001               -0.74571684               -0.52417892                0.13268923                1.81736384               -0.19639664                0.21241457
               7.95583670                3.03217679               51.05520014                0.01000000               -0.51977051               -0.36373518                0.12497329                1.43929569               -0.13356215                0.20325971
               8.95544847                3.03447084               51.05751426                0.01000000               -0.04007469               -0.43103481                0.13345535                1.08286162               -0.01176034                0.16549519
               9.95503521                3.03678779               51.06004638                0.99999998               -0.04132579               -0.95544089                0.14140803                1.27551526               -0.00142608                0.13594252
              -0.00682988                4.00471714               51.04533860                0.01000000               -0.01589541                0.03687766                0.08427353                0.19457719               -0.01669000                0.21144370
               0.99301116                3.99671744               51.04769779                0.01000000               -0.01846564               -0.25132991                0.08515286                0.42898225               -0.04957669                0.22475377
               1.99280080                3.99283146               51.04961999                0.01000000               -0.07521507               -0.33687305                0.09896167                0.84661329               -0.08287213                0.16124844
               2.99150686                3.99294827               51.05127012                0.01000150               -0.19091987               -0.32981397                0.11756820                1.22740630               -0.08070590                0.08865897
               3.98898241                3.99664050               51.05286913                0.01000000               -0.29728539               -0.31999762                0.13069160                1.58475021               -0.06570972                0.04831551
               4.98556115                4.00322685               51.05439491                0.01000001               -0.35657001               -0.34120081                0.13979562                1.84414912               -0.06428046                0.05917875
               5.98185101                4.01132589               51.05581942                0.01000001               -0.37966285               -0.42190322                0.14407907                2.01971927               -0.07430228                0.12290073
               6.97796790                4.01975957               51.05709638                0.01000083               -0.28264033               -0.50049940                0.14549647                2.02246179               -0.07091902                0.21607738
               7.97619820                4.02526296               51.05856937                0.01000002               -0.15777269               -0.70506194                0.14865458                2.10001944               -0.04318302                0.34078907
               8.97481244                4.02623706               51.06029191                0.01000000                0.10281130               -0.83971494                0.15469043                1.48441652               -0.01857654                0.32504481
               9.97825443                4.01809238               51.06218042                0.01000003                0.34419831               -1.36556454                0.16498150                1.12241513                0.00144882                0.25011500
               0.00555856                5.00450931               51.04731806                0.01000003                0.00921885               -0.14992666                0.07967192                0.33660280               -0.05205412                0.22175435
               1.00565075                4.99363858               51.04977803                0.01000000               -0.01314134               -0.32808302                0.06782506                0.71198977               -0.12591948                0.26837839
               2.00529573                4.98903487               51.05129620                0.01000001               -0.10109751               -0.40623623                0.09153495                1.17843983               -0.14613633                0.14667147
               3.00362880                4.98909211               51.05267252                0.01000000               -0.20983819               -0.42059783                0.11482572                1.55181315               -0.08740162                0.04959329
               4.00109897                4.99291657               51.05413467                0.01000001               -0.28973666               -0.38909554                0.13358760                1.79592210               -0.03719951                0.02697164
               4.99783407                4.99935278               51.05582039                0.01000001               -0.32431382               -0.39934184                0.14484277                1.95684049                0.00131602                0.05578224
               5.99461269                5.00688634               51.05766597                0.01000001               -0.27390147               -0.45284380                0.15204280                1.97803194                0.02589855                0.13030172
               6.99235604                5.01374155               51.05961133                0.01000008               -0.16265451               -0.58269174                0.15730674                1.88043568                0.04034927                0.23246355
               7.99135960                5.01807555               51.06158270                0.01000000               -0.00243285               -0.69252716                0.16270280                1.55747968                0.04342139                0.31553885
               8.99230738                5.01767654               51.06345873                0.01000000                0.12066372               -0.75794609                0.17025343                1.02436235                0.03046411                0.34358100
               9.99377288                5.00947650               51.06503537                0.01000000                0.14654986               -0.60740364                0.18142430                0.49225365                0.02105406                0.29052510
               0.02164365                6.00171861               51.04824277                0.01000001                0.10817559               -0.65339159                0.10954372                0.73396553               -0.21722024                0.49852556
               1.02272541                5.99015578               51.05140936                0.01000001               -0.03637906               -0.39057730                0.03887327                1.01996326               -0.22713563                0.27545917
               2.02091607                5.98470673               51.05276903                0.01000000               -0.20319916               -0.44069084                0.08259111                1.58928680               -0.13398349                0.01783500
               3.01866142                5.98453632               51.05371582                0.01000001               -0.31379477               -0.41226418                0.12290852                1.69476341               -0.05318062               -0.01878572
               4.01464017                5.98885858               51.05522469                0.01000001               -0.39666163               -0.41113614                0.14062218                1.89902791                0.02929204               -0.02536048
               5.01072819                5.99524001               51.05722684                0.01000001               -0.38086496               -0.37749975                0.15242291                1.90663136                0.09808105                0.01909842
               6.00702288                6.00226901               51.05965566                0.01000001               -0.31703966               -0.41124766                0.16106640                1.78036104                0.14784181                0.11201801
               7.00438740                6.00810574               51.06231428                0.01000000               -0.18050332               -0.49665670                0.16729365                1.49004253                0.16711893                0.23106063
               8.00341281                6.01141242               51.06493063                0.01000000               -0.02443248               -0.59317166                0.17296005                1.10786718                0.14912983                0.33923193
               9.00389875                6.01107814               51.06713653                0.01000000                0.05433881               -0.56774157                0.18006148                0.60941308                0.09121763                0.39770098
              10.00449958                6.00594430               51.06855095                0.01000000                0.06008367               -0.23080181                0.19113022                0.28705837                0.05159531                0.36396325
               0.04336353                6.99144148               51.05241588                0.93703347               -0.03016369               -0.52744820                0.09013417                0.80715060               -0.01262631                0.18115179
               1.04306189                6.98582703               51.05276776                0.84976567               -0.03312965               -0.23329237                0.11087802                0.73796139               -0.01424166                0.03097512
               2.04270093                6.98022105               51.05309142                0.01000000               -0.48448369               -0.24432213                0.13054387                1.12189630                0.02928821               -0.02945488
               3.03337222                6.98084682               51.05432943                0.01000001               -0.71625479               -0.51957307                0.13989943                1.68540384                0.05237636               -0.08142011
               4.02837584                6.98469384               51.05598418                0.01000001               -0.54079735               -0.34939537                0.14933956                1.77914041                0.12145356               -0.09755491
               5.02255627                6.99180279               51.05846835                0.01000001               -0.55108265               -0.30139651                0.16203442                1.79362672                0.22356070               -0.04774547
               6.01735418                6.99866139               51.06163384                0.01000000               -0.47713938               -0.24797723                0.17092477                1.48082781                0.29878906                0.07153181
               7.01301348                7.00380842               51.06522545                0.01000000               -0.34048177               -0.30755034                0.17664852                1.02922544                0.32172580                0.22047290
               8.01054455                7.00621212               51.06878304                0.01000000               -0.15248625               -0.41962435                0.18055089                0.55978442                0.28527419                0.39221754
               9.00996376                7.00632171               51.07169715                0.01000002               -0.03814162               -0.41907161                0.18517628                0.21867332                0.17341900                0.50385951
              10.00978172                7.00486046               51.07310632                0.01000000               -0.01820389               -0.07057344                0.19397089                0.06173458                0.09194906                0.52202675
               0.04901557                7.99116964               51.05321848                1.00000000               -0.03105009               -0.02759165                0.09285606                0.00050962               -0.00304156                0.01607385
               1.04870507                7.98548993               51.05357008                0.99999999               -0.03406834               -0.03409863                0.11366881                0.00017411               -0.00341309                0.00386270
               2.04833420                7.97982029               51.05391433                0.22852985               -0.04041815               -0.04063993                0.13416828               -0.00059653                0.00390534               -0.00701296
               3.04789671                7.97414486               51.05442388                0.01000000               -0.45335916               -0.35837228                0.15680323                1.11341090                0.08604175               -0.06768283
               4.03926702                7.98187068               51.05643212                0.01000003               -0.76317610               -0.40245502                0.15971370                1.93433223                0.23209033               -0.22181818
               5.03263318                7.98921208               51.05948662                0.01000000               -0.73166095               -0.08773132                0.17343648                1.60529227                0.38711299               -0.12448095
               6.02463380                7.99730947               51.06350774                0.01000000               -0.76060048                0.00406391                0.18323320                1.14542303                0.46333804                0.02630703
               7.01742117                8.00195473               51.06810419                0.01000000               -0.62692953               -0.04306088                0.18559240                0.54527150                0.50938720                0.18649468
               8.01209521                8.00301993               51.07338641                0.01000002               -0.38986491               -0.15206500                0.18549329               -0.00957901                0.47650598                0.38352057
               9.00962388                8.00269671               51.07754959                0.01000000               -0.17192189               -0.26914151                0.18529850               -0.38023483                0.31130317                0.80675191
              10.00865677                8.00453283               51.07970265                0.01000001               -0.09671040               -0.23130304                0.18881446               -0.28935272                0.19700917                0.71738382
               0.05473314                8.99088965               51.05408516                1.00000000               -0.03184153               -0.02840367                0.09548563                0.00056288                0.00294244                0.01598099
               1.05441472                8.98514506               51.05439408                0.99999999               -0.03495301               -0.03496192                0.11651475                0.00011726                0.00321158                0.00314274
               2.05403408                8.97940825               51.05470502                1.00000000               -0.04123390               -0.04148128                0.13768452               -0.00003001               -0.00099227               -0.00535744
               3.05359005                8.97367938               51.05493744                0.01962712               -0.10194100               -0.04743500                0.15901031                0.43432357                0.04670372               -0.02606777
               4.05199526                8.97664474               51.05622075                0.01000000               -0.71833601               -0.21011999                0.15950568                1.46467205                0.42356641               -0.29259901
               5.03922333                8.99004816               51.06074123                0.01000000               -1.22376342                0.24639366                0.20427625                1.23200769                0.58569100               -0.13509792
               6.02751999                8.99874267               51.06521821                0.01000000               -1.05074399                0.21404822                0.19354605                0.65302751                0.56660426                0.00692417
               7.01820845                9.00294720               51.07057469                0.01000002               -0.89544976                0.16296871                0.19335888                0.19355248                0.62872909                0.11326924
               8.00961100                9.00317082               51.07708969                0.01000007               -0.86811457                0.14558393                0.18912017               -0.23240677                0.88864874                0.25901646
               9.00084616                9.00093888               51.08793563                1.00000000               -0.46442948               -0.11408219                0.17548114               -0.55081586                0.55033046                0.52852967
              10.00032241                9.00023440               51.08776631                1.00000000               -0.05237489               -0.24077648                0.17346113               -0.45194605               -0.00041887                0.41155604
               0.06051601                9.99060157               51.05487761                1.00000000               -0.03271996               -0.02880806                0.09832597               -0.00280031                0.01369341                0.01285733
               1.06018881                9.98479069               51.05518539                0.99999999               -0.03583653               -0.03543634                0.11941161               -0.00313645                0.01819287                0.00149804
               2.05979928                9.97899066               51.05557595                0.99999999               -0.04210646               -0.04175864                0.14054110               -0.00320671                0.01829935               -0.00191809
               3.05934668                9.97319616               51.05589010                0.98550601               -0.38038023               -0.04832222                0.16159343                0.50954433                0.17789185               -0.00530300
               4.05219168                9.97766828               51.05948864                0.01000001               -1.20856336                0.10235331                0.22893796                1.06683152                0.65325858               -0.26197337
               5.03517542                9.99413995               51.06276768                0.01000001               -1.36981836                0.40917907                0.20114856                0.79131657                0.47421466               -0.07193936
               6.02479531               10.00159043               51.06685347                0.01000000               -0.91556738                0.28477641                0.20326716                0.28123962                0.49386560                0.01492960
               7.01686407               10.00521411               51.07201396                0.01000001               -0.76699556                0.22669056                0.19741142                0.08262112                0.61928752                0.06676812
               8.00945540               10.00593161               51.07915821                0.01000000               -0.76600443                0.27607878                0.18985461               -0.25551199                0.78547408                0.17779112
               9.00154398               10.00041506               51.08775978                0.99999999               -0.42142961               -0.05238148                0.17350932               -0.24093273                0.43897513                0.00043067
              10.00102681                9.99971730               51.08759045                1.00000000               -0.05171736               -0.05170945                0.17148932                0.00066424                0.00041582               -0.00041549
              -0.02611806                0.00283834               52.04109519                0.99184662               -0.02330087               -0.02193929                0.07179605                0.00239421               -0.00804144                0.00775355
               0.97364893                0.00013022               52.04373568                1.00000000               -0.02503254               -0.02561451                0.08361523                0.00189695               -0.00860601               -0.00149048
               1.97338129               -0.00256635               52.04636459                0.01139268               -0.00440602               -0.02927818                0.09541103                0.07265317               -0.03549799               -0.00362508
               2.97356081               -0.00383527               52.04846248                0.01000000               -0.00976523               -0.00333345                0.12305338                0.08457218               -0.06514862               -0.01471761
               3.97318599               -0.00116712               52.05013051                0.01000000               -0.11304193                0.03655555                0.11671129                0.20496509               -0.07608455                0.01082748
               4.97129997                0.00623325               52.05141625                0.01000000               -0.41977588                0.10089005                0.11518853                0.53372827               -0.10620012               -0.01828238
               5.96479047                0.02206175               52.05147196                0.01489017               -0.53734146               -0.00555776                0.11351365                0.64040610                0.15260941               -0.15646661
               6.96055315                0.03132198               52.05499525                0.97213610               -0.22639076               -0.02930371                0.09339291                0.34791331                0.04815495               -0.00112547
               7.96026265                0.03367556               52.05757795                1.00000000               -0.03015217               -0.03163132                0.10084142                0.00116038                0.00169403                0.00006694
               8.95995010                0.03605656               52.06016831                1.00000000               -0.03236141               -0.03385321                0.10826635                0.00117686                0.00189442                0.00114889
               9.95961543                0.03846667               52.06274810                1.00000000               -0.03346764               -0.03618144                0.11574912               -0.00023456                0.00185956                0.00302552
              -0.02338600                1.00261895               52.04151110                1.00000000               -0.02437502               -0.02242171                0.07527222                0.00062282                0.00134805                0.00821464
               0.97637025                0.99987408               52.04415255                0.01000000               -0.02617146               -0.02623464                0.08713246                0.00013947                0.00416777               -0.00442937
               1.97609057                0.99714087               52.04685253                0.01000000               -0.13316656               -0.00770474                0.09906363                0.09970304               -0.02402737               -0.08626236
               2.97370692                0.99613140               52.04892785                0.01000001               -0.29445947               -0.00135920                0.13868573                0.20563761               -0.02665514                0.02219952
               3.97020138                0.99919844               52.05099776                0.01000000               -0.43420469                0.03311806                0.12459321                0.47885413               -0.02539984               -0.00240378
               4.96502282                1.00724215               52.05261295                0.01000000               -0.57756080                0.05082487                0.13406340                0.91581603               -0.04075431               -0.05836682
               5.95865016                1.02200617               52.05316591                0.01000001               -0.33987252               -0.25087286                0.15707094                1.06342950               -0.02281886               -0.13132010
               6.95822537                1.03102894               52.05455747                0.95162034               -0.03715995               -0.03062575                0.10236165                0.33603438               -0.05910172               -0.00117584
               7.95790696                1.03335925               52.05714304                0.99999999               -0.03295272               -0.03295100                0.10983780                0.00002887                0.00056363                0.00018811
               8.95756632                1.03571803               52.05973137                0.99999999               -0.03519935               -0.03519667                0.11732995                0.00002209                0.00037617                0.00170489
               9.95720298                1.03810485               52.06231342                0.99999999               -0.03633407               -0.03752476                0.12484115               -0.00136176                0.00018735                0.00458495
              -0.02061587                2.00238990               52.04193939                0.01000001               -0.02543289                0.04855650                0.07877331                0.05303500                0.00327056                0.09603608
               0.97912980                1.99960553               52.04450929                0.01000000               -0.01330487               -0.07335651                0.09059862                0.05948095               -0.06683648                0.07209138
               1.97911803                1.99727955               52.04568138                0.01000001               -0.17569052               -0.09289811                0.12460607                0.12066439               -0.05184485                0.02919633
               2.97561599                1.99613755               52.05001280                0.01000000               -0.37328576               -0.05262633                0.13242420                0.44910933                0.03550702                0.03592172
               3.97165232                1.99949524               52.05188729                0.01000000               -0.44037159               -0.03806014                0.12793242                0.91329758               -0.05019612               -0.00188668
               4.96680856                2.00724974               52.05345771                0.01000001               -0.46900272               -0.10025088                0.13027465                1.29295795               -0.06883390               -0.04705813
               5.96227226                2.01704429               52.05460449                0.01000000               -0.54439014               -0.36466157                0.12800275                1.65616094               -0.21131992               -0.00061072
               6.95592076                2.03070946               52.05412046                0.01000000               -0.33490618               -0.36220334                0.11129807                1.05477607               -0.15369928                0.13670825
               7.95557414                2.03301654               52.05670921                0.24205004               -0.03579083               -0.03550472                0.11883476               -0.00003351               -0.00042690                0.00942782
               8.95520494                2.03535263               52.05930112                0.99999995               -0.03797950               -0.03784844                0.12640705                0.00005751               -0.00023294                0.00132808
               9.95481455                2.03771617               52.06190195                0.99999999               -0.03903900               -0.04025015                0.13394679               -0.00134964               -0.00002109                0.00474259
              -0.01675656                3.00359008               52.04411708                0.01000005               -0.05732258                0.11837184                0.07915884                0.04635323               -0.01160374                0.18783390
               0.98267022                2.99840695               52.04645766                0.01000001               -0.06358019               -0.14326778                0.08702066                0.14898439               -0.01176424                0.16977259
               1.98197184                2.99528290               52.04897060                0.01000000               -0.10984034               -0.23886428                0.10352838                0.38982232               -0.02609856                0.17761228
               2.98047341                2.99507887               52.05092467                0.01000000               -0.23083529               -0.19311197                0.11624627                0.83175574               -0.05103351                0.04129328
               3.97735513                2.99843724               52.05293563                0.01000001               -0.35702395               -0.18496241                0.12505642                1.26270130               -0.05457513                0.01783879
               4.97333293                3.00523713               52.05449981                0.01000000               -0.45207359               -0.24195832                0.13051337                1.64354551               -0.10033122                0.01570894
               5.96831366                3.01471294               52.05558276                0.01000001               -0.49921434               -0.31297721                0.13153434                1.79925865               -0.14870984                0.06716374
               6.96334865                3.02378487               52.05644853                0.01000001               -0.75252676               -0.55379692                0.13281791                1.89234407               -0.20961104                0.22105589
               7.95326313                3.03264915               52.05646395                0.01000000               -0.52404030               -0.37850787                0.12799225                1.48585789               -0.14062056                0.21086711
               8.95286784                3.03496106               52.05885906                0.01000000               -0.04071116               -0.44343779                0.13551115                1.11065210               -0.01164646                0.17245542
               9.95244890                3.03729985               52.06146869                0.99999997               -0.04189355               -0.98211483                0.14306288                1.30926250               -0.00148615                0.14458111
              -0.00932255                4.00475734               52.04615815                0.01000000               -0.02607869                0.06750072                0.08215720                0.16621933               -0.01252035                0.18835707
               0.99041666                3.99674018               52.04848310                0.01000000               -0.02174452               -0.22910883                0.07886671                0.39130530               -0.03125904                0.17229140
               1.99024256                3.99250227               52.05051686                0.01000000               -0.06599439               -0.33197464                0.09212044                0.81586191               -0.05123386                0.11048182
               2.98909677                3.99227531               52.05241165                0.01000001               -0.17472365               -0.33847461                0.11069292                1.21081610               -0.05393498                0.06584725
               3.98674809                3.99579600               52.05414418                0.01000000               -0.28465051               -0.32405545                0.12495462                1.59566199               -0.05634036                0.03560350
               4.98340376                4.00241058               52.05577366                0.01000001               -0.35191967               -0.33903846                0.13496773                1.88461458               -0.06335612                0.05396911
               5.97970969                4.01078475               52.05725238                0.01000001               -0.37861689               -0.42362565                0.14147824                2.09144867               -0.07961191                0.12440726
               6.97583143                4.01963352               52.05855736                0.01000002               -0.27972909               -0.51759179                0.14594846                2.10268065               -0.07783441                0.22269429
               7.97411511                4.02544638               52.06007230                0.01000001               -0.15320688               -0.73102278                0.15150992                2.16970602               -0.04893140                0.35362995
               8.97276729                4.02648387               52.06186100                0.01000000                0.11035596               -0.86462241                0.15901370                1.52897915               -0.02129392                0.33790743
               9.97632223                4.01807387               52.06385939                0.01000000                0.35549409               -1.40608414                0.17101831                1.15349276               -0.00021074                0.26694002
               0.00260216                5.00494009               52.04801005                0.01000003                0.01492370               -0.16004247                0.08668101                0.32729949               -0.02736050                0.20501007
               1.00275140                4.99382477               52.05025939                0.01000000                0.00758925               -0.36024887                0.06492781                0.70187429               -0.04555361                0.15589946
               2.00275395                4.98864341               52.05212802                0.01000001               -0.06776969               -0.41947002                0.08595443                1.15257399               -0.05823720                0.09322221
               3.00139601                4.98830938               52.05376141                0.01000000               -0.18104208               -0.44015539                0.11005845                1.55732848               -0.04900604                0.04102919
               3.99913311                4.99195613               52.05544829                0.01000001               -0.26797668               -0.40702987                0.13058149                1.82711152               -0.02165826                0.02701733
               4.99603647                4.99845636               52.05726396                0.01000001               -0.31067080               -0.41645596                0.14375417                2.01582448                0.00299115                0.06019884
               5.99291969                5.00624043               52.05919226                0.01000001               -0.26479236               -0.46966314                0.15237566                2.05807804                0.02111266                0.13796972
               6.99074062                5.01343304               52.06119733                0.01000001               -0.15563951               -0.60156181                0.15883160                1.96550140                0.03298346                0.24198254
               7.98980690                5.01802870               52.06322843                0.01000000                0.00396549               -0.71244002                0.16550883                1.62721765                0.03639211                0.32508924
               8.99081993                5.01766861               52.06518667                0.01000000                0.12659313               -0.77793374                0.17479027                1.06563175                0.02593897                0.35287402
               9.99233876                5.00917817               52.06688675                0.01000000                0.15188275               -0.62701966                0.18876111                0.51134873                0.01805830                0.30126262
               0.01945407                6.00155649               52.05009083                0.01000003                0.12967528               -0.70949484                0.15382926                0.80680279               -0.00524230                0.24387716
               1.02075083                5.98953520               52.05191868                0.01000001               -0.03223210               -0.43914693                0.07554202                1.11410493               -0.00425091                0.11831275
               2.01880943                5.98411287               52.05346956                0.01000000               -0.19100997               -0.46519246                0.08619023                1.66458674               -0.03578680                0.04115612
               3.01693063                5.98347220               52.05491904                0.01000001               -0.28330491               -0.43098276                0.12183454                1.72743857               -0.01024827               -0.00767190
               4.01314333                5.98765540               52.05663493                0.01000001               -0.37473380               -0.44470098                0.14249262                1.94550936                0.03961759               -0.01621037
               5.00943595                5.99408146               52.05877207                0.01000001               -0.36243799               -0.41406911                0.15669460                1.98005667                0.09726964                0.03147760
               6.00589457                6.00139149               52.06129219                0.01000000               -0.30413836               -0.43921208                0.16527909                1.87422490                0.14071596                0.12624120
               7.00335319                6.00760229               52.06401168                0.01000000               -0.17353431               -0.51537233                0.17084389                1.58236783                0.15688729                0.24431305
               8.00242389                6.01119758               52.06668249                0.01000000               -0.02113638               -0.60575824                0.17614364                1.18050410                0.13920162                0.34952828
               9.00293046                6.01092520               52.06896210                0.01000000                0.05531072               -0.57572436                0.18412855                0.64938470                0.08460758                0.40418797
              10.00353010                6.00553348               52.07050008                0.01000000                0.05996452               -0.23433682                0.19818582                0.30530562                0.04751836                0.36806212
               0.04278080                6.99075019               52.05331522                0.93724379               -0.03036818               -0.55378542                0.08974635                0.88290122               -0.01273401                0.13224676
               1.04247712                6.98504183               52.05388480                0.82603572               -0.03360621               -0.24171639                0.11251589                0.80284345               -0.01495382                0.05997398
               2.04210868                6.97933956               52.05441403                0.01000000               -0.50374388               -0.25917860                0.13393903                1.18400893                0.02128430                0.00077250
               3.03240224                6.97968972               52.05572326                0.01000001               -0.73373228               -0.51609954                0.14245395                1.70933002                0.04902971               -0.06206241
               4.02743403                6.98306211               52.05750240                0.01000001               -0.52503639               -0.40792778                0.16044020                1.81874558                0.12040124               -0.08555602
               5.02190152                6.99017498               52.06014502                0.01000001               -0.52753387               -0.36140871                0.17299334                1.88784275                0.21876141               -0.02801420
               6.01688336                6.99745619               52.06339794                0.01000000               -0.46598166               -0.28011305                0.18058003                1.59482695                0.28602018                0.09285209
               7.01258188                7.00312559               52.06703096                0.01000000               -0.33946433               -0.32220036                0.18280881                1.13005605                0.30669792                0.23751472
               8.01009407                7.00591353               52.07061578                0.01000000               -0.15550760               -0.42395252                0.18455684                0.63433175                0.27200075                0.40331578
               9.00947173                7.00615413               52.07357122                0.01000002               -0.04328790               -0.41347827                0.18858191                0.25917147                0.16476557                0.50768622
              10.00922831                7.00449143               52.07507831                0.01000000               -0.02434195               -0.05842401                0.19966759                0.07901845                0.08671684                0.51802603
               0.04852882                7.99048078               52.05414207                1.00000000               -0.03104900               -0.02725963                0.09184724                0.00039842               -0.00318105                0.01577659
               1.04821833                7.98470087               52.05471152                0.99999999               -0.03435481               -0.03437917                0.11461710                0.00017198               -0.00371348                0.00374202
               2.04784172                7.97892929               52.05527022                0.24206054               -0.04118227               -0.04149537                0.13702134               -0.00058465                0.00336693               -0.00628578
               3.04739468                7.97315021               52.05599270                0.01000000               -0.44043655               -0.35088922                0.15875537                1.06797888                0.07968122               -0.05930845
               4.03903299                7.97949684               52.05809879                0.01000001               -0.72979778               -0.54071657                0.16780186                1.92178950                0.21901670               -0.22132872
               5.03279873                7.98685328               52.06133630                0.01000000               -0.70962459               -0.16023309                0.19889112                1.72717927                0.36985366               -0.09258434
               6.02484050                7.99578923               52.06541580                0.01000000               -0.76508839               -0.01618333                0.19559211                1.27770256                0.43886199                0.04990774
               7.01749696                8.00115828               52.07001137                0.01000000               -0.63792554               -0.04961587                0.19406898                0.64089762                0.48772092                0.20412478
               8.01208199                8.00271853               52.07527158                0.01000002               -0.39804840               -0.15130810                0.19000439                0.05917543                0.46031423                0.39429904
               9.00953599                8.00265563               52.07941888                0.01000004               -0.18230602               -0.25125908                0.18766078               -0.34020235                0.30169189                0.80417853
              10.00843587                8.00436500               52.08161004                0.01000001               -0.11001234               -0.20377700                0.19206732               -0.26559909                0.19189168                0.70323037
               0.05434860                8.99020500               52.05503223                1.00000000               -0.03165472               -0.02789448                0.09388447                0.00047200                0.00293143                0.01575171
               1.05403205                8.98435425               52.05556084                0.99999999               -0.03504747               -0.03505193                0.11683192                0.00012917                0.00328846                0.00310627
               2.05364765                8.97850965               52.05609273                1.00000000               -0.04188882               -0.04215000                0.13989345                0.00002763               -0.00078461               -0.00501183
               3.05319427                8.97267194               52.05654741                0.02373451               -0.07404494               -0.04867946                0.16309537                0.27036636                0.04926806               -0.02531803
               4.05216675                8.97224778               52.05809911                0.01000000               -0.65207771               -0.38767756                0.29998200                1.49253977                0.37620608               -0.32443639
               5.04015272                8.98697032               52.06287146                0.01000000               -1.20171693                0.21564219                0.20338167                1.39982332                0.54271447               -0.11771815
               6.02813241                8.99713252               52.06721330                0.01000000               -1.08410959                0.21421882                0.20763920                0.76147579                0.52313584                0.02390409
               7.01847053                9.00213327               52.07256116                0.01000002               -0.91760923                0.16386457                0.20043726                0.25318683                0.60315245                0.12457293
               8.00978023                9.00288737               52.07900799                0.01000000               -0.87246551                0.14579988                0.19325621               -0.18422648                0.86762262                0.26540337
               9.00102122                9.00112895               52.08969031                1.00000000               -0.46413139               -0.10252815                0.17545955               -0.51398887                0.54316303                0.52376794
              10.00049760                9.00041589               52.08950065                0.99999997               -0.05236196               -0.22330759                0.17340536               -0.43257968               -0.00042321                0.40386452
               0.06023976                9.98992289               52.05585008                1.00000000               -0.03235009               -0.02821070                0.09611783               -0.00319001                0.01370028                0.01274641
               1.05991626                9.98399983               52.05637835                1.00000000               -0.03575863               -0.03544182                0.11915300               -0.00340917                0.01825734                0.00151133
               2.05952459                9.97808629               52.05699004                0.99999998               -0.04261847               -0.04233594                0.14225349               -0.00346678                0.01838282               -0.00186102
               3.05906389                9.97217662               52.05752471                0.99999995               -0.24695885               -0.04953185                0.16532962                0.26981132                0.21524739               -0.00541714
               4.05458541                9.97174329               52.06208933                0.01000000               -1.15767198               -0.05044839                0.20910185                1.19134136                0.69514966               -0.20964208
               5.03591045                9.99116613               52.06466247                0.01000001               -1.48391763                0.41958117                0.19731462                0.99228841                0.39582235               -0.08720240
               6.02490706               10.00007360               52.06889635                0.01000000               -0.95523018                0.29410812                0.20051055                0.34093683                0.46008209                0.02579840
               7.01680585               10.00443557               52.07400013                0.01000001               -0.77526342                0.23022981                0.19788836                0.11157818                0.59171998                0.07016772
               8.00940179               10.00563453               52.08106803                0.01000000               -0.75390741                0.27471595                0.19068324               -0.22936888                0.76559929                0.17762949
               9.00172770               10.00060507               52.08949515                0.99999997               -0.40957001               -0.05238744                0.17356714               -0.21613622                0.43127070                0.00043170
              10.00121039                9.99989885               52.08930549                0.99999996               -0.05173090               -0.05170406                0.17151297                0.00065669                0.00041779               -0.00041755
              -0.02889853                0.00248247               53.04181485                0.99244407               -0.02328201               -0.02209905                0.07212228                0.00233137               -0.00811926                0.00771803
               0.97086865               -0.00031941               53.04456972                1.00000000               -0.02489717               -0.02555107                0.08318882                0.00177369               -0.00869432               -0.00149533
               1.97060352               -0.00310861               53.04731262                0.01000001                0.01030773               -0.02899824                0.09422768                0.07358617               -0.04099907               -0.00350842
               2.97107480               -0.00444764               53.04941642                0.01000000                0.02161301               -0.00654115                0.10743288                0.06720162               -0.05506389                0.01083472
               3.97103578               -0.00202641               53.05132185                0.01000000               -0.06459490                0.02078236                0.11318460                0.17853057               -0.06555357                0.00171657
               4.96978290                0.00478807               53.05259001                0.01000000               -0.29711275                0.06944420                0.11330329                0.40540884               -0.07902549               -0.00589861
               5.96509353                0.01797525               53.05288578                0.01000004               -0.59194287                0.05073367                0.14435052                0.66413261                0.17773176               -0.19284348
               6.95794405                0.03170368               53.05592779                0.97170613               -0.37190634               -0.02939211                0.09312059                0.57097621                0.02041823               -0.00110110
               7.95765540                0.03406603               53.05858234                1.00000000               -0.02988771               -0.03156647                0.10004769                0.00108140                0.00158877                0.00004690
               8.95734629                0.03645963               53.06124429                0.99999997               -0.03194218               -0.03363323                0.10693565                0.00111591                0.00178681                0.00113765
               9.95701656                0.03888602               53.06389636                1.00000000               -0.03297335               -0.03577104                0.11388699               -0.00048357                0.00177785                0.00296743
              -0.02607335                1.00226148               53.04226727                0.99999999               -0.02447323               -0.02262852                0.07595295                0.00067213                0.00137256                0.00817572
               0.97368192                0.99942508               53.04502389                0.01000000               -0.02615767               -0.02622033                0.08707217                0.00012495                0.00423652               -0.00443829
               1.97340350                0.99660141               53.04783953                0.01000000               -0.12381035               -0.05420715                0.09820590                0.01118179               -0.01836985               -0.01404789
               2.97120571                0.99548695               53.05014112                0.01000001               -0.26001327               -0.00640603                0.11964114                0.16562118               -0.03898522                0.00422808
               3.96820324                0.99818142               53.05223744                0.01000000               -0.36847763                0.02108954                0.11191497                0.42172113               -0.02091119               -0.01385220
               4.96383616                1.00548251               53.05386949                0.01000000               -0.49630930                0.04412209                0.10858023                0.76874529               -0.00404585               -0.06235181
               5.95827705                1.01848259               53.05473122                0.01000001               -0.41138717               -0.11318122                0.12569040                1.03018648                0.04623538               -0.17212094
               6.95560842                1.03140976               53.05558518                0.94630781               -0.14944037               -0.03087082                0.10317202                0.53090193               -0.08956247               -0.00116252
               7.95528824                1.03375037               53.05824291                0.99999999               -0.03304818               -0.03303620                0.11014247                0.00002592                0.00058891                0.00016674
               8.95494745                1.03612329               53.06090369                0.99999999               -0.03514575               -0.03515011                0.11714673                0.00002265                0.00040407                0.00168980
               9.95458533                1.03852831               53.06355840                1.00000000               -0.03621282               -0.03726235                0.12414117               -0.00152933                0.00020767                0.00456674
              -0.02321230                2.00202990               53.04273195                0.01000002               -0.02564828                0.05241018                0.07977773                0.05401565                0.00335735                0.09433186
               0.97653121                1.99915619               53.04541765                0.01000000               -0.10112028               -0.06691323                0.09092743                0.00960210                0.00546327                0.06999147
               1.97476529                1.99580725               53.04814943                0.01000001               -0.18620003               -0.10561555                0.19352391                0.12349344               -0.05621685               -0.00128102
               2.97280721                1.99542424               53.05104960                0.01000000               -0.26453234               -0.06857725                0.10210559                0.46432192               -0.01190128                0.01682517
               3.96947464                1.99839538               53.05311484                0.01000000               -0.39752885               -0.03825065                0.11236122                0.85294668               -0.04020604               -0.01582058
               4.96485664                2.00567051               53.05467939                0.01000001               -0.48523171               -0.06537422                0.11227798                1.22313996               -0.06819416               -0.05749085
               5.95977001                2.01571163               53.05578205                0.01000000               -0.57811647               -0.22314013                0.10776929                1.64834133               -0.22748162               -0.01513934
               6.95329431                2.03108626               53.05524295                0.01000000               -0.34138134               -0.38370004                0.11316473                1.14278632               -0.15991136                0.14215140
               7.95294238                2.03340531               53.05790458                0.25399064               -0.03627541               -0.03596661                0.12024375               -0.00020627               -0.00024428                0.00968051
               8.95256880                2.03575662               53.06056986                0.99999994               -0.03832235               -0.03816155                0.12736519               -0.00005978               -0.00014882                0.00130990
               9.95217594                2.03814078               53.06324380                0.99999999               -0.03928627               -0.04031726                0.13438396               -0.00154025                0.00001103                0.00482386
              -0.01924561                3.00330968               53.04491270                0.01000001               -0.06577736                0.12807044                0.08142039                0.05181918               -0.00691262                0.18198303
               0.98009661                2.99808682               53.04736060                0.01000001               -0.05745359               -0.13973248                0.09293942                0.13377348               -0.01247053                0.15236064
               1.97960532                2.99448910               53.04980692                0.01000000               -0.10962995               -0.19617838                0.09201823                0.45554378               -0.00904142                0.09561815
               2.97790401                2.99411540               53.05211395                0.01000000               -0.22947083               -0.19978820                0.11337168                0.84604690               -0.03420041                0.02959233
               3.97501590                2.99741640               53.05412548                0.01000008               -0.34606484               -0.17777400                0.11399253                1.25392836               -0.05281124                0.01028752
               4.97098272                3.00417503               53.05574937                0.01000000               -0.45938878               -0.20642180                0.11894168                1.64662881               -0.10212410                0.01770006
               5.96582812                3.01401979               53.05685990                0.01000001               -0.51061257               -0.27535481                0.12389355                1.86328930               -0.15049110                0.07667533
               6.96077047                3.02373576               53.05777432                0.01000001               -0.76071843               -0.58108036                0.13227596                1.96541133               -0.21589808                0.23202311
               7.95061375                3.03303103               53.05775999                0.01000000               -0.52798374               -0.39171138                0.13197511                1.52989267               -0.14585365                0.21773949
               8.95021079                3.03536006               53.06022449                0.01000000               -0.04137671               -0.45445130                0.13763561                1.13608047               -0.01198943                0.17982720
               9.94978622                3.03772197               53.06290764                0.99999999               -0.04245710               -1.00638293                0.14468139                1.34006502               -0.00161350                0.15502971
              -0.01173020                4.00459130               53.04698174                0.01000000               -0.02425374                0.06835761                0.08599986                0.16493808               -0.00652433                0.18237070
               0.98802727                3.99636154               53.04927513                0.01000000               -0.02111124               -0.23829142                0.08477585                0.39087383               -0.01109806                0.14002908
               1.98784758                3.99188368               53.05146240                0.01000000               -0.06132122               -0.32712422                0.09535460                0.80452943               -0.02393399                0.09252153
               2.98680084                3.99142848               53.05348398                0.01000001               -0.16769950               -0.33550520                0.10754779                1.21903090               -0.03351430                0.05153997
               3.98449359                3.99483990               53.05536822                0.01000000               -0.28075061               -0.32251172                0.12044780                1.61304789               -0.04604894                0.03650968
               4.98118583                4.00154207               53.05709426                0.01000001               -0.35092624               -0.33083390                0.12937226                1.92659147               -0.06170034                0.06252527
               5.97747507                4.01020453               53.05864898                0.01000001               -0.37972719               -0.42069294                0.13740751                2.15980186               -0.08275804                0.13643149
               6.97359129                4.01946466               53.06001535                0.01000000               -0.27795674               -0.53044381                0.14486959                2.17878093               -0.08242599                0.23349561
               7.97191593                4.02557108               53.06159957                0.01000002               -0.14959052               -0.75319392                0.15316492                2.23436472               -0.05371582                0.36657347
               8.97059948                4.02666760               53.06347218                0.01000000                0.11687500               -0.88635687                0.16290995                1.56995406               -0.02391323                0.35184485
               9.97425343                4.01801312               53.06560079                0.01000001                0.36539543               -1.44304518                0.17769283                1.18193493               -0.00227954                0.28764421
               0.00051269                5.00467683               53.04905168                0.01000000                0.01090306               -0.16501618                0.10093703                0.34508131               -0.00196166                0.18677064
               1.00062172                4.99332099               53.05107659                0.01000000                0.00581394               -0.37324551                0.08964221                0.72520859               -0.00749437                0.12583182
               2.00062896                4.98794661               53.05301529                0.01000001               -0.06466550               -0.43199191                0.09634397                1.17183517               -0.01680387                0.07634796
               2.99932841                4.98740530               53.05487369                0.01000000               -0.17328531               -0.45037200                0.11396054                1.57549053               -0.01823316                0.04212155
               3.99716326                4.99096617               53.05674630                0.01000001               -0.25892433               -0.41798180                0.13013109                1.86194771               -0.00831596                0.03867499
               4.99414992                4.99755835               53.05869548                0.01000001               -0.30308397               -0.42767885                0.14234838                2.07351241                0.00406150                0.07762225
               5.99110158                5.00560593               53.06071349                0.01000000               -0.25851910               -0.48081892                0.15068947                2.13455236                0.01481211                0.15616601
               6.98897954                5.01312688               53.06278796                0.01000001               -0.15017363               -0.61531428                0.15759024                2.04523933                0.02352246                0.25778305
               7.98809811                5.01796716               53.06489288                0.01000000                0.00941490               -0.72777245                0.16560475                1.69182720                0.02737624                0.33725071
               8.98916784                5.01763293               53.06695453                0.01000000                0.13178883               -0.79451255                0.17756641                1.10338698                0.02018726                0.36333807
               9.99073388                5.00886106               53.06881059                0.01000000                0.15660470               -0.64495644                0.19578821                0.52884151                0.01430934                0.31421209
               0.01788312                6.00129098               53.05131935                0.01000002                0.13785431               -0.73208262                0.11249169                0.83341527                0.00195904                0.22251567
               1.01926166                5.98889663               53.05292020                0.01000001               -0.03415720               -0.45436591                0.10428868                1.14975747                0.00769507                0.12845030
               2.01719997                5.98324384               53.05449284                0.01000000               -0.19852823               -0.47553835                0.10997679                1.70918023                0.00071485                0.05008290
               3.01529109                5.98242104               53.05615251                0.01000001               -0.28102378               -0.44366950                0.12808026                1.75862330                0.01412904                0.01198600
               4.01157950                5.98648027               53.05807454                0.01000001               -0.36373869               -0.47236554                0.14661859                1.98831491                0.04935388                0.01106744
               5.00801632                5.99298850               53.06036073                0.01000000               -0.34909585               -0.44400399                0.15953703                2.04969608                0.09370122                0.06080113
               6.00459758                6.00058815               53.06296124                0.01000001               -0.29407374               -0.46055528                0.16668726                1.96284735                0.12797739                0.15451861
               7.00213485                6.00715837               53.06573115                0.01000000               -0.16755750               -0.52839285                0.17076193                1.66887689                0.14052479                0.26678022
               8.00124643                6.01101563               53.06845350                0.01000000               -0.01807685               -0.61389074                0.17584180                1.24825880                0.12422713                0.36488598
               9.00177331                6.01077735               53.07081910                0.01000000                0.05637786               -0.58071387                0.18555066                0.68635299                0.07503283                0.41282559
              10.00237399                6.00511399               53.07251466                0.01000000                0.06006779               -0.23750243                0.20379872                0.32206377                0.04196458                0.37333250
               0.04196970                6.99003518               53.05421081                0.93826961               -0.03056949               -0.57614045                0.08938107                0.91634632               -0.01277945                0.11443197
               1.04166401                6.98423367               53.05501808                0.80079403               -0.03407711               -0.25039493                0.11415006                0.83208295               -0.01574197                0.06546866
               2.04128816                6.97843584               53.05577020                0.01000000               -0.51997813               -0.26139823                0.13725921                1.21093103                0.01358294                0.01693805
               3.03126444                6.97853191               53.05717851                0.01000001               -0.74630320               -0.51432531                0.14903840                1.72268384                0.05031838               -0.03859973
               4.02636209                6.98151886               53.05919299                0.01000001               -0.51142439               -0.48164412                0.16975498                1.84353074                0.11944440               -0.05559955
               5.02103596                6.98867827               53.06192822                0.01000001               -0.50867211               -0.41772683                0.18267460                1.97864475                0.20395463                0.02245324
               6.01618865                6.99639482               53.06524544                0.01000000               -0.45531785               -0.30479453                0.18521699                1.70095735                0.26213636                0.13178349
               7.01192960                7.00255902               53.06888163                0.01000000               -0.33721741               -0.33256689                0.18476751                1.22397394                0.28161630                0.26596829
               8.00944430                7.00568934               53.07247417                0.01000003               -0.15665303               -0.42509651                0.18487511                0.70535924                0.25135166                0.42078826
               9.00879654                7.00601865               53.07546879                0.01000002               -0.04712136               -0.40580791                0.18928877                0.29838081                0.15188828                0.51396803
              10.00850188                7.00411101               53.07709968                0.01000000               -0.02946608               -0.04694448                0.20345212                0.09615098                0.07944033                0.51373160
               0.04781306                7.98976817               53.05505543                1.00000000               -0.03104064               -0.02692544                0.09082040                0.00029735               -0.00331514                0.01546616
               1.04750265                7.98388873               53.05586242                0.99999999               -0.03463531               -0.03466632                0.11556661                0.00018440               -0.00404067                0.00358319
               2.04712035                7.97801588               53.05665476                0.25441277               -0.04204484               -0.04238266                0.13989943               -0.00052705                0.00226001               -0.00550273
               3.04666176                7.97213453               53.05759899                0.01000000               -0.44082999               -0.34454482                0.16337948                1.00680455                0.07092099               -0.05139086
               4.03830375                7.97684739               53.05978815                0.01000000               -0.69742520               -0.76766920                0.20607914                1.96663379                0.21743548               -0.07147221
               5.03271325                7.98463396               53.06346445                0.01000000               -0.67838913               -0.21553204                0.20853141                1.87861780                0.33980646               -0.03508484
               6.02473597                7.99449226               53.06741958                0.01000000               -0.76967230               -0.03273156                0.20306437                1.39887135                0.39210351                0.09544998
               7.01731981                8.00050703               53.07198557                0.01000003               -0.64209906               -0.05545612                0.19727078                0.72843200                0.45475453                0.23174514
               8.01189399                8.00251370               53.07718650                0.01000002               -0.40002773               -0.15034489                0.19109066                0.12720751                0.43587633                0.41107976
               9.00931925                8.00266119               53.08130281                0.01000002               -0.18908576               -0.23403453                0.18787512               -0.29591932                0.28789673                0.80291287
              10.00811227                8.00417510               53.08354400                0.01000001               -0.12069774               -0.17473848                0.19385603               -0.23904026                0.18540641                0.68671392
               0.05373454                8.98949667               53.05596285                1.00000000               -0.03145470               -0.02736953                0.09220724                0.00038841                0.00290432                0.01551708
               1.05341999                8.98354034               53.05673072                0.99999999               -0.03513611               -0.03514151                0.11713673                0.00014363                0.00332631                0.00307325
               2.05303182                8.97758819               53.05750288                1.00000000               -0.04254834               -0.04285256                0.14216384                0.00004509               -0.00062881               -0.00466732
               3.05256902                8.97164101               53.05819934                0.07477728                0.00817623               -0.05006511                0.16733789                0.02339339                0.16082607               -0.02414753
               4.05319534                8.96616548               53.06222039                0.01000000               -0.58027945               -0.56761926                0.24821408                1.66898821                0.29011698               -0.18802214
               5.04096343                8.98436763               53.06480886                0.01000000               -1.24511660                0.20899535                0.22074439                1.65731542                0.37123554               -0.05391594
               6.02829301                8.99574019               53.06937100                0.01000000               -1.12433165                0.21240117                0.21185427                0.85027992                0.47769779                0.05214828
               7.01847680                9.00144990               53.07458344                0.01000002               -0.92293551                0.16162397                0.20245768                0.30746197                0.56473065                0.14170545
               8.00983430                9.00268244               53.08095482                0.01000000               -0.86300239                0.14252127                0.19423199               -0.13667858                0.84156196                0.27495040
               9.00121675                9.00133796               53.09144482                1.00000000               -0.45705218               -0.09235943                0.17544764               -0.47267589                0.53458113                0.51822754
              10.00069325                9.00061624               53.09123442                1.00000000               -0.05234998               -0.20379083                0.17334550               -0.40706014               -0.00042753                0.39477781
               0.05973348                9.98922078               53.05679997                1.00000000               -0.03194752               -0.02758888                0.09380314               -0.00359423                0.01370612                0.01263129
               1.05941400                9.98318590               53.05756845                0.99999999               -0.03564473               -0.03544470                0.11883708               -0.00369647                0.01834156                0.00154066
               2.05902059                9.97715882               53.05842102                0.99999999               -0.04308325               -0.04293668                0.14393349               -0.00375649                0.01856507               -0.00178510
               3.05855234                9.97113323               53.05919669                0.99999999               -0.00318408               -0.05077862                0.16904657                0.01514041                0.19889362               -0.00553290
               4.05895690                9.96549500               53.06367068                0.01000000               -1.11337476               -0.06704744                0.11293959                1.46018837                0.51477397               -0.23649380
               5.03628484                9.98881387               53.06671398                0.01000001               -1.71488044                0.44462402                0.20327462                1.19440524                0.34056047               -0.02583980
               6.02465929                9.99874029               53.07086368                0.01000000               -0.98790253                0.30000951                0.19398474                0.38291090                0.41635765                0.03194340
               7.01652679               10.00373951               53.07597173                0.01000001               -0.76934669                0.22896102                0.19465945                0.13619115                0.56630154                0.07704765
               8.00927236               10.00536413               53.08297187                0.01000000               -0.72974307                0.26816823                0.18913048               -0.20246920                0.74657438                0.17763705
               9.00193193               10.00081400               53.09123113                0.99999999               -0.39289317               -0.05239574                0.17362900               -0.19172436                0.42391534                0.00043281
              10.00141450               10.00009928               53.09102071                0.99999995               -0.05174347               -0.05169633                0.17152687                0.00065245                0.00041984               -0.00041958
              -0.03179019                0.00208787               54.04253764                0.99329429               -0.02325310               -0.02225039                0.07242033                0.00224982               -0.00814608                0.00768697
               0.96797728               -0.00080802               54.04539946                1.00000000               -0.02475986               -0.02545899                0.08273592                0.00163372               -0.00871976               -0.00150827
               1.96771461               -0.00369034               54.04824915                0.01000000                0.02365124               -0.02865646                0.09303736                0.07613622               -0.03345736               -0.00351206
               2.96845030               -0.00506797               54.05061114                0.01000005                0.04933585               -0.03492550                0.13311209                0.04421856               -0.08409183               -0.01213868
               3.96870133               -0.00296396               54.05239420                0.01000000               -0.01473801                0.00923690                0.09843730                0.16655971               -0.08495236               -0.00632433
               4.96815554                0.00355631               54.05368231                0.01000000               -0.18470039                0.03494161                0.10791128                0.30315554               -0.09513625               -0.00413262
               5.96500732                0.01451398               54.05435897                0.01000002               -0.64452967                0.11534994                0.15682992                0.70662968                0.03406530               -0.07607801
               6.95526495                0.03198518               54.05685766                0.97129174               -0.50146913               -0.02946512                0.09284297                0.75781674               -0.01013524               -0.00109277
               7.95497794                0.03435535               54.05957891                1.00000000               -0.02965647               -0.03150012                0.09928324                0.00099664                0.00147243                0.00005970
               8.95467182                0.03676051               54.06230702                1.00000000               -0.03155494               -0.03342607                0.10562927                0.00103855                0.00160744                0.00113420
               9.95434684                0.03920193               54.06502584                1.00000000               -0.03249801               -0.03531860                0.11202744               -0.00077225                0.00157491                0.00277535
              -0.02887181                1.00186536               54.04303016                1.00000000               -0.02454779               -0.02283771                0.07660717                0.00070595                0.00137797                0.00815165
               0.97088272                0.99893739               54.04589400                0.01000000               -0.02611241               -0.02616615                0.08693552                0.00010213                0.00424692               -0.00444848
               1.97060595                0.99602310               54.04881664                0.01000000               -0.11767084               -0.05115594                0.09724896                0.01462600               -0.01358383                0.00520950
               2.96852930                0.99458278               54.05132067                0.01000001               -0.22755806               -0.02154054                0.11497308                0.15337818               -0.02700383               -0.01204248
               3.96605478                0.99712841               54.05323606                0.01000000               -0.30405881                0.01273808                0.09453591                0.39200167               -0.05227225               -0.01481197
               4.96244812                1.00390573               54.05478455                0.01000000               -0.40978016                0.03318668                0.08749445                0.65805039               -0.06278827               -0.03043863
               5.95785918                1.01566748               54.05567972                0.01000001               -0.47628447                0.00494242                0.09644078                0.99682774               -0.06478824               -0.04739697
               6.95292243                1.03169053               54.05662091                0.94058031               -0.26294720               -0.03109136                0.10391777                0.68539582               -0.08843034               -0.00114026
               7.95260024                1.03404035               54.05934589                0.99999999               -0.03317601               -0.03311354                0.11049078                0.00000678                0.00071073                0.00017780
               8.95225891                1.03642625               54.06207430                0.99999999               -0.03512674               -0.03512435                0.11703150               -0.00003421                0.00045546                0.00169705
               9.95189770                1.03884874               54.06479625                0.99999995               -0.03612108               -0.03692581                0.12337213               -0.00174881                0.00021055                0.00438981
              -0.02592013                2.00163111               54.04353494                0.01000001               -0.02582903                0.05572884                0.08079551                0.05781381                0.00335239                0.09379213
               0.97382158                1.99866866               54.04632784                0.01000000               -0.08590666               -0.06703516                0.09112170                0.01496501                0.02472530                0.07026689
               1.97236174                1.99528654               54.04955186                0.01000001               -0.17045144               -0.10703990                0.12246730                0.11321412                0.03301077                0.03818048
               2.97041256                1.99450122               54.05205491                0.01000000               -0.25716659               -0.06732161                0.10021049                0.44729015               -0.01801080                0.00709073
               3.96721841                1.99729080               54.05413451                0.01000000               -0.38175421               -0.03694000                0.09942938                0.81637636               -0.05200095               -0.00299340
               4.96277747                2.00422005               54.05570327                0.01000001               -0.50296691               -0.03647322                0.09901859                1.17149694               -0.09698117               -0.01451211
               5.95715907                2.01461283               54.05675988                0.01000000               -0.60887348               -0.11439853                0.09697591                1.62815123               -0.22562956                0.03275942
               6.95060000                2.03136336               54.05638375                0.01000000               -0.34583607               -0.40187972                0.11491781                1.21442020               -0.15475064                0.14589190
               7.95024235                2.03369308               54.05911408                0.26657759               -0.03686318               -0.03656964                0.12170849               -0.00048399                0.00017379                0.01109952
               8.94986274                2.03605803               54.06184843                0.99999997               -0.03877317               -0.03854865                0.12845779               -0.00040867               -0.00001127                0.00131958
               9.94946689                2.03846341               54.06458963                0.99999999               -0.03958518               -0.04026438                0.13462568               -0.00182999                0.00000156                0.00479879
              -0.02179062                3.00297994               54.04574549                0.01000000               -0.06827987                0.13173309                0.08500082                0.05569082                0.00026628                0.18151344
               0.97752659                2.99759668               54.04831644                0.01000001               -0.05858611               -0.14219421                0.09538838                0.13974113               -0.00369628                0.13959033
               1.97703766                2.99388230               54.05081097                0.01000000               -0.10278697               -0.20711071                0.10207318                0.44164733               -0.01043662                0.07866266
               2.97547085                2.99323634               54.05319210                0.01000000               -0.21870874               -0.19774284                0.10632192                0.83077087               -0.02481642                0.03972343
               3.97266349                2.99638961               54.05521548                0.01000002               -0.34574091               -0.16927159                0.10761484                1.24691666               -0.05702907                0.02484415
               4.96855603                3.00317626               54.05687864                0.01000000               -0.46922954               -0.17525341                0.11075106                1.65507160               -0.10595422                0.04201622
               5.96327890                3.01337951               54.05806063                0.01000001               -0.52127171               -0.24765207                0.11852369                1.92255200               -0.14979301                0.10434768
               6.95813059                3.02365294               54.05909405                0.01000001               -0.76915055               -0.60367821                0.13265779                2.02808808               -0.21421848                0.24477846
               7.94789589                3.03330895               54.05910345                0.01000000               -0.53250944               -0.40240562                0.13888182                1.56719789               -0.14928082                0.22379483
               8.94748041                3.03565528               54.06161177                0.01000000               -0.04227750               -0.46336523                0.14006421                1.15797820               -0.01343441                0.18728772
               9.94705034                3.03804345               54.06436232                0.99999997               -0.04300697               -1.02698037                0.14598566                1.36644443               -0.00181761                0.16766977
              -0.01403980                4.00426577               54.04787814                0.01000000               -0.02461525                0.06789781                0.09007023                0.17108597               -0.00281141                0.17837530
               0.98571405                3.99582477               54.05017862                0.01000000               -0.02025858               -0.24501775                0.09386591                0.39949348               -0.00553271                0.12993921
               1.98555503                3.99114433               54.05242395                0.01000000               -0.05966908               -0.33711849                0.10009979                0.81523471               -0.01231505                0.08794889
               2.98452067                3.99054636               54.05456260                0.01000008               -0.16691022               -0.33765355                0.10943757                1.22952616               -0.02444256                0.05615861
               3.98221682                3.99390537               54.05655314                0.01000000               -0.28158345               -0.31831512                0.11804524                1.63250632               -0.04213188                0.05256981
               4.97888900                4.00071498               54.05836110                0.01000001               -0.35416929               -0.32169662                0.12513532                1.96744547               -0.06389743                0.08418328
               5.97513344                4.00965979               54.06000053                0.01000001               -0.38283367               -0.41640097                0.13275840                2.22096819               -0.08690087                0.15694314
               6.97123232                4.01928979               54.06145475                0.01000000               -0.27747373               -0.53900193                0.14161271                2.24431302               -0.08754681                0.24601487
               7.96958396                4.02564496               54.06313560                0.01000003               -0.14722610               -0.76945871                0.15244982                2.28964494               -0.05866193                0.37707521
               8.96828780                4.02679072               54.06511920                0.01000000                0.12177328               -0.90334110                0.16549833                1.60522018               -0.02652521                0.36563668
               9.97201943                4.01792380               54.06741325                0.01000000                0.37316277               -1.47474611                0.18612502                1.20643325               -0.00480117                0.31336906
              -0.00148689                5.00433790               54.05002879                0.01000000                0.01247908               -0.17090492                0.09605488                0.35241099               -0.00134598                0.18486291
               0.99863790                4.99269633               54.05205223                0.01000000                0.00538264               -0.38310314                0.10058667                0.74096143               -0.00094974                0.12662430
               1.99862076                4.98713993               54.05405490                0.01000001               -0.06687850               -0.43923584                0.10799360                1.19116689               -0.00450222                0.08124474
               2.99730033                4.98648327               54.05604062                0.01000000               -0.17378810               -0.45696313                0.11939034                1.59971065               -0.00658507                0.05603173
               3.99514500                4.99002330               54.05805091                0.01000001               -0.25749088               -0.42376541                0.13123611                1.89822121               -0.00390888                0.06142428
               4.99215051                4.99674233               54.06011093                0.01000001               -0.30107771               -0.43251176                0.14046064                2.12812381               -0.00041268                0.10492999
               5.98912345                5.00505149               54.06220605                0.01000002               -0.25594160               -0.48549431                0.14669416                2.20404152                0.00314165                0.18203977
               6.98703168                5.01287290               54.06434914                0.01000000               -0.14677972               -0.62227807                0.15208897                2.11536906                0.00884284                0.27785708
               7.98618785                5.01791978               54.06654052                0.01000000                0.01371437               -0.73654782                0.16057278                1.74760414                0.01422353                0.35108227
               8.98730597                5.01758846               54.06873800                0.01000000                0.13624931               -0.80616334                0.17638010                1.13554506                0.01232735                0.37508371
               9.98891284                5.00854853               54.07080252                0.01000000                0.16068696               -0.66063806                0.20214686                0.54394919                0.00955304                0.32965740
               0.01629155                6.00084768               54.05234067                0.01000000                0.14396915               -0.75175701                0.09907939                0.85138088               -0.00048152                0.20577178
               1.01773124                5.98816271               54.05400445                0.01000001               -0.03500643               -0.46436679                0.10982751                1.17384619                0.00467385                0.13150112
               2.01559142                5.98235961               54.05566910                0.01000000               -0.20498691               -0.48117625                0.12103534                1.74217703                0.00602002                0.06730646
               3.01363150                5.98140710               54.05748064                0.01000001               -0.28346157               -0.45060130                0.13564294                1.78779711                0.02250007                0.03608398
               4.00992219                5.98543006               54.05956730                0.01000001               -0.36041104               -0.48933986                0.14972651                2.02929281                0.05053712                0.04553792
               5.00642328                5.99206474               54.06196281                0.01000001               -0.34192446               -0.46110008                0.15955653                2.11487446                0.08313197                0.10253229
               6.00308370                5.99994990               54.06462593                0.01000001               -0.28759321               -0.47089901                0.16397382                2.04143581                0.10797778                0.19159402
               7.00067142                6.00684423               54.06742692                0.01000000               -0.16316080               -0.53411759                0.16584088                1.74589485                0.11661440                0.29637146
               7.99982049                6.01091401               54.07019932                0.01000000               -0.01507347               -0.61617413                0.17013541                1.30846573                0.10308909                0.38543449
               9.00036995                6.01066746               54.07267311                0.01000003                0.05788909               -0.58193398                0.18261904                0.71875308                0.06214501                0.42453000
              10.00097827                6.00471104               54.07457605                0.01000000                0.06083177               -0.24059027                0.20761109                0.33648395                0.03495710                0.37990050
               0.04091066                6.98930276               54.05510285                0.94003033               -0.03077739               -0.59048061                0.08905653                0.93847337               -0.01276931                0.10712036
               1.04060289                6.98340899               54.05616780                0.77386413               -0.03453764               -0.25514072                0.11579062                0.85102971               -0.01665955                0.06798832
               2.04021991                6.97751640               54.05715922                0.01000000               -0.53085315               -0.26365281                0.14040016                1.23105893                0.00665021                0.02761251
               3.02998583                6.97747125               54.05870403                0.01000001               -0.75733466               -0.51527708                0.15410179                1.73841527                0.04951230               -0.01226615
               4.02507322                6.98023651               54.06089750                0.01000002               -0.50288347               -0.51950305                0.17352473                1.88215691                0.11625954                0.01886361
               5.01992816                6.98752033               54.06379852                0.01000000               -0.49502707               -0.43968989                0.18368931                2.04685761                0.18343749                0.08071809
               6.01517268                6.99563351               54.06710228                0.01000000               -0.44713404               -0.31886194                0.18337399                1.78739828                0.22842771                0.18157503
               7.01098548                7.00219055               54.07072631                0.01000000               -0.33193675               -0.33764297                0.18141417                1.30582471                0.24941323                0.30208369
               8.00853394                7.00559630               54.07431328                0.01000004               -0.15507402               -0.42272620                0.18067414                0.77105104                0.22448916                0.44462906
               9.00788400                7.00594978               54.07735700                0.01000002               -0.04892980               -0.39647978                0.18629425                0.33534552                0.13543208                0.52382823
              10.00755534                7.00373673               54.07914735                0.01000000               -0.03286510               -0.03732522                0.20474387                0.11286219                0.07067642                0.50925890
               0.04684854                7.98903806               54.05595848                1.00000000               -0.03103526               -0.02659770                0.08980729                0.00019674               -0.00343562                0.01511567
               1.04653819                7.98305989               54.05702285                0.99999999               -0.03490965               -0.03496548                0.11653236                0.00020719               -0.00438437                0.00342651
               2.04615035                7.97708656               54.05806821                0.26562460               -0.04292403               -0.04331791                0.14279927               -0.00058958                0.00145153               -0.00450698
               3.04567971                7.97110156               54.05926029                0.01000000               -0.43170500               -0.34399785                0.16993552                0.98304550                0.09585678               -0.04412322
               4.03751625                7.97504000               54.06222037                0.01000004               -0.68581389               -0.78158511                0.21488522                1.92278700                0.20887097               -0.02590200
               5.03196343                7.98327094               54.06550693                0.01000000               -0.66773984               -0.24389314                0.20236188                1.95156656                0.26891394                0.06234634
               6.02416145                7.99357267               54.06947708                0.01000000               -0.75691495               -0.04510645                0.20097979                1.47797688                0.34444467                0.14584798
               7.01682513                8.00009137               54.07395679                0.01000034               -0.63395885               -0.06046645                0.19466589                0.80413318                0.41506787                0.26633305
               8.01148227                8.00245948               54.07909339                0.01000002               -0.39443500               -0.14976444                0.18854772                0.19313178                0.40719455                0.43314701
               9.00893643                8.00273786               54.08317638                0.01000002               -0.19103279               -0.21923006                0.18565644               -0.24728484                0.27159550                0.80467290
              10.00766162                8.00396454               54.08548716                0.01000001               -0.12748128               -0.14509972                0.19370981               -0.20960666                0.17848582                0.66929987
               0.05287094                8.98877080               54.05687637                1.00000000               -0.03123960               -0.02683936                0.09048382                0.00030769                0.00286067                0.01521977
               1.05255854                8.98270968               54.05790358                0.99999999               -0.03522423               -0.03523494                0.11743302                0.00015493                0.00334198                0.00305437
               2.05216645                8.97665005               54.05893601                1.00000000               -0.04326237               -0.04361151                0.14448888               -0.00005475               -0.00048384               -0.00427240
               3.05169329                8.97059129               54.05989417                0.09388587               -0.04034397               -0.05151460                0.17177654                0.00335752                0.10528840               -0.02331953
               4.05135957                8.96460480               54.06306340                0.01000000               -0.56332369               -0.54635851                0.14064298                1.59492655                0.21739459               -0.02555173
               5.04042682                8.98264247               54.06728634                0.01000000               -1.17238929                0.17840766                0.21832481                1.68459041                0.33100881                0.02612467
               6.02791179                8.99473138               54.07145038                0.01000003               -1.11227490                0.20772182                0.20534552                0.90768776                0.40572000                0.08475390
               7.01818132                9.00098122               54.07661031                0.01000002               -0.90808507                0.15542854                0.19972219                0.35340897                0.52850945                0.16242663
               8.00975009                9.00260101               54.08289263                0.01000001               -0.83740389                0.13468401                0.19240845               -0.09122148                0.81397740                0.28740956
               9.00143324                9.00156518               54.09319926                1.00000000               -0.44201152               -0.08483725                0.17544489               -0.42727694                0.52647398                0.51316578
              10.00090985                9.00083473               54.09296756                0.99999999               -0.05233885               -0.18233351                0.17328153               -0.37414473               -0.00043167                0.38516413
               0.05897693                9.98850128               54.05772615                1.00000000               -0.03148857               -0.02695248                0.09138425               -0.00400910                0.01363792                0.01244323
               1.05866204                9.98235519               54.05875510                0.99999999               -0.03546404               -0.03544897                0.11844427               -0.00399749                0.01836908                0.00157763
               2.05826765                9.97621433               54.05986871                1.00000000               -0.04349713               -0.04357207                0.14553410               -0.00407693                0.01878531               -0.00167895
               3.05779210                9.97007127               54.06090564                0.99999997               -0.04520220               -0.05200226                0.17271425                0.00480566                0.13459901               -0.00571101
               4.05736360                9.96411283               54.06434812                0.01000001               -1.11317205               -0.04919769                0.12869583                1.43879442                0.26231259               -0.01742630
               5.03552866                9.98683910               54.06872797                0.01000001               -1.66935736                0.41966307                0.18034422                1.19089756                0.31537074               -0.00463777
               6.02397645                9.99772710               54.07277605                0.01000000               -0.97524857                0.29957181                0.18758838                0.42450897                0.37276218                0.04628697
               7.01602369               10.00319994               54.07789332                0.01000001               -0.74512861                0.22187236                0.18937726                0.15553956                0.54421526                0.08445824
               8.00907388               10.00515316               54.08485063                0.01000000               -0.69332596                0.25521563                0.18633115               -0.17556155                0.73117685                0.17874816
               9.00215717               10.00104112               54.09296773                0.99999999               -0.37171335               -0.05240629                0.17369494               -0.16937243                0.41787369                0.00043399
              10.00163962               10.00031787               54.09273602                0.99999994               -0.05175513               -0.05168637                0.17153158                0.00065134                0.00042177               -0.00042160
              -0.03478509                0.00165117               55.04326326                0.99423238               -0.02321689               -0.02239586                0.07269485                0.00218093               -0.00814412                0.00766862
               0.96498274               -0.00133865               55.04622444                1.00000000               -0.02461077               -0.02536180                0.08225121                0.00151301               -0.00871855               -0.00151838
               1.96472270               -0.00431384               55.04917337                0.01690443                0.01325869               -0.02832759                0.09179599                0.05970350               -0.01124903               -0.00349982
               2.96524792               -0.00610949               55.05207866                0.01000000                0.07714322               -0.00881881                0.07757693                0.12369198               -0.09125269               -0.04818492
               3.96626556               -0.00383662               55.05329060                0.01000000                0.03337461               -0.00185234                0.09926618                0.17335633               -0.12215087                0.00262690
               4.96591541                0.00250094               55.05474824                0.01000002               -0.18330376                0.03518476                0.11115448                0.30457323               -0.10821987                0.00316759
               5.96259948                0.01381219               55.05602237                0.01000000               -0.66970033                0.13215507                0.14554939                0.73726340               -0.09867079                0.01061090
               6.95252140                0.03215533               55.05778465                0.97085604               -0.51819982               -0.02944641                0.09264037                0.80127807               -0.04997753               -0.00125691
               7.95223549                0.03453327               55.06056800                1.00000000               -0.02949477               -0.03145174                0.09851989                0.00097906                0.00140149                0.00001402
               8.95193151                0.03694775               55.06335687                1.00000000               -0.03125320               -0.03319185                0.10441952                0.00084208                0.00135805                0.00113258
               9.95161042                0.03940072               55.06613691                1.00000000               -0.03210818               -0.03483980                0.11037921               -0.00118127                0.00122536                0.00226561
              -0.03177346                1.00142721               55.04379941                1.00000000               -0.02461632               -0.02303768                0.07723411                0.00075399                0.00137885                0.00813988
               0.96798038                0.99840773               55.04676260                0.01000000               -0.02606960               -0.02611355                0.08678893                0.00008656                0.00424530               -0.00445588
               1.96770515                0.99540288               55.04978451                0.01000000               -0.08670766               -0.05548125                0.09633442                0.01851683               -0.01095845                0.00698709
               2.96624622                0.99380233               55.05244058                0.01000001               -0.20056179               -0.00979454                0.08963427                0.16792042               -0.03479177               -0.02711117
               3.96369391                0.99614486               55.05412816                0.01000000               -0.30547428                0.00963561                0.09494108                0.37855851               -0.09358154                0.00307792
               4.96013674                1.00285279               55.05561938                0.01000000               -0.42744933                0.03926203                0.09277038                0.66825622               -0.12587337                0.00996686
               5.95514492                1.01513374               55.05666004                0.01000001               -0.49815465                0.00868564                0.10451529                1.04927610               -0.17114513                0.04207071
               6.95017364                1.03186086               55.05766354                0.93352935               -0.26479299               -0.03121791                0.10448274                0.72043484               -0.08823324               -0.00135934
               7.94984906                1.03421875               55.06045273                0.99999999               -0.03337209               -0.03317671                0.11083959                0.00003368                0.00098861                0.00038982
               8.94950620                1.03661584               55.06324432                0.99999999               -0.03517077               -0.03511039                0.11688336               -0.00024576                0.00051906                0.00188874
               9.94914565                1.03905232               55.06602584                1.00000000               -0.03605529               -0.03650191                0.12250468               -0.00219517                0.00011414                0.00369223
              -0.02873105                2.00119041               55.04434786                0.01000001               -0.02601493                0.05847686                0.08177919                0.06442919                0.00335454                0.09432215
               0.97100880                1.99813908               55.04724008                0.01000000               -0.07852559               -0.06899414                0.09133102                0.01814762                0.02649375                0.07005633
               1.96969844                1.99457653               55.05059878                0.01000001               -0.15722261               -0.11063125                0.10027317                0.11856609                0.01803988                0.03243335
               2.96786435                1.99369462               55.05305381                0.01000000               -0.24560824               -0.07000727                0.10147756                0.42682565               -0.03877006                0.01065227
               3.96478627                1.99635610               55.05510343                0.01000000               -0.37863470               -0.03250982                0.09806498                0.80432119               -0.07597842                0.02114379
               4.96029165                2.00328618               55.05665976                0.01000001               -0.51046702               -0.02476358                0.09926907                1.17557751               -0.13016248                0.03644076
               5.95457693                2.01398590               55.05772157                0.01000000               -0.62232806               -0.11338289                0.10308927                1.68583617               -0.22563745                0.07740613
               6.94784509                2.03153097               55.05754131                0.01000000               -0.35478710               -0.41502669                0.11628369                1.25767309               -0.14739413                0.14886312
               7.94748119                2.03386973               55.06033874                0.28116994               -0.03760341               -0.03666708                0.12352337               -0.00120383                0.00109190                0.01587650
               8.94709302                2.03624555               55.06313901                1.00000000               -0.03938163               -0.03903969                0.12996730               -0.00110123                0.00022205                0.00188370
               9.94669356                2.03867068               55.06593631                0.99999999               -0.03994667               -0.04002872                0.13427056               -0.00233069               -0.00012402                0.00400710
              -0.02438220                3.00259674               55.04661271                0.01000000               -0.06605881                0.13425440                0.08713853                0.06029436                0.00264589                0.18117230
               0.97495721                2.99702785               55.04926837                0.01000001               -0.05484368               -0.14572720                0.09529116                0.14777590                0.00058638                0.13664525
               1.97452092                2.99319026               55.05184838                0.01000000               -0.09770174               -0.20889036                0.10286408                0.44465954               -0.00863070                0.07213606
               2.97300317                2.99240218               55.05424039                0.01000000               -0.21660710               -0.19957477                0.10520445                0.83114345               -0.03211768                0.04942232
               3.97018878                2.99549466               55.05627777                0.01000163               -0.34923461               -0.16501138                0.10764007                1.25107577               -0.06927082                0.04715640
               4.96601848                3.00235751               55.05796439                0.01000000               -0.47859604               -0.16463630                0.11037871                1.67701269               -0.11498127                0.07262386
               5.96061686                3.01286608               55.05923037                0.01000001               -0.52876016               -0.23939626                0.11645199                1.96346405               -0.15073338                0.13231772
               6.95544328                3.02356033               55.06042747                0.01000001               -0.77532247               -0.62005520                0.13185122                2.07397567               -0.20796349                0.25494193
               7.94511041                3.03348541               55.06053763                0.01000000               -0.53800222               -0.40971103                0.15408727                1.59358840               -0.14654055                0.22389799
               8.94468323                3.03583504               55.06302577                0.01000000               -0.04308186               -0.46957196                0.14352672                1.17323193               -0.01708404                0.19393111
               9.94424877                3.03825174               55.06582735                1.00000000               -0.04344601               -1.04151872                0.14619502                1.38545795               -0.00200421                0.18359743
              -0.01638737                4.00387550               55.04878315                0.01000000               -0.02418279                0.06574115                0.09116125                0.17595801               -0.00245326                0.17622984
               0.98337080                3.99522453               55.05115244                0.01000000               -0.01976692               -0.25001025                0.09910032                0.40713196               -0.00488542                0.12917668
               1.98321729                3.99039873               55.05346439                0.01000000               -0.05939975               -0.34319475                0.10610651                0.82541002               -0.01250027                0.09128918
               2.98218281                3.98970313               55.05567273                0.01000102               -0.16824198               -0.33971430                0.11267117                1.24273297               -0.02616446                0.06874543
               3.97985245                3.99305587               55.05772913                0.01000000               -0.28611607               -0.31570842                0.11860830                1.65581603               -0.04729976                0.07415275
               4.97646049                3.99999345               55.05959697                0.01000001               -0.36045278               -0.31511362                0.12363891                2.00550785               -0.07305787                0.11020753
               5.97264340                4.00919798               55.06130415                0.01000001               -0.38776032               -0.41223807                0.12806323                2.27228787               -0.09853761                0.17881857
               6.96870528                4.01912986               55.06284761                0.01000003               -0.27825772               -0.54242372                0.13434304                2.29280881               -0.09968957                0.25597044
               7.96707824                4.02567551               55.06464856                0.01000004               -0.14569775               -0.77801630                0.14401862                2.33037732               -0.07028186                0.37917965
               8.96579133                4.02685411               55.06678215                0.01000000                0.12455339               -0.91271738                0.16385404                1.63169737               -0.03281977                0.38409380
               9.96956931                4.01784030               55.06932329                0.01000000                0.37779855               -1.49801672                0.19610673                1.22597643               -0.01128477                0.35316771
              -0.00356111                5.00391157               55.05097277                0.01000000                0.01377285               -0.17715671                0.09470018                0.35827168               -0.00269445                0.18019714
               0.99657662                4.99202764               55.05308832                0.01000000                0.00558173               -0.39067251                0.10541476                0.75353481               -0.00304097                0.13038765
               1.99655053                4.98632636               55.05517516                0.01000001               -0.06879657               -0.44565383                0.11441955                1.21035695               -0.00515976                0.09190489
               2.99520069                4.98560789               55.05726150                0.01000000               -0.17678754               -0.46119063                0.12384074                1.62571107               -0.00698442                0.07488516
               3.99301478                4.98918050               55.05937102                0.01000001               -0.26070806               -0.42557141                0.13269097                1.93514835               -0.00887563                0.08785248
               4.98998653                4.99605524               55.06150469                0.01000001               -0.30442851               -0.43209485                0.13872072                2.18003312               -0.01340811                0.13558681
               5.98692621                5.00462132               55.06364737                0.01000000               -0.25823041               -0.48370870                0.14128959                2.26531183               -0.01848827                0.21077217
               6.98482192                5.01271185               55.06582974                0.01000001               -0.14662464               -0.62106197                0.14139638                2.17461120               -0.01805603                0.30089056
               7.98399371                5.01792508               55.06810433                0.01000000                0.01652347               -0.73619750                0.14595603                1.79263109               -0.01005316                0.36845992
               8.98515239                5.01758069               55.07048214                0.01000000                0.14010980               -0.81025780                0.16771182                1.16072406               -0.00070758                0.39142209
               9.98679591                5.00829141               55.07285353                0.01000000                0.16435197               -0.67365699                0.21094493                0.55596801                0.00315724                0.35069263
               0.01454592                6.00033237               55.05330094                0.01000001                0.14807874               -0.76758975                0.09578153                0.86514745               -0.00315195                0.19660958
               1.01602670                5.98741108               55.05511675                0.01000001               -0.03508691               -0.47263012                0.11238644                1.19255538               -0.00068740                0.13652045
               2.01384418                5.98148565               55.05691355                0.01000000               -0.20919043               -0.48686882                0.12625314                1.77013210                0.00285805                0.08374953
               3.01184290                5.98047932               55.05886537                0.01000001               -0.28680528               -0.45504785                0.13964584                1.81872548                0.02007524                0.06129410
               4.00810807                5.98454444               55.06106907                0.01000001               -0.36112864               -0.49687203                0.15041148                2.07251292                0.04316328                0.08317856
               5.00462032                5.99135156               55.06355186                0.01000001               -0.34075257               -0.46533671                0.15735688                2.17463797                0.06576187                0.14315000
               6.00129302                5.99952380               55.06624071                0.01000003               -0.28632890               -0.47230735                0.15854234                2.11301378                0.07943333                0.23121767
               6.99889374                6.00670862               55.06904797                0.01000000               -0.16154986               -0.53205111                0.15707742                1.81563491                0.08252957                0.33166436
               7.99806202                6.01095156               55.07185621                0.01000000               -0.01271329               -0.61186152                0.15844640                1.36250083                0.07160903                0.41447716
               8.99863948                6.01064895               55.07447148                0.01000000                0.06026081               -0.57943759                0.17284004                0.74671610                0.04290977                0.44298808
               9.99926724                6.00436716               55.07666689                0.01000000                0.06277614               -0.24531636                0.20942462                0.34876054                0.02601164                0.38641602
               0.03958441                6.98855977               55.05599194                0.94228580               -0.03099646               -0.60177037                0.08882662                0.95501126               -0.01277670                0.10308048
               1.03927445                6.98257504               55.05733389                0.74432534               -0.03497371               -0.25948019                0.11742214                0.86538740               -0.01786789                0.07034677
               2.03888494                6.97658899               55.05857820                0.01000000               -0.53790188               -0.26683526                0.14314804                1.24998287               -0.00141197                0.03717749
               3.02851641                6.97650694               55.06026055                0.01000001               -0.76460708               -0.52086985                0.15751133                1.76189487                0.04465587                0.01428011
               4.02359279                6.97924306               55.06266348                0.01000004               -0.50082417               -0.51904966                0.17338594                1.91840153                0.10699302                0.06269024
               5.01849992                6.98674851               55.06560200                0.01000008               -0.48816906               -0.44792475                0.17718735                2.10733094                0.15619286                0.13278437
               6.01382941                6.99517518               55.06891292                0.01000000               -0.43965319               -0.32313416                0.17776913                1.86021548                0.19496416                0.22759092
               7.00970686                7.00207083               55.07250991                0.01000000               -0.32630051               -0.33794648                0.17474862                1.38118912                0.21279098                0.34291859
               8.00730340                7.00568785               55.07608766                0.01000001               -0.15178752               -0.41771342                0.17316126                0.83386875                0.19199926                0.47657852
               9.00667111                7.00599194               55.07919467                0.01000002               -0.04843537               -0.38682838                0.17940243                0.37075716                0.11519835                0.54096754
              10.00633470                7.00338508               55.08119455                0.01000000               -0.03364149               -0.03131387                0.20208618                0.12897308                0.06025414                0.50638789
               0.04561561                7.98829696               55.05685157                1.00000000               -0.03103706               -0.02631880                0.08886573                0.00009847               -0.00352093                0.01470797
               1.04530524                7.98222148               55.05819306                0.99999999               -0.03518358               -0.03529280                0.11755442                0.00023676               -0.00471449                0.00335266
               2.04491194                7.97614894               55.05951074                0.27601646               -0.04392576               -0.04433739                0.14573498               -0.00064763                0.00205631               -0.00295737
               3.04442672                7.97006192               55.06099770                0.01000000               -0.43387020               -0.34888299                0.18018436                1.00227492                0.08955698               -0.03533767
               4.03623453                7.97416345               55.06408586                0.01000005               -0.67959509               -0.78581824                0.18163633                1.94447041                0.18375602                0.02774894
               5.03083482                7.98239306               55.06751168                0.01000000               -0.65297633               -0.25397106                0.19575674                1.97971878                0.24140156                0.10440275
               6.02317501                7.99306112               55.07143918                0.01000000               -0.74149852               -0.05194343                0.19235793                1.54053313                0.30547352                0.19190031
               7.01600485                7.99994969               55.07587888                0.01000002               -0.61783592               -0.06544644                0.18916321                0.87170272                0.37901142                0.30293346
               8.01081829                8.00259729               55.08095746                0.01000002               -0.38237297               -0.15072284                0.18399738                0.25920910                0.37731876                0.46064213
               9.00835739                8.00291238               55.08501594                0.01000002               -0.18789329               -0.20910113                0.18202983               -0.19281083                0.25428369                0.81194780
              10.00706042                8.00374089               55.08741819                0.01000001               -0.12969691               -0.11572072                0.19211256               -0.17648361                0.17184577                0.65278453
               0.05173734                8.98803340               55.05777253                1.00000000               -0.03101456               -0.02634326                0.08876882                0.00021531                0.00278103                0.01478800
               1.05142719                8.98186918               55.05907938                0.99999999               -0.03528987               -0.03535331                0.11774840                0.00012135                0.00335657                0.00306029
               2.05103154                8.97570224               55.06039266                0.99999999               -0.04398961               -0.04445524                0.14686781               -0.00030476               -0.00020350               -0.00372340
               3.05054740                8.96952928               55.06163487                0.11601437               -0.04402414               -0.05329217                0.17671176                0.00813173                0.10302698               -0.02359402
               4.05015106                8.96352669               55.06503325                0.01000000               -0.56753882               -0.57932139                0.22588941                1.61430510                0.26047989               -0.01233800
               5.03919663                8.98166909               55.06917536                0.01000000               -1.15338093                0.17224032                0.18793352                1.69695657                0.30206852                0.05792217
               6.02708344                8.99413631               55.07347791                0.01000002               -1.07959420                0.19767880                0.19765911                0.94334971                0.37359776                0.11460345
               7.01760474                9.00076190               55.07857788                0.01000002               -0.87792731                0.14564810                0.19456239                0.39343728                0.49749866                0.18435041
               8.00952490                9.00267339               55.08480299                0.01000001               -0.79667206                0.12128921                0.18954297               -0.04743942                0.78978544                0.30253970
               9.00167130                9.00180992               55.09495372                1.00000000               -0.41884388               -0.08133258                0.17545076               -0.37780514                0.51977446                0.50977265
              10.00114802                9.00107067               55.09470005                1.00000000               -0.05232831               -0.15934810                0.17321354               -0.33262869               -0.00043565                0.37609141
               0.05794834                9.98777009               55.05862766                1.00000000               -0.03095185               -0.02633029                0.08894238               -0.00446795                0.01330770                0.01205858
               1.05763882                9.98151441               55.05993733                0.99999999               -0.03512971               -0.03547710                0.11792812               -0.00434979                0.01810842                0.00160599
               2.05724575                9.97525984               55.06133170                0.99999995               -0.04369590               -0.04423988                0.14678428               -0.00449634                0.01887358               -0.00155855
               3.05676491                9.96899607               55.06265097                0.99999997               -0.04324604               -0.05332028                0.17612940               -0.01239065                0.12859324               -0.00596809
               4.05638083                9.96257702               55.06624460                0.01000000               -1.13002844               -0.09496709                0.21566627                1.46506634                0.28694279               -0.01446003
               5.03416434                9.98583787               55.07032086                0.01000001               -1.67158213                0.41687809                0.16888104                1.21865496                0.28502703                0.02639391
               6.02294918                9.99701470               55.07461545                0.01000000               -0.94139139                0.28783902                0.18194506                0.43781379                0.35916297                0.05833418
               7.01533651               10.00286266               55.07975928                0.01000001               -0.70638507                0.21007538                0.18555383                0.17359574                0.52845784                0.09379661
               8.00882148               10.00502308               55.08669850                0.01000000               -0.64662464                0.23496831                0.18396933               -0.14918745                0.72019745                0.18103623
               9.00240402               10.00128573               55.09470502                0.99999999               -0.34675649               -0.05241877                0.17376484               -0.15018615                0.41344461                0.00043499
              10.00188635               10.00055392               55.09445134                0.99999999               -0.05176630               -0.05167435                0.17152763                0.00065275                0.00042397               -0.00042335
              -0.03787545                0.00116893               56.04399154                0.99519434               -0.02317579               -0.02253736                0.07295704                0.00211831               -0.00813305                0.00765399
               0.96189279               -0.00191471               56.04704448                1.00000000               -0.02445727               -0.02526570                0.08175433                0.00139549               -0.00870908               -0.00152505
               1.96163541               -0.00498262               56.05008507                0.01000000                0.03076102               -0.02799548                0.09054249                0.06529984               -0.05720947               -0.00349318
               2.96250802               -0.00675550               56.05216268                0.01000001                0.09766657               -0.01790958                0.05971599                0.11798308               -0.05943789                0.04166692
               3.96358874               -0.00458655               56.05437952                0.01000000                0.03756765               -0.00363188                0.10222891                0.17320538               -0.09484450                0.00773145
               4.96325937                0.00187738               56.05590540                0.01000002               -0.17956264                0.03161615                0.11368157                0.31581160               -0.12831053                0.01551005
               5.95999749                0.01345087               56.05726996                0.01000001               -0.67697998                0.13588361                0.11726561                0.75570881               -0.12747705                0.01462631
               6.94971977                0.03220228               56.05871047                0.97084499               -0.52818684               -0.02955902                0.09265821                0.82129618               -0.06902704               -0.00182975
               7.94943375                0.03458617               56.06154930                1.00000000               -0.02948463               -0.03087735                0.09827697                0.00084790                0.00123795                0.00012960
               8.94913008                0.03700828               56.06439542                0.99999999               -0.03112371               -0.03263903                0.10378181                0.00077017                0.00129564                0.00114619
               9.94881128                0.03946937               56.06723343                1.00000000               -0.03188009               -0.03461886                0.10932571               -0.00132523                0.00106523                0.00145629
              -0.03477062                1.00094356               56.04457484                1.00000000               -0.02468574               -0.02323397                0.07785027                0.00080521                0.00138188                0.00813211
               0.96498252                0.99783263               56.04762977                0.01000000               -0.02602910               -0.02606338                0.08664590                0.00008081                0.00424349               -0.00445961
               1.96470880                0.99473743               56.05074333                0.01000000               -0.07463564               -0.05730241                0.09543316                0.02530873               -0.02985232                0.00462530
               2.96348981                0.99306540               56.05311336                0.01000001               -0.18522222               -0.01650198                0.08000111                0.16320963               -0.08899537                0.02109254
               3.96100436                0.99537713               56.05513488                0.01000000               -0.30455179                0.00753043                0.10011815                0.38161423               -0.10716093                0.01436860
               4.95739878                1.00219354               56.05663996                0.01000000               -0.43061162                0.03632362                0.10540236                0.68646450               -0.14919049                0.02768793
               5.95239212                1.01480971               56.05777002                0.01000001               -0.50168482                0.00698759                0.11117022                1.07402214               -0.17757765                0.04471845
               6.94736508                1.03190669               56.05871057                0.92434517               -0.26764465               -0.03127986                0.10512794                0.73914319               -0.09415110               -0.00212066
               7.94703923                1.03427740               56.06156268                0.99999999               -0.03344489               -0.03302317                0.11041440                0.00039656                0.00137159                0.00065462
               8.94669618                1.03668189               56.06441197                0.99999999               -0.03511487               -0.03470142                0.11620009               -0.00073444                0.00059953                0.00233144
               9.94633693                1.03912318               56.06724634                0.99999999               -0.03592491               -0.03636596                0.12184797               -0.00294424                0.00007832                0.00224917
              -0.03163749                2.00070425               56.04517052                0.01000000               -0.02619739                0.06122676                0.08275180                0.07205715                0.00335217                0.09460315
               0.96810054                1.99756402               56.04815446                0.01000000               -0.07268532               -0.07077004                0.09154539                0.02436012                0.02411638                0.06966938
               1.96690881                1.99387134               56.05155733                0.01000001               -0.14840192               -0.11390132                0.09604824                0.12673344                0.01030448                0.03597645
               2.96513250                1.99291446               56.05408446                0.01000000               -0.24079585               -0.07297632                0.10148662                0.43010084               -0.05158144                0.03038451
               3.96209289                1.99556406               56.05609581                0.01000000               -0.37882083               -0.03350488                0.10234432                0.81195489               -0.09913016                0.03413794
               4.95755609                2.00260385               56.05768865                0.01000001               -0.51640568               -0.02509985                0.10689243                1.19657940               -0.14547287                0.05823200
               5.95176478                2.01359062               56.05882166                0.01000000               -0.62605731               -0.11832124                0.11309515                1.71909303               -0.23559164                0.09122209
               6.94503494                2.03157668               56.05870943                0.01000000               -0.35491470               -0.42306051                0.11646726                1.28170396               -0.14675179                0.14852703
               7.94466648                2.03392571               56.06158455                0.30097890               -0.03826649               -0.04001522                0.12628057                0.00325565                0.00205341                0.03035474
               8.94426961                2.03631425               56.06444777                0.99999999               -0.03983389               -0.03955591                0.13130402               -0.00154218                0.00054018                0.00391781
               9.94386981                2.03874205               56.06727504                0.99999999               -0.03998041               -0.03973748                0.13322506               -0.00371193               -0.00055490                0.00163427
              -0.02704901                3.00216809               56.04748826                0.01000002               -0.06483484                0.13630277                0.08846059                0.06541502                0.00235069                0.18124157
               0.97230264                2.99641723               56.05022227                0.01000001               -0.05289824               -0.14878336                0.09586282                0.15629313               -0.00129023                0.13754273
               1.97189303                2.99245940               56.05286825                0.01000000               -0.09517709               -0.21140006                0.10226610                0.45322898               -0.01405784                0.07543955
               2.97039910                2.99160588               56.05529619                0.01000000               -0.21694808               -0.20071493                0.10700025                0.84238882               -0.04205666                0.05776731
               3.96755407                2.99470704               56.05736828                0.01000005               -0.35476496               -0.16344440                0.11116676                1.26696810               -0.08113741                0.06530877
               4.96330380                3.00169154               56.05908622                0.01000000               -0.48764580               -0.16125084                0.11493929                1.70164877               -0.12873440                0.09352455
               5.95780115                3.01244328               56.06038967                0.01000001               -0.53198660               -0.23857288                0.11906070                1.99506030               -0.15915601                0.14558607
               6.95266407                3.02344548               56.06173107                0.01000001               -0.77171866               -0.62848754                0.12163445                2.09464971               -0.20698701                0.25457858
               7.94236678                3.03347710               56.06218520                0.01000007               -0.54075349               -0.41319310                0.18705632                1.60112946               -0.15721499                0.23479923
               8.94184900                3.03589077               56.06448231                0.01014867               -0.04798412               -0.46490070                0.14822000                1.17692008               -0.02713753                0.19878315
               9.94140709                3.03832843               56.06728622                1.00000000               -0.04419069               -1.03905332                0.14414122                1.38584863               -0.00118241                0.20208512
              -0.01882746                4.00343031               56.04970137                0.01000000               -0.02374503                0.06279767                0.09348420                0.17966130               -0.00332010                0.17474795
               0.98093509                3.99458835               56.05216062                0.01000000               -0.01939027               -0.25387284                0.10199268                0.41425397               -0.00675300                0.13189831
               1.98078474                3.98964333               56.05454608                0.01000000               -0.06012249               -0.34652638                0.10913900                0.83815852               -0.01620021                0.09789584
               2.97973264                3.98890016               56.05681603                0.01000008               -0.17190741               -0.34087716                0.11561418                1.26087594               -0.03215012                0.08208758
               3.97734659                3.99229517               56.05892530                0.01000000               -0.29399144               -0.31333157                0.12147380                1.68244501               -0.05698431                0.09352315
               4.97385282                3.99937883               56.06083388                0.01000001               -0.37172730               -0.30961851                0.12561191                2.04130952               -0.08876273                0.13189657
               5.96991204                4.00881917               56.06256180                0.01000001               -0.39793476               -0.40564546                0.12601358                2.31277900               -0.12352331                0.19648176
               6.96589412                4.01900693               56.06414161                0.01000001               -0.28341307               -0.53775667                0.12196618                2.31961042               -0.13636258                0.26414979
               7.96424378                4.02566185               56.06601598                0.01000002               -0.14687207               -0.76978819                0.11256911                2.34884607               -0.09909105                0.37209776
               8.96295668                4.02701623               56.06839628                0.01000000                0.12338364               -0.90815984                0.14921197                1.64963783               -0.04672554                0.40736631
               9.96671146                4.01796098               56.07133538                0.01000003                0.37547773               -1.50548200                0.22953490                1.23578017               -0.02391614                0.42330116
              -0.00577187                5.00342405               56.05192280                0.01000000                0.01465659               -0.18348016                0.09717234                0.36278936               -0.00460420                0.17604161
               0.99437470                4.99133977               56.05416053                0.01000000                0.00581285               -0.39704050                0.10888512                0.76373110               -0.00685069                0.13492876
               1.99434439                4.98552888               56.05634329                0.01000001               -0.07049578               -0.45058882                0.11818418                1.22818951               -0.01032039                0.10306746
               2.99296478                4.98478833               56.05851744                0.01000000               -0.18100455               -0.46331128                0.12699025                1.65281833               -0.01290988                0.09296991
               3.99072430                4.98844041               56.06070473                0.01000001               -0.26793897               -0.42470025                0.13454411                1.97316038               -0.01913548                0.11210594
               4.98760600                4.99549917               56.06288534                0.01000001               -0.31478334               -0.42742004                0.13905788                2.23020168               -0.03346634                0.16315584
               5.98442863                5.00433037               56.06503184                0.01000125               -0.26962029               -0.47552287                0.13772389                2.32276952               -0.05406263                0.23898734
               6.98221360                5.01269034               56.06717706                0.01000002               -0.15471176               -0.61047902                0.12924737                2.22816778               -0.06917795                0.32899971
               7.98133439                5.01808133               56.06945964                0.01000000                0.01645145               -0.72208102                0.12071685                1.83113001               -0.06401373                0.39998399
               8.98254262                5.01772757               56.07209224                0.01000000                0.14494038               -0.81007767                0.14159613                1.17991223               -0.03304537                0.41649466
               9.98423320                5.00821879               56.07502142                0.01000002                0.16905774               -0.69313225                0.22528319                0.56893354               -0.00680511                0.36267183
               0.01259688                5.99976071               56.05425630                0.01000001                0.15080064               -0.78051590                0.09733933                0.87583775               -0.00601300                0.18813061
               1.01410489                5.98664754               56.05625218                0.01000001               -0.03484574               -0.48000762                0.11500045                1.20777102               -0.00680434                0.14104176
               2.01189997                5.98063156               56.05819416                0.01000000               -0.21137039               -0.49330589                0.12902268                1.79535124               -0.00386218                0.09911156
               3.00987748                5.97963394               56.06027356                0.01000001               -0.29005020               -0.45819082                0.14057298                1.84992476                0.01246936                0.08375378
               4.00609896                5.98380117               56.06257553                0.01000001               -0.36552996               -0.49834386                0.15062077                2.11719089                0.03090124                0.11340941
               5.00256688                5.99083043               56.06510995                0.01000001               -0.34613517               -0.46414862                0.15570103                2.23520560                0.04307961                0.17767202
               5.99917626                5.99930871               56.06779678                0.01000001               -0.29301821               -0.46717522                0.15491728                2.18511713                0.04326276                0.26927396
               6.99670652                6.00679735               56.07056847                0.01000000               -0.16735512               -0.52361688                0.14934606                1.88822412                0.03397767                0.37474861
               7.99582916                6.01122023               56.07336825                0.01000000               -0.01445250               -0.60273566                0.14495030                1.41860479                0.02109316                0.46159269
               8.99641747                6.01081468               56.07612991                0.01000003                0.06392668               -0.57514479                0.15396447                0.77082740                0.00864904                0.48201346
               9.99710769                6.00409834               56.07876455                0.01000000                0.06902241               -0.25528061                0.19708405                0.35473882                0.00791083                0.39981962
               0.03797121                6.98781373               56.05687938                0.94497539               -0.03119482               -0.61045356                0.08889035                0.96750212               -0.01291339                0.09963955
               1.03765926                6.98173962               56.05851624                0.71103349               -0.03530970               -0.26330417                0.11895712                0.87644351               -0.01975983                0.07273073
               2.03726502                6.97566276               56.06002218                0.01000000               -0.54327995               -0.27093047                0.14484085                1.26858830               -0.01026333                0.04725554
               3.02679367                6.97562452               56.06185425                0.01000001               -0.76966987               -0.53067281                0.15924887                1.79145110                0.03395437                0.04535532
               4.02187162                6.97847353               56.06436522                0.01000002               -0.49955451               -0.52879791                0.16932846                1.95850513                0.09124878                0.09057169
               5.01680257                6.98621620               56.06734226                0.01000002               -0.48537843               -0.45223916                0.17296205                2.16923002                0.13278549                0.17067805
               6.01216405                6.99498687               56.07065766                0.01000000               -0.43680084               -0.32315125                0.17326833                1.93646355                0.16177567                0.26883460
               7.00806656                7.00221801               56.07422128                0.01000000               -0.32374459               -0.33576423                0.16987221                1.46101563                0.17271594                0.38708404
               8.00568916                7.00602662               56.07777651                0.01000001               -0.14927464               -0.41316164                0.16661403                0.90345528                0.15312484                0.52028945
               9.00508107                7.00622467               56.08094504                0.01000002               -0.04642466               -0.37984534                0.17224755                0.41152280                0.09009463                0.57324238
              10.00476067                7.00311318               56.08318907                0.01000000               -0.03203980               -0.02917998                0.19810387                0.14816652                0.04825005                0.50723723
               0.04409514                7.98755163               56.05773579                1.00000000               -0.03104126               -0.02616243                0.08810757                0.00006391               -0.00366279                0.01422521
               1.04378473                7.98138146               56.05937394                0.99999999               -0.03541540               -0.03564991                0.11850153                0.00037926               -0.00489786                0.00339679
               2.04338683                7.97521295               56.06098290                0.28694348               -0.04444995               -0.04540688                0.14878305               -0.00095526                0.00692140               -0.00033185
               3.04289573                7.96902048               56.06286398                0.01000000               -0.43547242               -0.35791898                0.20121143                1.01659227                0.07212463               -0.01997037
               4.03467739                7.97322521               56.06585310                0.01000002               -0.67287952               -0.81371120                0.18393855                1.99611169                0.16201356                0.06998162
               5.02943814                7.98178565               56.06942207                0.01000000               -0.63868328               -0.26122321                0.18710402                2.04207124                0.22231931                0.13476495
               6.02190372                7.99284568               56.07332424                0.01000000               -0.72755306               -0.05698444                0.18754131                1.60567907                0.27554687                0.22714027
               7.01488708                8.00008207               56.07774005                0.01000003               -0.60060629               -0.07150872                0.18507458                0.94254851                0.34737023                0.33937394
               8.00989160                8.00295700               56.08277334                0.01000002               -0.36628570               -0.15579288                0.18103890                0.33082538                0.34858808                0.49283061
               9.00756137                8.00321777               56.08681698                0.01000002               -0.17987883               -0.20765653                0.17987387               -0.12958251                0.23770750                0.82619527
              10.00629402                8.00351474               56.08932941                0.01000001               -0.12673470               -0.08948820                0.19028386               -0.13791289                0.16647930                0.64027453
               0.05031284                8.98729048               56.05865175                0.99999999               -0.03073068               -0.02597234                0.08725408                0.00004321                0.00259811                0.01414126
               1.05000553                8.98102662               56.06025854                0.99999999               -0.03529750               -0.03550220                0.11794074               -0.00002135                0.00342270                0.00310391
               2.04960689                8.97475462               56.06187336                0.99999999               -0.04461432               -0.04539353                0.14937147               -0.00079212                0.00088506               -0.00297161
               3.04911325                8.96846614               56.06342841                0.18212076               -0.02891017               -0.05503881                0.18248982                0.00000096                0.12671509               -0.02651715
               4.04902869                8.96219930               56.06758118                0.01000000               -0.55448603               -0.59121426                0.21290268                1.66403899                0.22407080                0.01780882
               5.03802353                8.98099173               56.07104501                0.01000000               -1.15237367                0.16451593                0.19397013                1.75340405                0.25658488                0.07529804
               6.02598121                8.99384718               56.07540356                0.01000003               -1.06086558                0.18865108                0.19197541                0.98068384                0.35298678                0.13597632
               7.01680622                9.00078783               56.08050156                0.01000002               -0.84056274                0.13155103                0.19177322                0.43431494                0.47519213                0.20567872
               8.00916996                9.00291076               56.08668349                0.01000001               -0.74372709                0.10129387                0.18779737               -0.00378996                0.76936308                0.31915257
               9.00193167                9.00207154               56.09670828                1.00000000               -0.38807383               -0.08352857                0.17546409               -0.32377508                0.51461224                0.50827747
              10.00140848                9.00132341               56.09643183                0.99999997               -0.05231906               -0.13539626                0.17314156               -0.28174113               -0.00043876                0.36794348
               0.05662373                9.98703219               56.05950500                1.00000000               -0.03035609               -0.02582935                0.08681944               -0.00498890                0.01239046                0.01135897
               1.05632016                9.98067141               56.06111366                1.00000000               -0.03461246               -0.03552073                0.11727661               -0.00489248                0.01701411                0.00159187
               2.05593148                9.97430508               56.06280440                1.00000000               -0.04345491               -0.04495417                0.14721668               -0.00512707                0.01825254               -0.00142242
               3.05545107                9.96791970               56.06442823                0.99999999               -0.02494521               -0.05464345                0.17821558               -0.01142584                0.14562292               -0.00606052
               4.05543257                9.96140093               56.06866145                0.01000001               -1.12963600               -0.07983787                0.20136184                1.49820143                0.23864129               -0.00215268
               5.03285835                9.98507597               56.07210559                0.01000001               -1.68556366                0.40842322                0.18835699                1.24437080                0.23723637                0.03447011
               6.02172130                9.99661870               56.07641495                0.01000000               -0.91742743                0.27715245                0.18310463                0.45586442                0.34356351                0.06966898
               7.01450980               10.00271309               56.08160440                0.01000001               -0.65946070                0.19252536                0.18573969                0.18856656                0.51726208                0.10299646
               8.00853208               10.00498287               56.08853002                0.01000000               -0.59182921                0.20721115                0.18382760               -0.12208175                0.71156171                0.18435578
               9.00267321               10.00154720               56.09644303                0.99999997               -0.31883124               -0.05243421                0.17383860               -0.13464917                0.40990968                0.00043671
              10.00215546               10.00080681               56.09616658                0.99999999               -0.05177534               -0.05166011                0.17151638                0.00065853                0.00042379               -0.00042560
              -0.04105364                0.00063764               57.04472240                0.99615731               -0.02313331               -0.02267743                0.07321384                0.00205696               -0.00811933                0.00764077
               0.95871503               -0.00253974               57.04785953                0.99999999               -0.02430251               -0.02516996                0.08125490                0.00127929               -0.00869880               -0.00153035
               1.95846031               -0.00570023               57.05098422                0.01000001                0.05248386               -0.02766371                0.08928679                0.08453194               -0.05084967               -0.00348775
               2.95976471               -0.00717751               57.05327298                0.01000003                0.10828156               -0.05200953                0.10491892                0.05638242               -0.07668810                0.01922974
               3.96062594               -0.00519271               57.05533518                0.01000000                0.03470288               -0.00913545                0.09885138                0.16579186               -0.10869416                0.01746035
               4.96045876                0.00134202               57.05702187                0.01000000               -0.16905333                0.02812752                0.10824852                0.32076627               -0.13320446                0.01644408
               5.95724488                0.01310458               57.05836769                0.01000002               -0.67986260                0.13718252                0.10733070                0.76661451               -0.14929510                0.01473999
               6.94686151                0.03211854               57.05963782                0.97177670               -0.53347867               -0.02990469                0.09305431                0.83387239               -0.08026261               -0.00172869
               7.94657530                0.03450911               57.06253354                1.00000000               -0.02941065               -0.03125134                0.09839694                0.00093049                0.00122937               -0.00100307
               8.94627330                0.03693757               57.06543251                1.00000000               -0.03097966               -0.03274586                0.10368225                0.00086793                0.00121248                0.00050209
               9.94595571                0.03940401               57.06832342                1.00000000               -0.03175888               -0.03483252                0.10897273               -0.00107928                0.00101749                0.00147691
              -0.03785569                1.00041086               57.04535641                1.00000000               -0.02475542               -0.02342874                0.07846364                0.00085755                0.00138579                0.00812406
               0.96189676                0.99720856               57.04849552                0.01000000               -0.02598964               -0.02601429                0.08650378                0.00007823                0.00424310               -0.00446091
               1.96162452                0.99402313               57.05169317                0.01000000               -0.09109943               -0.05643105                0.09453534                0.03040220               -0.03519245                0.00272490
               2.96007477                0.99230239               57.05404060                0.01000001               -0.18002125               -0.03515036                0.09762873                0.16111661               -0.10023053                0.01588519
               3.95802409                0.99471594               57.05613052                0.01000000               -0.27784915               -0.00009195                0.10070955                0.39472246               -0.11594538                0.02298417
               4.95451778                1.00162330               57.05772743                0.01000000               -0.42506635                0.03312687                0.10919931                0.69790241               -0.15503775                0.03147985
               5.94952276                1.01447640               57.05888344                0.01000001               -0.50099075                0.00430596                0.11135119                1.08978157               -0.18824606                0.04436322
               6.94449797                1.03181949               57.05976609                0.91412767               -0.26738358               -0.03187664                0.10562234                0.75029261               -0.10071216               -0.00317126
               7.94417509                1.03419660               57.06266102                0.99999999               -0.03317197               -0.03274018                0.11057141               -0.00003860                0.00082848                0.00201532
               8.94383453                1.03661011               57.06556832                0.99999999               -0.03483093               -0.03420010                0.11583379               -0.00004412                0.00124054                0.00312090
               9.94347847                1.03905568               57.06846280                0.99999999               -0.03560548               -0.03702631                0.12142908               -0.00183216                0.00097850                0.00119930
              -0.03463188                2.00016906               57.04600289                0.01000001               -0.02637960                0.06399350                0.08372141                0.07971492                0.00334862                0.09512548
               0.96510432                1.99693997               57.04907099                0.01000000               -0.06967983               -0.07180100                0.09176103                0.03283710                0.02219921                0.06947324
               1.96397452                1.99317115               57.05251974                0.01000001               -0.14050474               -0.11564201                0.09726271                0.13604141                0.00397977                0.03648672
               2.96229423                1.99211948               57.05508355                0.01000000               -0.23875205               -0.07382142                0.10151778                0.46107740               -0.05975858                0.03790564
               3.95919948                1.99480546               57.05715032                0.01000000               -0.38189409               -0.03722947                0.10781925                0.83185007               -0.10750078                0.04423051
               4.95465635                2.00200456               57.05879761                0.01000001               -0.51775829               -0.02702645                0.11341629                1.21449302               -0.15286169                0.06632683
               5.94884432                2.01319070               57.05998347                0.01000000               -0.62545891               -0.12193676                0.11810143                1.73712817               -0.24210783                0.09362954
               6.94214717                2.03148101               57.05987065                0.01000000               -0.35302015               -0.42998886                0.11807576                1.28368268               -0.14744027                0.13962619
               7.94178391                2.03385431               57.06286436                0.59779786               -0.03669190               -0.02233174                0.12279308               -0.00938307                0.00417828                0.06519434
               8.94141333                2.03625356               57.06576509                0.99999999               -0.03779991               -0.03739577                0.12769141                0.00070509               -0.00077802                0.00763046
               9.94102791                2.03866348               57.06860082                0.99999999               -0.03854158               -0.04112902                0.13409390               -0.00206709               -0.00303633               -0.00128163
              -0.02980321                3.00169073               57.04838192                0.01000000               -0.06453754                0.13834276                0.09054903                0.07116068                0.00162288                0.18257675
               0.96955141                2.99577254               57.05118562                0.01000001               -0.05154742               -0.15078668                0.09641969                0.16531315               -0.00269695                0.13899469
               1.96916584                2.99171029               57.05389370                0.01000000               -0.09447025               -0.21447717                0.10285872                0.46583926               -0.01679307                0.07964377
               2.96766201                2.99082596               57.05638039                0.01000000               -0.21949145               -0.19979225                0.10952732                0.85637083               -0.04713488                0.06629333
               3.96477601                2.99397135               57.05850111                0.01000004               -0.36198025               -0.16077867                0.11575000                1.28761196               -0.08868031                0.07724716
               4.96042240                3.00108277               57.06026318                0.01000000               -0.49935621               -0.15861530                0.12138567                1.72293547               -0.13819375                0.10502005
               5.95478889                3.01203767               57.06161159                0.01000001               -0.54571948               -0.23526268                0.12515957                2.00789121               -0.17870680                0.14813666
               6.94950801                3.02321971               57.06286016                0.01000001               -0.77870066               -0.62570696                0.12387340                2.10444882               -0.19263028                0.24571293
               7.93921487                3.03374996               57.06427875                0.01000006               -0.52342775               -0.40056443                0.11076540                1.58501592               -0.13547436                0.19081937
               8.93903946                3.03586219               57.06599017                0.01026446               -0.02987875               -0.44310297                0.13937348                1.13036069               -0.05999762                0.18988255
               9.93861730                3.03823310               57.06871017                0.99999999               -0.04221600               -1.00461748                0.14660297                1.34633449               -0.00984029                0.25058720
              -0.02137228                4.00293592               57.05065283                0.01000000               -0.02366931                0.05933705                0.09796545                0.18256043               -0.00403654                0.17464014
               0.97839103                3.99392424               57.05319230                0.01000000               -0.01949181               -0.25689386                0.10378699                0.42066975               -0.00835015                0.13577335
               1.97823788                3.98888160               57.05564717                0.01000000               -0.06152209               -0.34853274                0.11027182                0.85103815               -0.01862264                0.10488557
               2.97716059                3.98812363               57.05798501                0.01000190               -0.17714862               -0.34081016                0.11805585                1.28136599               -0.03577301                0.09327593
               3.97469491                3.99158988               57.06015860                0.01000000               -0.30559240               -0.30994794                0.12578618                1.70983879               -0.06421363                0.10852545
               4.97104874                3.99883226               57.06210920                0.01000001               -0.39148572               -0.30202394                0.13132233                2.07316261               -0.10476190                0.14728554
               5.96686520                4.00848544               57.06382442                0.01000001               -0.42624438               -0.39357918                0.13148284                2.34494791               -0.15923930                0.20673834
               6.96252385                4.01896687               57.06528693                0.01000004               -0.30117226               -0.51773614                0.11545592                2.34300605               -0.21322835                0.26642902
               7.96084175                4.02584302               57.06689994                0.01000001               -0.14932225               -0.75887388                0.06155850                2.35040166               -0.21328185                0.35581418
               8.95953741                4.02739151               57.06976639                0.01000000                0.11855154               -0.88426163                0.07367905                1.63091832               -0.08421723                0.39341860
               9.96321278                4.01857113               57.07391399                0.01000000                0.36753784               -1.50587090                0.34400583                1.22717028               -0.05623475                0.43952125
              -0.00812865                5.00287747               57.05291622                0.01000000                0.01477674               -0.18987586                0.10388746                0.36602736               -0.00634708                0.17219082
               0.99201912                4.99063466               57.05526602                0.01000000                0.00579274               -0.40240173                0.11220215                0.77119445               -0.01042847                0.13962133
               1.99198721                4.98473964               57.05753884                0.01000001               -0.07190355               -0.45463062                0.11987400                1.24413833               -0.01457684                0.11317148
               2.99058105                4.98400976               57.05980130                0.01000000               -0.18615220               -0.46530273                0.12885947                1.67915429               -0.01776191                0.10738643
               3.98826416                4.98777239               57.06206190                0.01000001               -0.27954784               -0.42188693                0.13779096                2.01136662               -0.02824871                0.13117568
               4.98499009                4.99504229               57.06428585                0.01000001               -0.33554643               -0.41920902                0.14350013                2.28028082               -0.05413204                0.18485097
               5.98155323                5.00416609               57.06640185                0.01000000               -0.29897667               -0.46009909                0.14200689                2.38286269               -0.09811537                0.26236929
               6.97901056                5.01286499               57.06841469                0.01000001               -0.18774840               -0.59037450                0.12708285                2.29421895               -0.15369953                0.36568055
               7.97779827                5.01857249               57.07051867                0.01000000               -0.00404236               -0.69882337                0.10560232                1.86963325               -0.18112967                0.47164408
               8.97892971                5.01817696               57.07331406                0.01000000                0.15015910               -0.79775471                0.08897264                1.17109799               -0.15083540                0.50900969
               9.98080145                5.00811569               57.07735919                0.01000002                0.18717372               -0.71876185                0.15327676                0.54104264               -0.08942068                0.42675319
               0.01043389                5.99913840               57.05524773                0.01000001                0.15188618               -0.79022033                0.10362851                0.88283366               -0.00910916                0.17734373
               1.01195275                5.98587620               57.05741676                0.01000001               -0.03441691               -0.48633822                0.11834143                1.21839616               -0.01358295                0.14473816
               2.00974555                5.97978899               57.05949400                0.01000000               -0.21209188               -0.49971419                0.13067839                1.81479133               -0.01246434                0.11248696
               3.00771092                5.97881758               57.06167683                0.01000001               -0.29279210               -0.45930675                0.14235361                1.88172797                0.00457721                0.10175795
               4.00388971                5.98315214               57.06408149                0.01000001               -0.37251277               -0.49977377                0.15137524                2.16480462                0.02022041                0.13629777
               5.00026066                5.99044808               57.06666588                0.01000001               -0.35949793               -0.45961720                0.15811015                2.30022084                0.02178071                0.20461867
               5.99669975                5.99928346               57.06933906                0.01000002               -0.31294161               -0.45708389                0.15802542                2.26719867                0.00394809                0.30337066
               6.99400183                6.00715938               57.07203489                0.01000000               -0.18886522               -0.51120306                0.15187824                1.98074329               -0.02682059                0.42463216
               7.99292245                6.01186655               57.07475521                0.01000000               -0.02928313               -0.59419684                0.14133571                1.50604539               -0.05522972                0.53923065
               8.99341617                6.01143641               57.07755077                0.01000002                0.06168688               -0.57036189                0.14164433                0.82300338               -0.04820379                0.57397854
               9.99415619                6.00419590               57.08060857                0.01000000                0.07400201               -0.25753645                0.18785930                0.37645786               -0.01837588                0.42042296
               0.03605242                6.98707307               57.05776974                0.94846273               -0.03159658               -0.61646532                0.08958526                0.97509186               -0.01327068                0.09462831
               1.03573645                6.98090790               57.05971304                0.67244093               -0.03553791               -0.26645468                0.12040438                0.88398511               -0.02278025                0.07456994
               2.03534166                6.97474535               57.06147502                0.01000000               -0.54419976               -0.27489354                0.14415787                1.28652476               -0.02167574                0.05722310
               3.02485246                6.97482362               57.06344552                0.01000001               -0.77059501               -0.53646117                0.15158366                1.81598348                0.02065668                0.07734034
               4.01992976                6.97777692               57.06605005                0.01000004               -0.49946333               -0.54025157                0.17023746                2.00266659                0.07857393                0.11583832
               5.01486319                6.98584995               57.06906124                0.01000001               -0.48719254               -0.45312334                0.17249839                2.23984489                0.11200232                0.19818977
               6.01018591                6.99502441               57.07237829                0.01000000               -0.44104275               -0.32127189                0.17463275                2.02295935                0.13091070                0.30416275
               7.00604233                7.00264093               57.07590735                0.01000000               -0.32718844               -0.33512387                0.17219490                1.55827340                0.13227749                0.43165525
               8.00364214                7.00668855               57.07941994                0.01000005               -0.14909495               -0.41598142                0.16885075                0.99597352                0.11263749                0.57367536
               9.00306043                7.00676972               57.08263963                0.01000002               -0.04152513               -0.38816767                0.17397160                0.47078551                0.06693258                0.62270853
              10.00281164                7.00296496               57.08515663                0.01000000               -0.02487992               -0.04461385                0.19564431                0.17997072                0.04073614                0.52349278
               0.04226607                7.98680909               57.05861373                1.00000000               -0.03058987               -0.02630233                0.08831725               -0.00003364               -0.00381308                0.01338708
               1.04196017                7.98054711               57.06056309                0.99999999               -0.03528736               -0.03581787                0.11855892                0.00098055               -0.00516982                0.00350970
               2.04156032                7.97429112               57.06248640                0.30513906               -0.04805743               -0.04620182                0.15184541                0.00394846                0.02448313                0.00320016
               3.04099902                7.96808836               57.06502193                0.01000007               -0.43218013               -0.36944677                0.24183089                1.02887101                0.07991952               -0.01939335
               4.03291672                7.97234711               57.06776463                0.01000001               -0.65944771               -0.83511990                0.17902777                2.01916827                0.13173466                0.08478312
               5.02781007                7.98138561               57.07125376                0.01000000               -0.62743802               -0.26792110                0.18534498                2.10768348                0.19761937                0.16426418
               6.02036796                7.99285802               57.07519000                0.01000000               -0.71534561               -0.06296401                0.18704105                1.67860082                0.25179186                0.25560437
               7.01350315                8.00045690               57.07958038                0.01000004               -0.58274161               -0.08148984                0.18627449                1.02376124                0.32018081                0.37153097
               8.00871313                8.00354692               57.08457823                0.01000002               -0.34738429               -0.16943914                0.18330948                0.41397305                0.32384731                0.52482166
               9.00655547                8.00367306               57.08861341                0.01000002               -0.16739969               -0.22101542                0.18238970               -0.05442687                0.22322366                0.84291209
              10.00536513                8.00330362               57.09122387                0.01000001               -0.11903367               -0.06862908                0.19087991               -0.09291921                0.16153916                0.62977328
               0.04857571                8.98654702               57.05951761                1.00000000               -0.03016753               -0.02591573                0.08667420                0.00008982                0.00209726                0.01332550
               1.04827403                8.98019154               57.06143820                0.99999999               -0.03481636               -0.03555435                0.11750303               -0.00030838                0.00352511                0.00323426
               2.04787938                8.97382132               57.06338009                0.99999999               -0.04500750               -0.04608968                0.15092708               -0.00104707                0.00377878               -0.00181587
               3.04737388                8.96743469               57.06528467                0.23545048               -0.04317562               -0.06065646                0.18884587                0.00372461                0.10834319               -0.03854822
               4.04701587                8.96107452               57.06929130                0.01000000               -0.54339692               -0.59868377                0.18488827                1.68082057                0.18920858                0.02115144
               5.03650595                8.98049153               57.07305476                0.01000000               -1.11646179                0.15102570                0.19518455                1.80180546                0.23549153                0.09678217
               6.02468663                8.99376513               57.07731742                0.01000001               -1.03386429                0.17636420                0.19280786                1.02366471                0.32879527                0.15203757
               7.01582866                9.00101113               57.08241335                0.01000002               -0.79905970                0.11300045                0.19257787                0.47990801                0.45743272                0.22317398
               8.00870544                9.00329977               57.08855894                0.01000002               -0.68067285                0.07351015                0.18898329                0.04196188                0.75188669                0.33390789
               9.00221520                9.00234941               57.09846300                1.00000000               -0.35066553               -0.09240523                0.17548585               -0.26486032                0.50976142                0.50699991
              10.00169213                9.00159237               57.09816288                0.99999994               -0.05230732               -0.11138485                0.17306749               -0.22157363               -0.00044349                0.36056870
               0.05497883                9.98629078               57.06036404                1.00000000               -0.02991200               -0.02562416                0.08571691               -0.00516377                0.01049154                0.01034976
               1.05467971                9.97983602               57.06228287                0.99999995               -0.03412978               -0.03555160                0.11666123               -0.00550530                0.01463405                0.00173220
               2.05429623                9.97336933               57.06427603                0.99999989               -0.04296977               -0.04519891                0.14654509               -0.00635496                0.01621969               -0.00137985
               3.05382031                9.96687523               57.06621529                0.99999999               -0.04099691               -0.05594623                0.17788001               -0.00515177                0.11947854               -0.00543901
               4.05347629                9.96037344               57.07027183                0.01000002               -1.13323720               -0.07010818                0.18015648                1.52258717                0.19830006               -0.00189971
               5.03115557                9.98440612               57.07408800                0.01000001               -1.65773235                0.39145969                0.19329992                1.26555581                0.21507139                0.04239122
               6.02032165                9.99638531               57.07827754                0.01000000               -0.87944454                0.26201813                0.18981255                0.47904043                0.32029410                0.07663542
               7.01356668               10.00271691               57.08347407                0.01000001               -0.60537815                0.17057745                0.19018793                0.20539260                0.50560843                0.11052884
               8.00821408               10.00501713               57.09037505                0.01000000               -0.53005108                0.17173605                0.18666015               -0.09373340                0.70222076                0.18706124
               9.00296565               10.00182495               57.09818180                0.99999994               -0.28831721               -0.05244607                0.17391597               -0.12201501                0.40577355                0.00043336
              10.00244774               10.00107592               57.09788167                0.99999994               -0.05179161               -0.05164528                0.17149451                0.00065781                0.00043496               -0.00042403
              -0.04431210                0.00005371               58.04545581                0.99712437               -0.02309027               -0.02281686                0.07346830                0.00199624               -0.00810568                0.00762718
               0.95545700               -0.00321731               58.04866958                0.99999999               -0.02414717               -0.02507437                0.08075455                0.00116355               -0.00868939               -0.00153510
               1.95520496               -0.00647028               58.05187080                0.01000000                0.05831466               -0.02733186                0.08803056                0.09104915               -0.04959747               -0.00348280
               2.95662329               -0.00790614               58.05426105                0.01000000                0.12305072               -0.05213103                0.09725685                0.07456802               -0.09024320                0.00666431
               3.95766597               -0.00582803               58.05635655                0.01000000                0.04697386               -0.01502892                0.10168393                0.16832914               -0.10927971                0.01289805
               4.95756277                0.00079514               58.05807037                0.01000000               -0.16351695                0.02522511                0.10494132                0.32534221               -0.13947793                0.01870546
               5.95439563                0.01271416               58.05941657                0.01000002               -0.68070545                0.13670348                0.10417541                0.77509063               -0.16365647                0.01566364
               6.94394866                0.03191115               58.06057156                0.97240821               -0.53659934               -0.03007239                0.09318627                0.84231052               -0.08876514               -0.00138457
               7.94366365                0.03431116               58.06351724                1.00000000               -0.02921067               -0.03242690                0.09798133                0.00077020                0.00126407               -0.00017910
               8.94336445                0.03674670               58.06646906                0.99999997               -0.03069243               -0.03349796                0.10310056                0.00092494                0.00148262                0.00106848
               9.94304980                0.03922014               58.06941288                1.00000000               -0.03146489               -0.03503722                0.10815528               -0.00088200                0.00152068                0.00258847
              -0.04102112                0.99982554               58.04614411                1.00000000               -0.02482524               -0.02362290                0.07907545                0.00091016                0.00139017                0.00811488
               0.95873063                0.99653195               58.04935985                0.01000000               -0.02595069               -0.02596552                0.08636212                0.00007684                0.00424322               -0.00446135
               1.95845987                0.99325640               58.05263404                0.01000000               -0.08413909               -0.05645919                0.09363904                0.04057425               -0.03480091                0.00211422
               2.95704785                0.99157255               58.05506593                0.01000001               -0.17306224               -0.03805360                0.10177980                0.17243710               -0.08298865                0.01556203
               3.95499862                0.99402168               58.05714907                0.01000000               -0.27513748               -0.00469410                0.10430487                0.40188390               -0.11644756                0.02375755
               4.95154510                1.00104739               58.05882395                0.01000000               -0.42050452                0.02997478                0.10999166                0.70812196               -0.15758169                0.03464518
               5.94658853                1.01408119               58.05999705                0.01000001               -0.49859180                0.00104583                0.11153382                1.10084916               -0.19586459                0.04514630
               6.94157326                1.03161043               58.06082301                0.90590294               -0.26674788               -0.03180055                0.10612637                0.75811438               -0.10554707               -0.00164619
               7.94125358                1.03398689               58.06377411                0.99999999               -0.03270277               -0.03496494                0.11154240               -0.00033739                0.00072231                0.00027124
               8.94091921                1.03641172               58.06672865                0.99999999               -0.03430212               -0.03508457                0.11596438                0.00180091                0.00053391                0.00185717
               9.94056753                1.03886977               58.06967492                0.99999997               -0.03516737               -0.03755484                0.12088604                0.00019713                0.00031209                0.00387943
              -0.03770671                1.99958125               58.04684495                0.01000002               -0.02656153                0.06720731                0.08468968                0.08807131                0.00334442                0.09616531
               0.96202768                1.99626338               58.04998968                0.01000000               -0.06587223               -0.07280668                0.09197725                0.04127889                0.02157108                0.06907627
               1.96097585                1.99240054               58.05350258                0.01000001               -0.13604601               -0.11657783                0.09862916                0.14859641                0.00413051                0.03393080
               2.95930676                1.99133278               58.05611482                0.01000000               -0.23735194               -0.07711332                0.10517787                0.47393510               -0.06245212                0.03992158
               3.95622881                1.99407809               58.05825220                0.01000000               -0.38205288               -0.03889933                0.11216207                0.84804485               -0.10732617                0.05258281
               4.95166570                2.00139463               58.05995697                0.01000001               -0.51896149               -0.02835191                0.11810522                1.22706674               -0.15472967                0.07212787
               5.94584958                2.01273507               58.06118369                0.01000000               -0.62302266               -0.12580639                0.12185969                1.74610021               -0.24657650                0.09586422
               6.93920525                2.03127514               58.06107094                0.01000000               -0.34969850               -0.43334826                0.12125035                1.27239138               -0.15234022                0.14221584
               7.93885561                2.03361186               58.06404041                0.60824003               -0.03438279               -0.03644986                0.11791906                0.00217848                0.00101467                0.00497393
               8.93851759                2.03604500               58.06700160                0.99999999               -0.03589862               -0.03622964                0.12378891                0.00778003                0.00025984                0.00204389
               9.93813764                2.03846904               58.06995692                0.99999999               -0.03799533               -0.04213838                0.13591518                0.00254138               -0.00016675                0.00382700
              -0.03262395                3.00116969               58.04929924                0.01000035               -0.06391258                0.14037800                0.09174684                0.07659228                0.00201918                0.18558947
               0.96673692                2.99507582               58.05215066                0.01000001               -0.05068272               -0.15199813                0.09569284                0.17506149               -0.00059569                0.13835738
               1.96636240                2.99092485               58.05492542                0.01000000               -0.09439624               -0.21523151                0.10336519                0.47990940               -0.01406455                0.07980916
               2.96484900                2.99003028               58.05748674                0.01000000               -0.22323616               -0.19940075                0.11223052                0.87589236               -0.04478846                0.07111662
               3.96189767                2.99324369               58.05968328                0.01000001               -0.37097755               -0.15865996                0.12114819                1.30796934               -0.08838461                0.08562383
               4.95742945                3.00048035               58.06151393                0.01000000               -0.51338208               -0.15463798                0.12890091                1.73737139               -0.14119630                0.11354789
               5.95163003                3.01156506               58.06289286                0.01000001               -0.56425748               -0.22857005                0.13341413                2.00815321               -0.18351510                0.15153535
               6.94614430                3.02294346               58.06420854                0.01000001               -0.75513756               -0.62470778                0.13980616                2.05208090               -0.25707068                0.22533124
               7.93652728                3.03325790               58.06440050                0.01000002               -0.49633362               -0.35368250                0.02025091                1.46933707               -0.13912566                0.12873267
               8.93621763                3.03568712               58.06726978                0.01000000               -0.03784988               -0.42421434                0.12808819                1.02549034               -0.00570134                0.11816486
               9.93577028                3.03802700               58.07021828                0.99999998               -0.04473445               -1.01833272                0.15170844                1.19168422               -0.00232737                0.38931810
              -0.02398712                4.00238881               58.05166068                0.01000000               -0.02391342                0.05516404                0.10387967                0.18473752               -0.00293389                0.17829295
               0.97577375                3.99322342               58.05423636                0.01000000               -0.01966561               -0.25840417                0.10326649                0.42568371               -0.00548787                0.13871504
               1.97561957                3.98809591               58.05675152                0.01000000               -0.06339973               -0.34896831                0.10946453                0.86382605               -0.01356456                0.10842404
               2.97450576                3.98734477               58.05917714                0.01000005               -0.18407235               -0.33930176                0.12012627                1.30232321               -0.03111611                0.10034188
               3.97193813                3.99090489               58.06144103                0.01000000               -0.32069989               -0.30513308                0.13129806                1.73671046               -0.06311136                0.11954499
               4.96809176                3.99830187               58.06346033                0.01000001               -0.41942967               -0.29204205                0.14040269                2.10063750               -0.11110776                0.15872674
               5.96354953                4.00816367               58.06519145                0.01000001               -0.47688637               -0.37509704                0.14513884                2.35932804               -0.18674635                0.21274266
               6.95855403                4.01878098               58.06645073                0.01000004               -0.40254223               -0.48437337                0.13475629                2.36265121               -0.30993064                0.25921771
               7.95549869                4.02653821               58.06724715                0.01000001               -0.21478697               -0.67994755                0.09048893                2.25324433               -0.47030364                0.36997023
               8.95425829                4.02756072               58.06986986                0.01000000                0.08964392               -0.77818698                0.07833189                1.40159738               -0.80104344                0.76207017
               9.95729157                4.01810239               58.07821550                0.01000002                0.30332748               -1.39838639                0.05503583                0.98337935               -0.72071962                1.32213954
              -0.01059841                5.00227297               58.05400055                0.01000000                0.01419182               -0.19673782                0.11650602                0.36666320               -0.00675019                0.16861792
               0.98954351                4.98990773               58.05640457                0.01000000                0.00579905               -0.40640653                0.11412368                0.77428576               -0.01104514                0.14404034
               1.98951757                4.98394548               58.05874077                0.01000001               -0.07285115               -0.45753936                0.11828837                1.25537764               -0.01258664                0.12156458
               2.98808648                4.98324424               58.06109463                0.01000000               -0.19213951               -0.46599469                0.12959086                1.70356657               -0.01404630                0.11975419
               3.98567478                4.98714103               58.06346055                0.01000001               -0.29515334               -0.41829558                0.14238169                2.04857282               -0.02835442                0.14529278
               4.98218342                4.99463951               58.06575535                0.01000001               -0.36686485               -0.40772324                0.15248385                2.32876287               -0.06426726                0.20049790
               5.97833748                5.00406312               58.06787198                0.01000001               -0.35803172               -0.43819945                0.15702115                2.44765829               -0.13152330                0.27883661
               6.97502278                5.01325599               58.06971872                0.01000000               -0.27625247               -0.54918269                0.15134400                2.38978718               -0.23315703                0.39294568
               7.97281243                5.01965894               58.07157169                0.01000000               -0.11686918               -0.67173190                0.13845173                2.02886947               -0.37726091                0.60724551
               8.97268540                5.02012338               58.07387169                0.01000000                0.07710469               -0.72960165                0.10109884                1.28710379               -0.35177135                0.80979735
               9.97435453                5.01005927               58.07808695                0.01000000                0.16691278               -0.66965177                0.13978453                0.66023969               -0.17618597                0.46328242
               0.00807662                5.99845406               58.05632887                0.01000002                0.15103323               -0.79663376                0.11792272                0.88500447               -0.01192821                0.16142055
               1.00958696                5.98509529               58.05861901                0.01000001               -0.03430052               -0.49115226                0.12243485                1.22229695               -0.02031867                0.14747421
               2.00739061                5.97894512               58.06080773                0.01000000               -0.21027109               -0.50653320                0.13001984                1.82555165               -0.01545881                0.12409807
               3.00538153                5.97802488               58.06312063                0.01000001               -0.29381483               -0.47090103                0.14213641                1.90695713                0.00148195                0.11137436
               4.00151432                5.98253898               58.06560303                0.01000001               -0.38183044               -0.50169380                0.15481836                2.21375670                0.01547728                0.15574871
               4.99774493                5.99014741               58.06827215                0.01000003               -0.38140521               -0.45236979                0.16482190                2.36958375                0.00967835                0.22369018
               5.99388621                5.99939968               58.07095729                0.01000001               -0.34954873               -0.44219705                0.17032490                2.36242987               -0.02323406                0.32680107
               6.99075395                6.00779733               58.07360604                0.01000000               -0.23387634               -0.49751817                0.17078121                2.11757840               -0.08040854                0.46832896
               7.98920869                6.01310358               58.07619497                0.01000000               -0.05769565               -0.59909193                0.16534930                1.67842810               -0.12183859                0.62098585
               8.98960004                6.01296868               58.07896280                0.01000005                0.07079474               -0.62535911                0.16769226                0.98017019               -0.08153327                0.69344534
               9.99062458                6.00470935               58.08252173                0.01000000                0.10245429               -0.35457728                0.19070270                0.48340952               -0.01624076                0.51371067
               0.03381921                6.98634030               58.05867108                0.95344161               -0.03208295               -0.61912726                0.09145570                0.97661524               -0.01293374                0.08576288
               1.03349838                6.98008469               58.06092433                0.62816582               -0.03600977               -0.26843992                0.12107562                0.88481105               -0.02699908                0.07438614
               2.03309902                6.97381482               58.06290533                0.01000000               -0.54333069               -0.27866199                0.14333219                1.28842917               -0.04032813                0.06826467
               3.02263177                6.97382622               58.06488592                0.01000000               -0.76358183               -0.56157039                0.15753280                1.85633514                0.01391591                0.13504181
               4.01782738                6.97710716               58.06776997                0.01000004               -0.49586916               -0.54296767                0.16619279                2.06659097                0.07297807                0.12880098
               5.01271439                6.98559211               58.07079223                0.01000003               -0.49456113               -0.45349959                0.17640785                2.31661265                0.09595590                0.21830071
               6.00793616                6.99521918               58.07415032                0.01000000               -0.45219643               -0.31905214                0.18232725                2.12201258                0.11005792                0.32765381
               7.00367046                7.00330563               58.07766518                0.01000000               -0.33632593               -0.33953193                0.18431069                1.68032198                0.10410199                0.46361595
               8.00120964                7.00767711               58.08115352                0.01000001               -0.14937169               -0.43945720                0.18475179                1.12186941                0.08529529                0.61563789
               9.00068302                7.00761620               58.08442448                0.01000002               -0.03341305               -0.43580217                0.18845015                0.55353926                0.04997430                0.66365877
              10.00054138                7.00296773               58.08710196                0.01000000               -0.01416454               -0.08026991                0.20075906                0.21911795                0.03239333                0.53158350
               0.04012014                7.98607151               58.05950214                1.00000000               -0.03114874               -0.02668111                0.08988139                0.00021758               -0.00542465                0.01218340
               1.03980866                7.97972649               58.06174511                0.99999998               -0.03512418               -0.03565755                0.11874515                0.00077686               -0.00464308                0.00260909
               2.03941766                7.97337188               58.06401981                0.54058210               -0.02963803               -0.04430719                0.14651604               -0.00980226                0.06672585                0.00880348
               3.03921590                7.96679347               58.06770060                0.01000007               -0.41687069               -0.36622023                0.15469625                1.05224391                0.04659798                0.01807339
               4.03108025                7.97167962               58.06943366                0.01000001               -0.66253714               -0.84960145                0.17870159                2.07496700                0.07317096                0.10443550
               5.02596515                7.98107742               58.07312897                0.01000000               -0.62336500               -0.27494865                0.18563505                2.16659362                0.18780524                0.17888959
               6.01861295                7.99301864               58.07706506                0.01000000               -0.70313444               -0.07093944                0.19044399                1.75958244                0.23386163                0.27325250
               7.01190247                8.00100669               58.08146554                0.01000002               -0.56387223               -0.09740067                0.19291459                1.11693436                0.30212547                0.39183414
               8.00733550                8.00431443               58.08643953                0.01000002               -0.32611318               -0.19425006                0.19149101                0.50971772                0.30676372                0.54481491
               9.00538020                8.00425264               58.09046477                0.01000003               -0.15158073               -0.24865206                0.19042460                0.03147309                0.21327076                0.84909586
              10.00430389                8.00310396               58.09314701                0.01000001               -0.10763136               -0.05453700                0.19474296               -0.04194461                0.15757272                0.61786584
               0.04651360                8.98580667               58.06038523                0.99999997               -0.03000529               -0.02626024                0.08786415                0.00027479                0.00053029                0.01183662
               1.04621355                8.97937154               58.06260861                0.99999999               -0.03388047               -0.03548841                0.11684989                0.00070983                0.00324626                0.00377785
               2.04583599                8.97292867               58.06489190                0.99999999               -0.04223241               -0.04431418                0.14694264                0.00180352                0.00950348               -0.00182919
               3.04536890                8.96650182               58.06720532                0.31071694               -0.03966120               -0.04218885                0.18326316               -0.00923024                0.10289952               -0.07513006
               4.04504277                8.96011513               58.07127895                0.01000000               -0.53308310               -0.61388799                0.19863599                1.70184662                0.16997112                0.04759301
               5.03470724                8.98009314               58.07494871                0.01000000               -1.09221201                0.13899444                0.18843906                1.84370886                0.21216153                0.10215634
               6.02319853                8.99380039               58.07925972                0.01000005               -0.99969445                0.16062617                0.19470438                1.06963202                0.31477917                0.16189628
               7.01471335                9.00135762               58.08435312                0.01000002               -0.75202444                0.08977631                0.19677275                0.53068543                0.44360951                0.23300176
               8.00815804                9.00379210               58.09046315                0.01000000               -0.60951962                0.03887208                0.19295039                0.09094077                0.73616530                0.34166344
               9.00252296                9.00264316               58.10021799                1.00000000               -0.30790930               -0.10671828                0.17550756               -0.20066281                0.50351477                0.50291400
              10.00199986                9.00187699               58.09989318                1.00000000               -0.05231036               -0.08716042                0.17298265               -0.15359108               -0.00043867                0.35169266
               0.05299591                9.98554631               58.06121933                1.00000000               -0.02950585               -0.02603657                0.08679294               -0.00472746                0.00817582                0.00875850
               1.05270086                9.97901672               58.06344688                0.99999996               -0.03362325               -0.03548130                0.11578267               -0.00430517                0.01118748                0.00252859
               2.05232345                9.97248560               58.06573530                1.00000000               -0.04280094               -0.04430751                0.14564831               -0.00460628                0.01408892               -0.00209049
               3.05184484                9.96594969               58.06798583                0.99999999               -0.03987951               -0.05521285                0.18148659               -0.00659334                0.11414771               -0.01331659
               4.05152586                9.95940186               58.07226458                0.01000001               -1.13453852               -0.07132634                0.19857821                1.54368946                0.18588109               -0.00060949
               5.02915407                9.98385730               58.07597159                0.01000001               -1.63923739                0.37641649                0.18912274                1.28614743                0.19174142                0.04728033
               6.01874111                9.99623116               58.08021120                0.01000001               -0.83148026                0.24307709                0.19535070                0.50150359                0.30760198                0.08004369
               7.01252446               10.00280222               58.08540816                0.01000001               -0.54361682                0.14446002                0.19772646                0.22414633                0.49405637                0.11409616
               8.00786877               10.00509187               58.09226322                0.01000000               -0.46211990                0.12997677                0.19170400               -0.06312386                0.68958240                0.18698616
               9.00328206               10.00211828               58.09992135                1.00000000               -0.25521811               -0.05248849                0.17399499               -0.11064599                0.39962099                0.00045658
              10.00276441               10.00136075               58.09959647                0.99999990               -0.05176506               -0.05162403                0.17148564                0.00070275                0.00038272               -0.00043873
              -0.04764328               -0.00058642               59.04619176                0.99810678               -0.02304673               -0.02295577                0.07371885                0.00193573               -0.00809344                0.00761212
               0.95212625               -0.00395099               59.04947462                0.99999999               -0.02399152               -0.02497825                0.08025192                0.00104786               -0.00868096               -0.00154007
               1.95187689               -0.00729636               59.05274483                0.01000001                0.06739238               -0.02700041                0.08677460                0.09940296               -0.04889157               -0.00347797
               2.95347410               -0.00865399               59.05521812                0.01000001                0.13770712               -0.05861455                0.09592427                0.08141467               -0.08764777                0.00827869
               3.95463103               -0.00651979               59.05736886                0.01000000                0.05675433               -0.01847694                0.10101019                0.17375867               -0.11287812                0.01434407
               4.95460918                0.00020899               59.05912069                0.01000000               -0.15802329                0.02206157                0.10492025                0.32973315               -0.14501188                0.02045424
               5.95147056                0.01225689               59.06045119                0.01000003               -0.68118249                0.13553153                0.10475087                0.78253135               -0.17780146                0.01725688
               6.94098553                0.03158793               59.06150154                0.97148033               -0.53837415               -0.03007517                0.09244570                0.84918903               -0.09635221               -0.00085783
               7.94070308                0.03399180               59.06449317                1.00000000               -0.02891099               -0.03129470                0.09690303                0.00067420                0.00147441                0.00090913
               8.94040731                0.03643976               59.06749452                0.99999999               -0.03022979               -0.03250513                0.10137228                0.00070197                0.00188802                0.00174547
               9.94009848                0.03893169               59.07048653                0.99999945               -0.03088299               -0.03424605                0.10568121               -0.00143929                0.00212185                0.00391520
              -0.04425936                0.99918402               59.04693792                0.99999999               -0.02489446               -0.02381662                0.07968444                0.00096273                0.00139437                0.00810454
               0.95549170                0.99579923               59.05022276                0.01000000               -0.02591121               -0.02591624                0.08621943                0.00007436                0.00424405               -0.00446105
               1.95522242                0.99243364               59.05356595                0.01000000               -0.07958672               -0.05726316                0.09274435                0.05078738               -0.03433586                0.00211485
               2.95389996                0.99075987               59.05607620                0.01000001               -0.16426439               -0.04244549                0.10177576                0.18416357               -0.08522110                0.01459147
               3.95193713                0.99329544               59.05821662                0.01000000               -0.26908938               -0.00786534                0.10702189                0.41247556               -0.11814845                0.02708626
               4.94851817                1.00042960               59.05992726                0.01000000               -0.41653615                0.02740738                0.11021112                0.71689240               -0.16072131                0.03955033
               5.94360640                1.01361221               59.06111412                0.01000001               -0.49541021               -0.00223632                0.11153320                1.10929143               -0.20393230                0.04819805
               6.93860997                1.03128718               59.06188862                0.90183845               -0.26612492               -0.03240671                0.10739287                0.76623798               -0.10978755                0.00018398
               7.93828391                1.03367886               59.06489187                0.99999995               -0.03327894               -0.03322081                0.11133945               -0.00009987                0.00061358               -0.00159664
               8.93794439                1.03611471               59.06788761                0.99999999               -0.03458715               -0.03432262                0.11546297                0.00025378               -0.00033866                0.00058707
               9.93759216                1.03858923               59.07088052                0.99999999               -0.03522268               -0.03675138                0.12006346               -0.00177544               -0.00054631                0.00705328
              -0.04085445                1.99893725               59.04769669                0.01000000               -0.02674351                0.07013879                0.08565719                0.09902826                0.00333993                0.09655636
               0.95887812                1.99553069               59.05091054                0.01000000               -0.06067782               -0.07531130                0.09219421                0.05213759                0.02155406                0.06758294
               1.95793200                1.99155838               59.05449232                0.01000001               -0.12912749               -0.11880528                0.10009031                0.16462341                0.00764136                0.03097377
               2.95629557                1.99049710               59.05718710                0.01000000               -0.23605963               -0.07869496                0.10906497                0.49364699               -0.05802919                0.04040175
               3.95321080                1.99332290               59.05939356                0.01000000               -0.38326525               -0.04002206                0.11656166                0.86520164               -0.10525866                0.05820351
               4.94863026                2.00075714               59.06115972                0.01000001               -0.52059939               -0.02896150                0.12186181                1.23799921               -0.15431503                0.08109072
               5.94279882                2.01221217               59.06242066                0.01000000               -0.61933087               -0.12757989                0.12497346                1.75001158               -0.24834922                0.10411434
               6.93624365                2.03093980               59.06229566                0.01000000               -0.34626325               -0.44703154                0.12255897                1.26821043               -0.15833453                0.14819387
               7.93587355                2.03332739               59.06522274                0.36907058               -0.03708146               -0.02804886                0.12479687               -0.00496371               -0.00309296               -0.04771413
               8.93550202                2.03575331               59.06824087                1.00000000               -0.03798065               -0.03787435                0.12865163                0.00162695                0.00101902               -0.00371484
               9.93511394                2.03819666               59.07131912                0.99999999               -0.03880784               -0.04141735                0.13500251               -0.00158575                0.00280045                0.00964295
              -0.03546568                3.00058680               59.05021686                0.01000000               -0.06210092                0.14316093                0.09176388                0.08422681                0.00392069                0.18881862
               0.96391331                2.99429300               59.05309948                0.01000001               -0.04929267               -0.15430288                0.09469125                0.18915242                0.00642323                0.13094353
               1.96354847                2.99005753               59.05596101                0.01000000               -0.09524669               -0.21618204                0.10476895                0.49933908               -0.00320955                0.07334286
               2.96200838                2.98918597               59.05862500                0.01000000               -0.22836699               -0.19872606                0.11663404                0.89953272               -0.03487030                0.07121998
               3.95898113                2.99249500               59.06092407                0.01000004               -0.38097428               -0.15596951                0.12766608                1.33015518               -0.08079625                0.09249235
               4.95438889                2.99985037               59.06284120                0.01000000               -0.52785766               -0.14958809                0.13670984                1.75057525               -0.13601438                0.12379192
               5.94842397                3.01106061               59.06427987                0.01000001               -0.57649681               -0.22254925                0.14358985                1.99186128               -0.17760196                0.16166043
               6.94285896                3.02234655               59.06565628                0.01000000               -0.75264279               -0.61493800                0.14338195                2.00415848               -0.30222466                0.22950273
               7.93337112                3.03311788               59.06468377                0.01000001               -0.48756516               -0.36280748                0.12116669                1.25768367               -0.15726594                0.13152062
               8.93310765                3.03535723               59.06855193                0.05008095               -0.03486881                0.01388433                0.14106083                0.08445842                0.04018678                0.11370479
               9.93267374                3.03776088               59.07174434                0.99999997               -0.04339109               -0.05257049                0.14968829                0.09002479                0.00593899                0.15210403
              -0.02658233                4.00180046               59.05273043                0.01000000               -0.02272458                0.04974235                0.10249635                0.18411567                0.00389700                0.18302377
               0.97319043                3.99244463               59.05525763                0.01000000               -0.01959304               -0.25800901                0.09835891                0.42894804                0.00785242                0.13279580
               1.97302581                3.98723474               59.05783646                0.01000000               -0.06708354               -0.34714068                0.10840932                0.87874495                0.00527024                0.10203794
               2.97184876                3.98652258               59.06038754                0.01000113               -0.19381558               -0.33623074                0.12343676                1.32703668               -0.01377570                0.10117261
               3.96914950                3.99020351               59.06278456                0.01000000               -0.33863007               -0.29893781                0.13843950                1.76490105               -0.05046126                0.12695106
               4.96507616                3.99776537               59.06491726                0.01000001               -0.45048177               -0.28049731                0.15114978                2.12310471               -0.10277103                0.16924915
               5.96013987                4.00776118               59.06672720                0.01000001               -0.54033047               -0.35418146                0.16210723                2.37055414               -0.18269498                0.22178004
               6.95426955                4.01864104               59.06798206                0.01000000               -0.60616588               -0.43889741                0.17106315                2.30494024               -0.31103639                0.26250576
               7.94801655                4.02607124               59.06870972                0.01000001               -1.08606827               -0.56741517                0.21618391                2.50594601               -0.46664678                0.41757032
               8.93254818                4.03603100               59.07133303                0.01000000               -0.79547161               -0.50386253                0.09717941                2.16726926               -0.98315993                0.69800761
               9.93210712                4.03714525               59.07501470                0.01000001               -0.04410648               -1.23428901               -0.14523487                1.92009874               -1.09062128                1.33620924
              -0.01307170                5.00158164               59.05524634                0.01000003                0.01296943               -0.20520943                0.13541779                0.36498665               -0.00193661                0.17561374
               0.98705800                4.98913282               59.05754850                0.01000000                0.00585556               -0.40693500                0.10891609                0.77050843                0.00093439                0.14552592
               1.98704541                4.98311472               59.05990461                0.01000001               -0.07388293               -0.45641769                0.11117685                1.26187347                0.00779075                0.12181438
               2.98558034                4.98246135               59.06239312                0.01000000               -0.20045288               -0.46344059                0.12994328                1.72490083                0.00590715                0.12488744
               3.98303636                4.98651624               59.06490954                0.01000001               -0.31435108               -0.41229053                0.14852358                2.08386567               -0.01444833                0.15593615
               4.97929332                4.99424043               59.06733553                0.01000001               -0.40384814               -0.39401901                0.16396111                2.37422768               -0.05614253                0.21125092
               5.97495939                5.00397698               59.06954227                0.01000002               -0.43228061               -0.41100183                0.17671911                2.50447467               -0.12701707                0.28770373
               6.97064770                5.01356860               59.07144157                0.01000002               -0.44296574               -0.50307720                0.19276357                2.53395154               -0.23024437                0.39899628
               7.96610008                5.02176958               59.07328771                0.01000000               -0.26343409               -0.56834006                0.19743191                2.44118704               -0.38070892                0.60422252
               8.96537902                5.02527997               59.07533604                0.01000000                0.13735628               -1.06392340                0.21788758                2.21080407               -0.32652186                0.78950413
               9.96884720                5.01307510               59.08015488                0.01000001                0.34681813               -1.58450779                0.19154478                1.50983221               -0.12832945                0.65639840
               0.00561505                5.99769628               59.05760618                0.01000002                0.14524731               -0.79832955                0.15303458                0.87891280               -0.01577084                0.13065873
               1.00706752                5.98430593               59.05986546                0.01000001               -0.03401469               -0.49316555                0.12412447                1.21571653               -0.02273870                0.14607109
               2.00493475                5.97810639               59.06209440                0.01000000               -0.20611339               -0.51080801                0.12283127                1.82379624               -0.00862759                0.13698413
               3.00294525                5.97725377               59.06451956                0.01000001               -0.29435060               -0.47584296                0.13898200                1.92685597                0.01403384                0.13291866
               3.99904774                5.98195770               59.06717786                0.01000001               -0.39226407               -0.49969654                0.15903843                2.25389397                0.02432410                0.16628157
               4.99509997                5.98988499               59.06996232                0.01000006               -0.40732771               -0.44406411                0.17402436                2.43460411                0.01318508                0.23521447
               5.99090119                5.99954115               59.07274556                0.01000003               -0.39719937               -0.42536353                0.18704147                2.46246108               -0.02169412                0.33486599
               6.98715598                6.00857949               59.07545052                0.01000000               -0.28861351               -0.47574300                0.19695114                2.28183773               -0.08028246                0.47132018
               7.98512892                6.01470444               59.07806220                0.01000000               -0.08486236               -0.65064181                0.20778251                1.93308528               -0.12004817                0.61830830
               8.98545873                6.01475253               59.08090462                0.01000001                0.07922928               -0.83695258                0.21271373                1.17415595               -0.08530657                0.69596643
               9.98671350                6.00545510               59.08442262                0.01000000                0.12547665               -0.50518800                0.20118314                0.53312328               -0.03031147                0.49082064
               0.03128725                6.98561505               59.05959886                0.96017234               -0.03250326               -0.61788318                0.09427810                0.96827495               -0.01278153                0.06806192
               1.03096222                6.97926951               59.06213455                0.57937231               -0.03568758               -0.26954575                0.12110166                0.87828115               -0.02959281                0.07250088
               2.03057350                6.97289856               59.06434166                0.01000000               -0.53480380               -0.28128834                0.14047674                1.28397923               -0.04266978                0.07578673
               3.02026614                6.97294449               59.06659618                0.01000000               -0.75452432               -0.55616735                0.15713856                1.85978198                0.00470035                0.10027784
               4.01548301                6.97652231               59.06937391                0.01000004               -0.49320932               -0.55154322                0.16354375                2.11593408                0.06050727                0.14889465
               5.01040196                6.98535915               59.07258940                0.01000001               -0.49844484               -0.45390335                0.18168074                2.38910977                0.09627100                0.22632389
               6.00551412                6.99546971               59.07602483                0.01000000               -0.46403938               -0.31637373                0.19260207                2.22510123                0.10697863                0.33379282
               7.00112117                7.00405374               59.07959357                0.01000000               -0.34626835               -0.34869232                0.20080084                1.81511207                0.10091241                0.46616959
               7.99858875                7.00875674               59.08311497                0.01000002               -0.15048431               -0.47854239                0.20612694                1.26037192                0.08135922                0.61340927
               8.99811148                7.00854092               59.08640863                0.01000002               -0.02421078               -0.49455353                0.20790958                0.64346358                0.04730531                0.65400960
               9.99810453                7.00297134               59.08917181                0.01000000               -0.00069484               -0.12926918                0.20931723                0.26497213                0.03040195                0.52181342
               0.03767162                7.98533861               59.06041135                1.00000000               -0.03219904               -0.02742475                0.09284145                0.00025617               -0.00550993                0.01074195
               1.03734963                7.97891501               59.06293800                0.99999998               -0.03661347               -0.03520923                0.11868483                0.00060379               -0.00851063                0.00101800
               2.03693935                7.97248062               59.06541672                0.51238615               -0.04162474               -0.04146561                0.13897710                0.00573209                0.00034633                0.01030571
               3.03651714                7.96613042               59.06811586                0.01000006               -0.39937922               -0.36488179                0.08429347                1.06124532                0.02549818                0.03281421
               4.02895177                7.97092684               59.07133866                0.01000001               -0.62911867               -0.86634283                0.17246286                2.09327014                0.10796524                0.11380119
               5.02393477                7.98080693               59.07496647                0.01000000               -0.61215777               -0.28335562                0.18533010                2.23266417                0.17330101                0.18109353
               6.01670861                7.99321367               59.07899888                0.01000000               -0.68817854               -0.08063971                0.19554285                1.84312059                0.22871656                0.27605997
               7.01017119                8.00160565               59.08343867                0.01000002               -0.54297212               -0.11625931                0.20155754                1.21480831                0.29528535                0.39307528
               8.00584917                8.00513359               59.08840805                0.01000002               -0.30288957               -0.22236991                0.20159778                0.61154660                0.30012025                0.54195559
               9.00411340                8.00486146               59.09242191                0.01000004               -0.13485351               -0.27949048                0.19996282                0.12400566                0.20813091                0.83475809
              10.00315210                8.00286971               59.09511873                0.01000000               -0.09613010               -0.03972851                0.19932271                0.01224770                0.15222285                0.59450725
               0.04413957                8.98506656               59.06127489                1.00000000               -0.03072816               -0.02704333                0.09109232                0.00065809               -0.00086469                0.01049713
               1.04383229                8.97856533               59.06377520                0.99999999               -0.03334179               -0.03524872                0.11649467                0.00202749                0.00037876                0.00231709
               2.04347273                8.97206925               59.06631894                1.00000000               -0.03937285               -0.04199435                0.13959148                0.00906208                0.00746772                0.00189443
               3.04304483                8.96564686               59.06894993                0.40664293               -0.04004103               -0.05412665                0.17579413                0.00915264                0.10048317               -0.00602406
               4.04267191                8.95919546               59.07326402                0.01000000               -0.51382121               -0.62684246                0.18736273                1.71507800                0.15800482                0.03447248
               5.03276841                8.97969203               59.07682354                0.01000000               -1.05470522                0.12495208                0.18318425                1.88852364                0.19797397                0.10310203
               6.02157781                8.99385692               59.08121150                0.01000001               -0.96354949                0.14347780                0.19741901                1.11825115                0.30818370                0.16152892
               7.01349742                9.00172856               59.08634880                0.01000002               -0.70069692                0.06415515                0.20183465                0.58385037                0.43524930                0.23291131
               8.00756387                9.00430934               59.09241794                0.01000000               -0.53209728                0.00115599                0.19761067                0.14329606                0.72101024                0.33884739
               9.00285547                9.00295111               59.10197315                1.00000000               -0.26154463               -0.12170460                0.17558664               -0.13105701                0.49490535                0.49378219
              10.00233298                9.00217677               59.10162253                0.99999999               -0.05224938               -0.06045689                0.17291339               -0.07978107               -0.00046423                0.34033767
               0.05068724                9.98479775               59.06209990                0.99999999               -0.02997521               -0.02688119                0.09020982               -0.00400280                0.00521922                0.00749712
               1.05038749                9.97821004               59.06459852                0.99999999               -0.03240897               -0.03552872                0.11554383               -0.00233004                0.00871738                0.00189324
               2.05003907                9.97164073               59.06718900                0.99999998               -0.04067542               -0.04285159                0.14088998               -0.00147420                0.01733953                0.00153586
               3.04957398                9.96504789               59.06984502                1.00000000               -0.04154549               -0.05989683                0.18556310               -0.00962171                0.11263760               -0.00116216
               4.04920816                9.95838999               59.07424340                0.01000001               -1.12651039               -0.08054670                0.18752778                1.56652832                0.17219350                0.01142001
               5.02704378                9.98330597               59.07787046                0.01000001               -1.60855199                0.36139355                0.18571801                1.31219904                0.18120218                0.04581948
               6.01703712                9.99608323               59.08218456                0.01000001               -0.78239997                0.22263098                0.20133627                0.52506994                0.30169390                0.07911667
               7.01139578               10.00288875               59.08742860                0.01000001               -0.47722902                0.11601951                0.20555351                0.24351028                0.48419397                0.11257625
               8.00749254               10.00515671               59.09420913                0.01000000               -0.38854726                0.08473672                0.19722206               -0.03020249                0.67214090                0.18278632
               9.00362483               10.00242737               59.10166170                0.99999999               -0.21936873               -0.05237463                0.17406130               -0.09787045                0.39039221                0.00033155
              10.00310516               10.00166058               59.10131138                0.99999999               -0.05196712               -0.05161968                0.17139118                0.00053941                0.00066936               -0.00037768
              -0.05103968               -0.00128637               60.04693019                0.99914419               -0.02300036               -0.02309222                0.07395897                0.00187413               -0.00808132                0.00759620
               0.94873031               -0.00474440               60.05027462                0.99999999               -0.02383465               -0.02487902                0.07974418                0.00093100               -0.00867280               -0.00154524
               1.94848363               -0.00818209               60.05360630                0.01000000                0.07579970               -0.02667119                0.08552549                0.10799255               -0.04696750               -0.00347427
               2.95024631               -0.00945673               60.05617954                0.01000000                0.15111064               -0.06478805                0.09704805                0.09191523               -0.08754788                0.00951402
               3.95150584               -0.00723668               60.05837675                0.01000000                0.06669421               -0.02246174                0.10302744                0.18026630               -0.11821154                0.01693032
               4.95158019               -0.00040891               60.06016878                0.01000000               -0.15235417                0.02082829                0.10002167                0.33380380               -0.16030742                0.02903233
               5.94845875                0.01173344               60.06151159                0.01000003               -0.68002752                0.13422434                0.10838053                0.78541438               -0.19441449                0.02152667
               6.93797964                0.03111983               60.06242047                0.97035125               -0.53792978               -0.02998476                0.09169343                0.85193792               -0.10515138               -0.00048274
               7.93770016                0.03353195               60.06545530                1.00000000               -0.02853960               -0.03065595                0.09534600                0.00045026                0.00176115                0.00002167
               8.93740885                0.03599543               60.06849651                0.99999998               -0.02959695               -0.03183271                0.09893081                0.00041758                0.00203631                0.00119896
               9.93710822                0.03851045               60.07152650                1.00000000               -0.03006300               -0.03322094                0.10244199               -0.00224283                0.00226326                0.00430381
              -0.04756291                0.99848271               60.04773780                1.00000000               -0.02496050               -0.02400936                0.08028824                0.00101405                0.00139862                0.00809357
               0.95218748                0.99500681               60.05108424                0.01000000               -0.02586863               -0.02586383                0.08607059                0.00006492                0.00424583               -0.00446004
               1.95191972                0.99155120               60.05448893                0.01000000               -0.07473632               -0.05964790                0.09185115                0.06285304               -0.03229759                0.00349553
               2.95069276                0.98989539               60.05710145                0.01000000               -0.15675610               -0.04756287                0.10439343                0.19930670               -0.08388645                0.01676296
               3.94878459                0.99253870               60.05928951                0.01000000               -0.26297928               -0.01143079                0.11002411                0.42745808               -0.12475297                0.03337013
               4.94543317                0.99979937               60.06102817                0.01000000               -0.41180343                0.02557110                0.10692747                0.72545398               -0.17330695                0.05182735
               5.94054853                1.01307568               60.06222771                0.01000001               -0.49167024               -0.00409148                0.10746974                1.11542557               -0.20746742                0.05571212
               6.93559977                1.03081999               60.06297087                0.90019461               -0.26408307               -0.03242402                0.10863595                0.77032719               -0.11432329               -0.00043873
               7.93526686                1.03322539               60.06600090                1.00000000               -0.03379951               -0.03331374                0.11171573                0.00027479               -0.00008474               -0.00035916
               8.93492378                1.03567710               60.06903791                0.99999999               -0.03480458               -0.03445257                0.11533839               -0.00072063                0.00012099                0.00128976
               9.93457077                1.03817824               60.07207619                0.99999999               -0.03530040               -0.03561831                0.11898568               -0.00343969                0.00019824                0.00669011
              -0.04406761                1.99823344               60.04855810                0.01000001               -0.02692726                0.07148065                0.08663035                0.11309499                0.00333403                0.09628226
               0.95566312                1.99473833               60.05183356                0.01000000               -0.05401433               -0.08296088                0.09241127                0.06626351                0.02291726                0.06561154
               1.95485211                1.99062496               60.05550439                0.01000001               -0.12090900               -0.12518197                0.10398145                0.18533274                0.01319478                0.02892384
               2.95324494                1.98959202               60.05829612                0.01000000               -0.23505423               -0.08205733                0.11433648                0.52027611               -0.05324935                0.04228049
               3.95015102                1.99253471               60.06058343                0.01000000               -0.38463238               -0.04180854                0.12233813                0.88957266               -0.10432384                0.06747263
               4.94555229                2.00010251               60.06239421                0.01000001               -0.52021860               -0.03003615                0.12662537                1.25185486               -0.15638911                0.09605783
               5.93974665                2.01165161               60.06368316                0.01000000               -0.61579069               -0.12919748                0.12615466                1.75416119               -0.25431070                0.12177164
               6.93323648                2.03047135               60.06352212                0.01000003               -0.34490558               -0.44864331                0.12457018                1.26551013               -0.16096209                0.14938718
               7.93284854                2.03286568               60.06653635                0.36907583               -0.03974454               -0.04120342                0.13145512                0.00272363               -0.00220133               -0.01390266
               8.93244159                2.03530638               60.06957463                0.99999993               -0.04056932               -0.04040193                0.13409616               -0.00152889               -0.00063435               -0.00067345
               9.93203715                2.03779808               60.07265697                0.99999999               -0.04044363               -0.04023717                0.13455927               -0.00415582                0.00050563                0.00768374
              -0.03831078                2.99991232               60.05113451                0.01000001               -0.05679828                0.13931817                0.09196404                0.09872873                0.00426625                0.18252020
               0.96112124                2.99334760               60.05404449                0.01000000               -0.04582717               -0.16540027                0.09911961                0.21484403                0.01484466                0.11517069
               1.96077268                2.98904756               60.05702080                0.01000000               -0.09663563               -0.22159467                0.11098194                0.53248059                0.01210729                0.06135907
               2.95918853                2.98825425               60.05981942                0.01000000               -0.23535642               -0.19959563                0.12458856                0.93460865               -0.02060004                0.06933987
               3.95606555                2.99170253               60.06223660                0.01000006               -0.39175828               -0.15381308                0.13619650                1.35962792               -0.07012744                0.09996948
               4.95135336                2.99919865               60.06424813                0.01000000               -0.54013243               -0.14549909                0.14484527                1.76653049               -0.12650848                0.13832260
               5.94526290                3.01049173               60.06576466                0.01000001               -0.58287297               -0.21573705                0.15132700                1.98663283               -0.17101508                0.17912210
               6.93969590                3.02184712               60.06707618                0.01000000               -0.73882966               -0.61127702                0.15137960                1.95119436               -0.26509248                0.26287031
               7.93048631                3.03240132               60.06682384                0.01000001               -0.48675570               -0.32899961                0.19257081                1.14940934               -0.15120913                0.18595416
               8.92996079                3.03486906               60.07009099                0.05907067               -0.04910324               -0.02848052                0.15427294                0.04103488                0.00711581                0.05666272
               9.92950425                3.03737350               60.07321205                0.99632689               -0.04565439               -0.06910241                0.14955404                0.05437500               -0.00173879                0.08370086
              -0.02896358                4.00101981               60.05371060                0.01000000               -0.02116619                0.04985841                0.09872075                0.19451739                0.01498623                0.18629187
               0.97082476                3.99143032               60.05620354                0.01000000               -0.02206775               -0.25685887                0.09593443                0.44779688                0.03296177                0.09704557
               1.97059507                3.98619306               60.05891971                0.01000000               -0.07713090               -0.34618640                0.11344006                0.91129290                0.03997878                0.07579050
               2.96928214                3.98560010               60.06164588                0.01000147               -0.20979443               -0.33221375                0.13255093                1.36382756                0.01369343                0.09439744
               3.96639918                3.98945844               60.06420982                0.01000000               -0.35942203               -0.29180360                0.14813206                1.79851398               -0.03072293                0.13257158
               4.96209370                3.99719253               60.06648332                0.01000001               -0.47841727               -0.26895925                0.16176722                2.14764464               -0.08397217                0.18000725
               5.95683083                4.00733687               60.06843360                0.01000001               -0.58714620               -0.33464486                0.17475768                2.37407384               -0.15328168                0.23604083
               6.95035078                4.01824581               60.06987200                0.01000005               -0.70080264               -0.40398312                0.19605682                2.29626840               -0.20836234                0.28412847
               7.94281478                4.02628568               60.07157082                0.01000001               -1.10303334               -0.50052021                0.24329530                2.36542157               -0.32387835                0.42279630
               8.92829011                4.03473677               60.07181345                0.01000000               -0.73494969               -0.42635932                0.08555004                1.97286737               -0.19129047                0.30163559
               9.92811579                4.03641604               60.07531080                0.01000001               -0.01743243               -1.17970862                0.06685453                1.80022668               -0.02836905                0.37250649
              -0.01524145                5.00090949               60.05670890                0.01000003                0.01453777               -0.21525461                0.10967728                0.34040393                0.03984910                0.16279454
               0.98490392                4.98821042               60.05858289                0.01000000                0.00351052               -0.39998315                0.09097006                0.75167752                0.06450595                0.11108335
               1.98482876                4.98212384               60.06096430                0.01000001               -0.08521128               -0.44726573                0.11171373                1.26842249                0.06603789                0.09767038
               2.98319970                4.98160997               60.06369349                0.01000000               -0.21926748               -0.45599568                0.13519234                1.75196174                0.04775252                0.12104153
               3.98044341                4.98586646               60.06643102                0.01000001               -0.33859340               -0.40291033                0.15779633                2.11841737                0.01078097                0.16194215
               4.97642783                4.99381946               60.06903457                0.01000001               -0.43761561               -0.37973532                0.17475675                2.41398000               -0.03433989                0.21866290
               5.97169110                5.00379884               60.07140636                0.01000000               -0.48776862               -0.38612146                0.19148474                2.55406488               -0.08908635                0.29021673
               6.96667246                5.01376746               60.07357399                0.01000001               -0.51936541               -0.45870392                0.21367837                2.60364814               -0.15884938                0.38699946
               7.96130379                5.02239092               60.07552033                0.01000000               -0.36923365               -0.53216052                0.22526999                2.55566322               -0.18527371                0.46413390
               8.95928779                5.02634188               60.07822944                0.01000000                0.04232294               -0.94606741                0.24695133                2.23158904               -0.16940286                0.59178491
               9.96215025                5.01377933               60.08191785                0.01000001                0.28624603               -1.54536004                0.15014616                1.48707237               -0.15406914                0.55737799
               0.00324265                5.99671472               60.05938956                0.01000002                0.14013193               -0.80065655                0.24837995                0.85827670                0.02111008                0.10108241
               1.00464397                5.98343066               60.06110150                0.01000001               -0.03393418               -0.48741250                0.11112884                1.18964134               -0.00744817                0.15018078
               2.00256396                5.97724775               60.06326435                0.01000000               -0.20326079               -0.50578066                0.09807465                1.80023818                0.04231353                0.13329333
               3.00057875                5.97648019               60.06590027                0.01000001               -0.30029645               -0.46872444                0.14004900                1.93231619                0.05021034                0.14100239
               3.99655803                5.98140024               60.06878380                0.01000001               -0.40689121               -0.49711083                0.16512870                2.28592643                0.04442280                0.17359106
               4.99244093                5.98959782               60.07175264                0.01000001               -0.42969497               -0.43525072                0.18264537                2.48876259                0.03129203                0.23827559
               5.98796414                5.99961444               60.07469812                0.01000000               -0.43046335               -0.40785629                0.19874634                2.54271908                0.00394617                0.32961490
               6.98383166                6.00907174               60.07754506                0.01000000               -0.33052554               -0.45632929                0.21330733                2.39770684               -0.03154658                0.43787115
               7.98135362                6.01564247               60.08035062                0.01000000               -0.11490870               -0.63957407                0.22824363                2.07308300               -0.06261086                0.54581167
               8.98153349                6.01581542               60.08321707                0.01000002                0.08143585               -0.85813876                0.23016023                1.30754328               -0.05357569                0.57184324
               9.98298234                6.00550884               60.08654539                0.01000000                0.14488560               -0.55357192                0.20379993                0.64298151               -0.02421236                0.44076020
               0.02849220                6.98489636               60.06055664                0.96862851               -0.03284780               -0.60521986                0.09732231                0.94228135               -0.01180074                0.02699142
               1.02816372                6.97846217               60.06334636                0.52722672               -0.03541038               -0.26622264                0.12084471                0.85504851               -0.03303782                0.07028320
               2.02778399                6.97200822               60.06571487                0.01000001               -0.52350930               -0.28235174                0.13479507                1.27280398               -0.05552373                0.08726922
               3.01769353                6.97223548               60.06802870                0.01000000               -0.73698427               -0.56920953                0.14572136                1.85705983                0.00615518                0.09955378
               4.01304430                6.97592425               60.07104084                0.01000000               -0.48523265               -0.56673525                0.16759295                2.13549369                0.07175391                0.14631451
               5.00798888                6.98511445               60.07442585                0.01000000               -0.49863703               -0.45663368                0.18585546                2.45237457                0.10534372                0.22710014
               6.00307156                6.99564171               60.07800236                0.01000000               -0.46951585               -0.31306377                0.19974364                2.31386827                0.12027790                0.32462820
               6.99859856                7.00464087               60.08168120                0.01000000               -0.35249008               -0.34793871                0.21115945                1.92625335                0.11870042                0.44315460
               7.99602176                7.00959944               60.08527606                0.01000001               -0.15131365               -0.48959500                0.21848230                1.37696375                0.09810844                0.57104706
               8.99557229                7.00917910               60.08858267                0.01000002               -0.01993572               -0.52160698                0.21831217                0.72035536                0.05473102                0.60570662
               9.99562305                7.00270789               60.09128831                0.01000000                0.00507576               -0.14827262                0.20989629                0.30149610                0.02745955                0.48843240
               0.03495666                7.98461032               60.06135897                0.99999999               -0.03235840               -0.02841466                0.09654069               -0.00023629               -0.00635655                0.01017192
               1.03463307                7.97810620               60.06411881                0.99999999               -0.03549650               -0.03524053                0.11792428                0.00018736               -0.01072198               -0.00124853
               2.03424673                7.97160071               60.06679935                0.49513652               -0.04145753               -0.04069691                0.13643241                0.00082080               -0.01768542                0.00969411
               3.03380392                7.96509600               60.06938647                0.01000004               -0.39288929               -0.37916532                0.13619287                1.06023887                0.02298198                0.03027501
               4.02638894                7.97006553               60.07288291                0.01000001               -0.60164862               -0.90122037                0.16379307                2.13270531                0.11772553                0.11564883
               5.02177095                7.98046515               60.07683557                0.01000000               -0.58369333               -0.29316290                0.18219322                2.30089944                0.17905298                0.17623862
               6.01471508                7.99335317               60.08097592                0.01000000               -0.66859754               -0.08982077                0.19887832                1.92065958                0.23010038                0.26835038
               7.00839900                8.00211296               60.08549669                0.01000000               -0.51802040               -0.13074812                0.20699035                1.30553725                0.29799210                0.37736660
               8.00435467                8.00585057               60.09047149                0.01000002               -0.27834287               -0.24157294                0.20766526                0.71012287                0.30153215                0.51908559
               9.00283214                8.00538328               60.09446403                0.01000000               -0.11999858               -0.29500444                0.20516381                0.21684994                0.20696143                0.80204888
              10.00195470                8.00254338               60.09713347                0.01000000               -0.08774465               -0.01083988                0.20095583                0.06944832                0.14640918                0.56507935
               0.04149570                8.98432807               60.06220708                0.99999999               -0.03186270               -0.02820480                0.09563064                0.00024942               -0.00181190                0.00985550
               1.04117707                8.97775736               60.06493850                0.99999999               -0.03425433               -0.03491317                0.11653269                0.00096238               -0.00240648                0.00116689
               2.04081061                8.97119428               60.06768373                0.99999999               -0.03717903               -0.04122557                0.13619118                0.00359148                0.01057228               -0.00048236
               3.04043349                8.96465218               60.07072121                0.76819141               -0.02406754               -0.04798610                0.15767724               -0.00275900                0.08579503                0.01423290
               4.04032926                8.95789984               60.07502620                0.01000000               -0.48571273               -0.61970132                0.11027070                1.75771810                0.11102847                0.03827445
               5.03071924                8.97925119               60.07861239                0.01000000               -1.02461596                0.11073570                0.18128293                1.95057292                0.18709272                0.09634034
               6.01983694                8.99384530               60.08320810                0.01000003               -0.92536681                0.12571137                0.19891338                1.16382440                0.30737153                0.15615812
               7.01221190                9.00202591               60.08838981                0.01000002               -0.64415214                0.03905931                0.20482449                0.63537251                0.42900682                0.22365931
               8.00695390                9.00476798               60.09441537                0.01000001               -0.44977104               -0.03426720                0.20015156                0.19884662                0.70616063                0.32695463
               9.00321648                9.00327901               60.10372972                1.00000000               -0.21310444               -0.13177327                0.17499207               -0.05606902                0.48284990                0.48142678
              10.00269181                9.00249109               60.10335145                0.99999999               -0.05246689               -0.02839459                0.17297643               -0.00260608               -0.00158794                0.32566821
               0.04810307                9.98404622               60.06302353                1.00000000               -0.03169611               -0.02818440                0.09499995               -0.00309134                0.00474143                0.00698724
               1.04778611                9.97740794               60.06575776                1.00000000               -0.03396634               -0.03494156                0.11628484               -0.00259766                0.00602223                0.00174631
               2.04742374                9.97077620               60.06855310                0.99999996               -0.03714576               -0.04180817                0.13699389               -0.00227047                0.02259270                0.00081502
               3.04704319                9.96413628               60.07169709                0.99999998               -0.02397244               -0.05158993                0.16178999                0.00573514                0.09827309                0.00850526
               4.04694429                9.95767151               60.07601513                0.01000000               -1.11031191               -0.02283312                0.11157076                1.58868226                0.12272959                0.01481295
               5.02483695                9.98267986               60.07968595                0.01000001               -1.58637232                0.34286720                0.18242014                1.32156586                0.17129172                0.03713322
               6.01521684                9.99586739               60.08423792                0.01000001               -0.73265915                0.20220969                0.20586786                0.54870452                0.30078880                0.07469982
               7.01018377               10.00289415               60.08951923                0.01000001               -0.40691741                0.08682372                0.21070762                0.26207868                0.47290465                0.10639184
               8.00707850               10.00516523               60.09620767                0.01000000               -0.30980582                0.03972511                0.20085010                0.00514313                0.65042899                0.17521955
               9.00398765               10.00274782               60.10340258                0.99999999               -0.18000350               -0.05311990                0.17400446               -0.08236961                0.38069326                0.00203415
              10.00347843               10.00197549               60.10302429                0.99999998               -0.05092262               -0.05155982                0.17195713                0.00142912                0.00183925               -0.00183907
              -0.05449376               -0.00204972               61.04767094                1.00000000               -0.02295489               -0.02322907                0.07421518                0.00180903               -0.00804630                0.00760389
               0.94527669               -0.00560114               61.05106950                1.00000000               -0.02368111               -0.02477817                0.07924925                0.00081138               -0.00865573               -0.00154046
               1.94503261               -0.00913110               61.05445534                0.01000000                0.08379980               -0.02634400                0.08429055                0.11734465               -0.04314069               -0.00347755
               2.94695268               -0.01030752               61.05715908                0.01000002                0.16224725               -0.07139259                0.09968783                0.10311661               -0.08278969                0.01319233
               3.94827756               -0.00800670               61.05942940                0.01000000                0.06577590               -0.02371395                0.10758761                0.19269790               -0.12817705                0.01924682
               4.94826820               -0.00092915               61.06112113                0.01000000               -0.14734891                0.01698660                0.10698460                0.34765666               -0.17689944                0.02810857
               5.94533058                0.01125518               61.06261881                0.01000004               -0.66647063                0.12997026                0.07482745                0.78870834               -0.26518342                0.07191418
               6.93493879                0.03047748               61.06333541                0.97016434               -0.53341566               -0.03007226                0.09132303                0.84344710               -0.11636576               -0.00100579
               7.93466227                0.03290106               61.06640009                1.00000000               -0.02809743               -0.03104237                0.09406499                0.00046422                0.00172637                0.00008429
               8.93437684                0.03538094               61.06947313                1.00000000               -0.02892571               -0.03185613                0.09685850                0.00033409                0.00211900                0.00119265
               9.93408375                0.03791839               61.07253537                1.00000000               -0.02930867               -0.03258251                0.09970674               -0.00267486                0.00225051                0.00367040
              -0.05092426                0.99771799               61.04854369                0.99999999               -0.02502504               -0.02420482                0.08090554                0.00106262                0.00141173                0.00809287
               0.94882549                0.99415108               61.05194418                0.01000000               -0.02582426               -0.02580956                0.08592084                0.00004797                0.00425198               -0.00445453
               1.94855925                0.99060546               61.05540297                0.01000000               -0.07019206               -0.06319590                0.09095167                0.07640966               -0.02756637                0.00791989
               2.94742165                0.98897855               61.05816407                0.01000000               -0.15219532               -0.05338673                0.10853085                0.21747774               -0.07880131                0.02222925
               3.94551535                0.99175616               61.06041710                0.01000000               -0.26539085               -0.01340200                0.11718995                0.45054236               -0.13333368                0.03943419
               4.94211383                0.99924072               61.06206581                0.01000000               -0.40004973                0.01937400                0.11458546                0.74666340               -0.20517187                0.06952470
               5.93751435                1.01255488               61.06326352                0.01000001               -0.47817555               -0.00722618                0.10395139                1.10950696               -0.28301740                0.10956405
               6.93255032                1.03017675               61.06406134                0.89741531               -0.26495886               -0.03276202                0.10955486                0.76340902               -0.11323784               -0.00114278
               7.93221518                1.03259063               61.06712618                1.00000000               -0.03394035               -0.03373319                0.11269496                0.00001875                0.00012268               -0.00009139
               8.93187151                1.03506238               61.07019437                0.99999999               -0.03478102               -0.03470944                0.11557714               -0.00031004                0.00019678                0.00165528
               9.93151956                1.03759257               61.07326024                0.99999997               -0.03519570               -0.03519538                0.11809313               -0.00320054                0.00022306                0.00542493
              -0.04733870                1.99746618               61.04942929                0.01000000               -0.02711244                0.06833531                0.08761585                0.12784736                0.00332214                0.09553943
               0.95239017                1.99388267               61.05275876                0.01000000               -0.04639787               -0.09623201                0.09262005                0.08186157                0.02732633                0.06797292
               1.95173334                1.98960498               61.05657195                0.01000001               -0.11193186               -0.13680324                0.11051199                0.20992462                0.02070571                0.03487624
               2.95015154                1.98862474               61.05947383                0.01000000               -0.23535523               -0.08777727                0.12191095                0.55396043               -0.04881554                0.04942318
               3.94702623                1.99172526               61.06184032                0.01000000               -0.38743907               -0.04440796                0.13066892                0.92340599               -0.10466344                0.07850309
               4.94240275                1.99945833               61.06369222                0.01000001               -0.52207736               -0.03565043                0.13505316                1.28011120               -0.16579367                0.12251511
               5.93658469                2.01111065               61.06494376                0.01000000               -0.61157687               -0.13311326                0.13338943                1.75125848               -0.25329308                0.14639683
               6.93017122                2.02982224               61.06478707                0.01000003               -0.34038365               -0.44613351                0.12765360                1.25316737               -0.16238875                0.15685049
               7.92977701                2.03222639               61.06785184                0.36977999               -0.04012558               -0.03940730                0.13188384               -0.00092697               -0.00150775               -0.00259354
               8.92936870                2.03468675               61.07092280                1.00000000               -0.04088210               -0.04053610                0.13495968               -0.00108299               -0.00042429                0.00107799
               9.92895937                2.03721448               61.07401030                0.99999997               -0.04093320               -0.04057492                0.13608695               -0.00336173                0.00010987                0.00545442
              -0.04120030                2.99908469               61.05205614                0.01000001               -0.04757842                0.12428660                0.09752650                0.11768644                0.00827574                0.17489224
               0.95832392                2.99222644               61.05508187                0.01000000               -0.03920123               -0.20177684                0.11116045                0.25175461                0.02114814                0.10519337
               1.95801568                2.98786940               61.05818065                0.01000000               -0.09716713               -0.23989677                0.12466415                0.58231371                0.02108327                0.05701627
               2.95638058                2.98722300               61.06111677                0.01000000               -0.24329023               -0.20441417                0.13676589                0.98397943               -0.01149307                0.07347588
               3.95314987                2.99086800               61.06364800                0.01000006               -0.40249555               -0.15323689                0.14647721                1.39880359               -0.06304100                0.11074306
               4.94833067                2.99852771               61.06573810                0.01000000               -0.54871256               -0.14396290                0.15334207                1.78973932               -0.11884195                0.15332475
               5.94217562                3.00989261               61.06730641                0.01000001               -0.59163684               -0.21351771                0.15747864                1.99136215               -0.16124970                0.19940771
               6.93649793                3.02125408               61.06868388                0.01000000               -0.74217519               -0.59982216                0.16105731                1.93518650               -0.25308188                0.29069113
               7.92733212                3.03180249               61.06853519                0.01000003               -0.48180837               -0.31978584                0.16661044                1.14090429               -0.16521397                0.21474518
               8.92686176                3.03425166               61.07163739                0.05909500               -0.04676287               -0.03807451                0.15484321                0.02961345               -0.00020773                0.03500782
               9.92639686                3.03678107               61.07473542                0.99999997               -0.04648995               -0.06624495                0.15422143                0.03222377               -0.00115721                0.04801201
              -0.03126847                3.99995191               61.05470484                0.01000000               -0.00909655                0.00369447                0.09961974                0.24840263                0.00494923                0.14561387
               0.96864056                3.98984713               61.05717632                0.01000000               -0.01742380               -0.28849533                0.11929478                0.53119664                0.04351906                0.04748376
               1.96838305                3.98480705               61.06010527                0.01000000               -0.09040229               -0.35729567                0.13425937                0.99646066                0.06654660                0.04873880
               2.96683252                3.98453646               61.06303856                0.01000016               -0.23427261               -0.32976069                0.15008259                1.42707868                0.03561846                0.08875605
               3.96369760                3.98866052               61.06574720                0.01000000               -0.38297925               -0.28434504                0.16032233                1.84018242               -0.01689320                0.13995463
               4.95917293                3.99657908               61.06815260                0.01000001               -0.50060193               -0.25916701                0.17042207                2.17401443               -0.06788115                0.19051022
               5.95368556                4.00684030               61.07022235                0.01000001               -0.61039281               -0.31879085                0.18052589                2.38546684               -0.12091628                0.24915381
               6.94696507                4.01782579               61.07190319                0.01000000               -0.70440178               -0.38092778                0.19406823                2.29245989               -0.15574196                0.30136298
               7.93959752                4.02583068               61.07357563                0.01000001               -1.09913414               -0.47650111                0.18978171                2.32532544               -0.25687472                0.40820446
               8.92498239                4.03392526               61.07304403                0.01000000               -0.75262465               -0.42698027                0.16519778                1.93952988               -0.17873779                0.34901725
               9.92454503                4.03588959               61.07635179                0.01000001               -0.04373603               -1.18964970                0.15502036                1.79603958               -0.02456162                0.36025730
              -0.01602269                4.99915858               61.05743989                0.01000003                0.01154078               -0.20408646                0.09625991                0.42388755                0.07101103                0.18835449
               0.98409272                4.98645653               61.05936790                0.01000000               -0.03608698               -0.36505296                0.09541926                0.79840500                0.14917873               -0.03810016
               1.98325557                4.98072348               61.06213888                0.01000001               -0.15120226               -0.43926795                0.14703597                1.33852260                0.16272490                0.02099251
               2.98106867                4.98062779               61.06509697                0.01000000               -0.26723336               -0.43989203                0.15528145                1.80275585                0.08318408                0.11630016
               3.97791090                4.98518110               61.06806546                0.01000001               -0.37187457               -0.39204102                0.17044029                2.15514076                0.03013498                0.16627345
               4.97363118                4.99334437               61.07083066                0.01000001               -0.46363292               -0.36599245                0.18252915                2.44871274               -0.01359283                0.22236741
               5.96863824                5.00351680               61.07337197                0.01000004               -0.51372153               -0.36514259                0.19603830                2.58966419               -0.05331340                0.29021272
               6.96335675                5.01363553               61.07571514                0.01000005               -0.54495438               -0.42980410                0.20900209                2.63315736               -0.09439146                0.36663193
               7.95773916                5.02227246               61.07779311                0.01000000               -0.38816506               -0.49828681                0.21631136                2.53418442               -0.10325723                0.42482086
               8.95559345                5.02571205               61.08027506                0.01000000                0.03249271               -0.90445486                0.19558301                2.19628308               -0.07565665                0.55886018
               9.95838901                5.01298807               61.08315780                0.01000057                0.27955619               -1.54948712                0.14182892                1.47898083               -0.06305837                0.52527305
               0.00261337                5.99587018               61.06257378                0.01000003                0.04303902               -0.74865551                0.12334923                0.74231400                0.37624531               -0.33839418
               1.00304376                5.98254608               61.06208804                0.01000001               -0.08155616               -0.43993363                0.21754155                1.06010131                0.42462014               -0.09785332
               2.00098225                5.97602169               61.06405589                0.01000000               -0.23068746               -0.48072695                0.10716189                1.73588305                0.17255673                0.14338911
               2.99843001                5.97573862               61.06732054                0.01000001               -0.34492075               -0.45892078                0.15893805                1.93963095                0.10146766                0.14249774
               3.99408383                5.98081970               61.07048043                0.01000001               -0.43092598               -0.49158066                0.17372879                2.30653247                0.06344011                0.17392386
               4.98981149                5.98925923               61.07361523                0.01000004               -0.44480720               -0.42630775                0.18807320                2.53169371                0.04877999                0.23584948
               5.98518769                5.99953745               61.07672048                0.01000000               -0.44694685               -0.39161603                0.20163235                2.59982804                0.03271225                0.31716082
               6.98087255                6.00922971               61.07971666                0.01000000               -0.34915010               -0.43351647                0.21394196                2.45961078                0.01176660                0.40792418
               7.97820469                6.01586494               61.08262707                0.01000000               -0.13400559               -0.61078269                0.22096819                2.12583735               -0.00687534                0.48958116
               8.97819244                6.01583617               61.08550782                0.01000002                0.06839610               -0.81519775                0.21659589                1.33176562               -0.01579754                0.50658196
               9.97957261                6.00489984               61.08849862                0.01000000                0.13801654               -0.54180778                0.18819030                0.64903957               -0.01643070                0.43734917
               0.02547180                6.98418547               61.06154530                0.97787352               -0.03285642               -0.59892830                0.10000583                0.81781094               -0.01067938               -0.08197310
               1.02514324                6.97765786               61.06455144                0.47212972               -0.03455563               -0.26240846                0.11996161                0.77872591               -0.03671460                0.08011967
               2.02478069                6.97110894               61.06703757                0.01000001               -0.50399821               -0.26580262                0.12953796                1.20636278               -0.06156658                0.11422193
               3.01506327                6.97144937               61.06951061                0.01000000               -0.71298746               -0.58476022                0.15212620                1.83518785                0.01899143                0.10142406
               4.01052094                6.97534949               61.07272577                0.01000005               -0.47579808               -0.57826270                0.17065233                2.15710953                0.08314497                0.14771225
               5.00554731                6.98481822               61.07630651                0.01000000               -0.49283092               -0.45570361                0.18765300                2.49731569                0.11753134                0.21731043
               6.00066432                6.99568448               61.08001970                0.01000000               -0.46629195               -0.30812551                0.20077350                2.38043953                0.13638384                0.30923021
               6.99622147                7.00496520               61.08381676                0.01000000               -0.35074374               -0.33926706                0.21139754                2.00676238                0.14146111                0.41390644
               7.99364945                7.01005681               61.08748462                0.01000002               -0.15138081               -0.47444720                0.21701157                1.45753484                0.11981757                0.52724422
               8.99319386                7.00940810               61.09077487                0.01000002               -0.02034990               -0.50403931                0.21502243                0.77466590                0.06519250                0.55813759
               9.99324245                7.00215192               61.09336974                0.01000000                0.00485923               -0.13958427                0.20462603                0.33282180                0.02780450                0.46724002
               0.03202481                7.98389162               61.06234217                1.00000000               -0.03299997               -0.02931831                0.09972198               -0.00093666               -0.00639657                0.01099977
               1.03169481                7.97729791               61.06529648                0.99999995               -0.03534084               -0.03540725                0.11763488               -0.00108592               -0.01209139               -0.00269727
               2.03131799                7.97070564               61.06814537                0.46919217               -0.04007929               -0.04015418                0.13325269               -0.00668573               -0.02450131                0.01041831
               3.03089322                7.96404341               61.07083971                0.01000001               -0.37304047               -0.39142398                0.14340868                1.04519009                0.02320088                0.02880341
               4.02385718                7.96925445               61.07461452                0.01000001               -0.57352010               -0.92603833                0.16818517                2.12910506                0.12529035                0.06644742
               5.01942282                7.98014516               61.07861033                0.01000000               -0.56038414               -0.30248773                0.17723232                2.34507687                0.17873488                0.17083615
               6.01264950                7.99337494               61.08297645                0.01000000               -0.63936754               -0.09832002                0.19783595                1.97913557                0.23911425                0.25373216
               7.00663547                8.00244437               61.08757847                0.01000002               -0.48685078               -0.13929944                0.20637905                1.38249346                0.30381666                0.35469649
               8.00291248                8.00637599               61.09256136                0.01000002               -0.25224081               -0.24722766                0.20692804                0.80043642                0.30609464                0.48928239
               9.00159065                8.00575538               61.09652518                0.01000001               -0.10855381               -0.28834999                0.20393463                0.30573456                0.20699007                0.76482595
              10.00074141                8.00210816               61.09913785                0.01000000               -0.08492465                0.03236979                0.19849285                0.12604362                0.13998579                0.53782013
               0.03864049                8.98359910               61.06318750                0.99999999               -0.03329879               -0.02935149                0.09989406               -0.00049835               -0.00155398                0.01086587
               1.03830750                8.97694972               61.06610585                0.99999999               -0.03695098               -0.03457304                0.11694666               -0.00048407               -0.00150828                0.00098015
               2.03790147                8.97030586               61.06904277                0.99999995               -0.04446203               -0.03936639                0.13433647               -0.00476107                0.00468618                0.00008337
               3.03741826                8.96362090               61.07210348                0.78249125               -0.04500856               -0.03885898                0.13453449               -0.01464740                0.02338426                0.01299513
               4.03700130                8.95682872               61.07546943                0.01000000               -0.45449484               -0.62730317                0.06877613                1.74821385                0.10265557               -0.00569853
               5.02832836                8.97876846               61.08044920                0.01000000               -0.95267392                0.08781829                0.17619512                1.98566777                0.23478116                0.09199537
               6.01794782                8.99371808               61.08518977                0.01000002               -0.87290396                0.10713207                0.19608331                1.19904309                0.30512429                0.14655893
               7.01087028                9.00217921               61.09044529                0.01000002               -0.58003276                0.01566916                0.20380405                0.68214202                0.42507226                0.20969533
               8.00634716                9.00511226               61.09642097                0.01000006               -0.36469493               -0.06497451                0.19913004                0.25835861                0.69055580                0.31049561
               9.00357639                9.00364110               61.10547299                1.00000000               -0.16446986               -0.13165169                0.17292439                0.02592387                0.46897063                0.46687190
              10.00305777                9.00279931               61.10508206                1.00000000               -0.05186183                0.00849780                0.17325167                0.07367711               -0.00271094                0.31102012
               0.04531361                9.98330459               61.06399990                1.00000000               -0.03352441               -0.02945177                0.09958332               -0.00250152                0.00657193                0.00816059
               1.04497837                9.97660645               61.06692422                0.99999998               -0.03810124               -0.03432710                0.11691939               -0.00222702                0.00951586                0.00163962
               2.04455159                9.96991831               61.06992888                1.00000000               -0.04504809               -0.03875517                0.13620059               -0.00199861                0.01933528                0.00128610
               3.04407741                9.96326623               61.07308082                0.99999998               -0.04388499               -0.03546625                0.13504019                0.00541882                0.03630568                0.00406730
               4.04367389                9.95670839               61.07647481                0.01000000               -1.09152935               -0.01203360                0.07135134                1.59902364                0.11352095               -0.00755174
               5.02224682                9.98190152               61.08151886                0.01000001               -1.52271389                0.31330592                0.17585532                1.33230535                0.22036892                0.02666318
               6.01321961                9.99551758               61.08630191                0.01000001               -0.66813472                0.17995021                0.20420974                0.56999079                0.30000370                0.06757958
               7.00888413               10.00275775               61.09164275                0.01000001               -0.33009243                0.05785431                0.21118927                0.27933064                0.46226568                0.09770733
               8.00661776               10.00507650               61.09822613                0.01000000               -0.22310278               -0.00357523                0.20100751                0.04528962                0.62593534                0.16571483
               9.00442207               10.00312235               61.10514178                1.00000000               -0.13596231               -0.05187528                0.17372636               -0.05535094                0.36916410                0.00373644
              10.00389852               10.00227811               61.10475052                0.99999998               -0.05235542               -0.05212009                0.17405678               -0.00034828                0.00300871               -0.00330003
              -0.05799773               -0.00287978               62.04841449                1.00000000               -0.02294648               -0.02340016                0.07460417                0.00173103               -0.00798424                0.00765333
               0.94177280               -0.00652455               62.05185960                1.00000000               -0.02355183               -0.02469840                0.07882665                0.00068692               -0.00861926               -0.00152226
               1.94153123               -0.01014691               62.05529211                0.01000001                0.09218215               -0.02601053                0.08305880                0.12781131               -0.03656889               -0.00348901
               2.94361645               -0.01120285               62.05817330                0.01000001                0.17245099               -0.07719213                0.10143233                0.11460418               -0.07241987                0.01865021
               3.94498025               -0.00882714               62.06052850                0.01000000                0.06181777               -0.02563893                0.11279649                0.19692987               -0.12003803                0.02589335
               4.94485280               -0.00173611               62.06230847                0.01000001               -0.20197254                0.03548735                0.11376731                0.39852379               -0.20176419                0.01904150
               5.94094080                0.01188230               62.06300814                0.01244685               -0.64908796                0.10597117                0.09212458                0.76438271               -0.26145151                0.11287615
               6.93187104                0.02964786               62.06424693                0.97033345               -0.46719190               -0.03023816                0.09098371                0.77008762               -0.09149506               -0.00127717
               7.93159696                0.03208145               62.06733660                1.00000000               -0.02775452               -0.03096409                0.09321556                0.00037948                0.00164189                0.00000637
               8.93131595                0.03457681               62.07043368                0.99999999               -0.02840978               -0.03162580                0.09536134                0.00040339                0.00190913                0.00118019
               9.93102877                0.03713412               62.07352064                1.00000000               -0.02871852               -0.03223160                0.09757979               -0.00279501                0.00194794                0.00314564
              -0.05433565                0.99688621               62.04935591                1.00000000               -0.02511105               -0.02442180                0.08159628                0.00110656                0.00143461                0.00812098
               0.94541324                0.99322846               62.05280266                0.01000000               -0.02579258               -0.02576798                0.08580334                0.00004761                0.00426845               -0.00443809
               1.94514850                0.98959298               62.05630796                0.01000000               -0.06553173               -0.06541402                0.09002620                0.09083387               -0.01971540                0.01638750
               2.94410260                0.98802523               62.05927207                0.01000000               -0.14661588               -0.05846873                0.11159843                0.23536527               -0.06706875                0.03166572
               3.94221618                0.99091647               62.06163331                0.01000000               -0.28096411               -0.01494971                0.12326383                0.47263246               -0.12439397                0.04657600
               4.93848332                0.99861877               62.06331988                0.01000000               -0.46617665                0.03083129                0.13563446                0.81528611               -0.20315827                0.06291096
               5.93289265                1.01294202               62.06430674                0.01000001               -0.45054877               -0.06728245                0.12060426                1.16859286               -0.28552192                0.13753210
               6.92947235                1.02934548               62.06516197                0.89239537               -0.18781803               -0.03310152                0.11050714                0.70196861               -0.11144834               -0.00149894
               7.92913629                1.03177181               62.06825479                1.00000000               -0.03393448               -0.03383271                0.11295532                0.00003796                0.00040964                0.00013819
               8.92879366                1.03426055               62.07134945                1.00000000               -0.03463891               -0.03459431                0.11533179               -0.00006638                0.00026858                0.00184964
               9.92844351                1.03681180               62.07443805                0.99999999               -0.03501484               -0.03510650                0.11746641               -0.00309653                0.00014743                0.00464930
              -0.05066010                1.99663178               62.05031041                0.01000001               -0.02729141                0.06242025                0.08860343                0.13977731                0.00330621                0.09951303
               0.94906699                1.99296009               62.05368597                0.01000000               -0.03943767               -0.10972783                0.09280191                0.09597455                0.03578498                0.07749779
               1.94855115                1.98854481               62.05771463                0.01000001               -0.10333619               -0.14692040                0.11653544                0.23393163                0.02964144                0.05562404
               2.94700026                1.98762777               62.06073434                0.01000000               -0.23558933               -0.09330923                0.12808697                0.58588848               -0.04496641                0.06525693
               3.94383936                1.99087387               62.06319681                0.01000000               -0.39336401               -0.04529820                0.13837279                0.96099857               -0.09982728                0.08869097
               4.93913298                1.99888052               62.06509527                0.01000001               -0.51267069               -0.04070007                0.14335337                1.32487914               -0.16193528                0.12616092
               5.93358595                2.01053665               62.06635095                0.01000000               -0.60261822               -0.18703618                0.14631697                1.81524004               -0.25757070                0.15546136
               6.92708062                2.02898583               62.06607519                0.01000003               -0.34516477               -0.44003310                0.12987967                1.24006441               -0.16884687                0.16336571
               7.92668265                2.03140480               62.06917402                0.37674666               -0.04029908               -0.03996874                0.13283304               -0.00043396               -0.00047538                0.00304342
               8.92627464                2.03388492               62.07227383                1.00000000               -0.04091604               -0.04062791                0.13541243               -0.00050343               -0.00021112                0.00173915
               9.92586433                2.03643199               62.07537871                0.99999996               -0.04103056               -0.04097763                0.13721197               -0.00321652               -0.00005484                0.00453251
              -0.04419672                2.99813462               62.05308504                0.01000001               -0.03835779                0.09582795                0.10674190                0.13255658                0.01103954                0.17508905
               0.95541970                2.99103391               62.05626769                0.01000000               -0.03219165               -0.24330586                0.12583497                0.28738431                0.02040316                0.13316093
               1.95515944                2.98665458               62.05951408                0.01000000               -0.09641934               -0.26676044                0.13874529                0.63188728                0.01657336                0.08158872
               2.95349131                2.98615904               62.06255474                0.01000000               -0.24880200               -0.21163716                0.14815926                1.03541213               -0.01592809                0.09435678
               3.95018340                2.99001051               62.06516615                0.01000006               -0.40865977               -0.15168966                0.15427508                1.43768147               -0.06399426                0.12429747
               4.94531812                2.99780476               62.06731497                0.01000000               -0.55456339               -0.14851720                0.15986413                1.81593651               -0.11665841                0.16232652
               5.93909214                3.00920129               62.06891423                0.01000001               -0.59563142               -0.21411323                0.16127250                1.99080099               -0.15846569                0.20824566
               6.93340549                3.02054482               62.07029732                0.01000000               -0.74318107               -0.58720078                0.16093144                1.92865943               -0.24808339                0.30330085
               7.92422852                3.03097244               62.07015605                0.01000001               -0.48245448               -0.31064725                0.16025522                1.13784862               -0.16694545                0.21711175
               8.92375640                3.03344799               62.07318786                0.06354015               -0.04717362               -0.04027372                0.15579403                0.03421814               -0.00455532                0.05178896
               9.92328504                3.03599225               62.07629648                0.99999998               -0.04713566               -0.06165928                0.15716502                0.01166034               -0.00132682                0.06271901
              -0.03380754                3.99854834               62.05570300                0.01000000                0.01022597               -0.06634890                0.11146880                0.28053675                0.01095986                0.15112857
               0.96629472                3.98809397               62.05858944                0.01000000               -0.00643489               -0.42486075                0.15122638                0.62150314                0.03144380                0.06269536
               1.96606376                3.98320960               62.06160489                0.01000000               -0.09710724               -0.40307574                0.16527507                1.12478987                0.04258790                0.08490606
               2.96435257                3.98339503               62.06464753                0.01000003               -0.25582461               -0.32525253                0.16702374                1.50379823                0.01993920                0.10879909
               3.96094727                3.98784008               62.06741626                0.01000000               -0.40458207               -0.27759025                0.17042533                1.88220777               -0.02331121                0.15214071
               4.95626093                3.99591017               62.06989176                0.01000001               -0.51426752               -0.25002910                0.17472440                2.19728346               -0.06316364                0.19842402
               5.95066192                4.00625439               62.07204412                0.01000001               -0.61891347               -0.30481661                0.18033962                2.39899263               -0.10818152                0.25614689
               6.94388266                4.01724181               62.07375336                0.01000001               -0.70627331               -0.36290948                0.18282659                2.29477321               -0.14071393                0.30707607
               7.93653645                4.02519185               62.07536646                0.01000000               -1.09717361               -0.45682723                0.17296269                2.31439171               -0.24790500                0.41032022
               8.92193919                4.03307945               62.07511741                0.01000000               -0.77637148               -0.41963495                0.23187494                1.93302510               -0.18069869                0.37152028
               9.92100902                4.03519880               62.07841121                0.01000001               -0.09301681               -1.19271432                0.22837776                1.80386318               -0.01067059                0.36862042
              -0.01767725                4.99680764               62.05863410                0.01000003                0.08657532               -0.63534620                0.10581689                0.85023409               -0.01975131                0.11595359
               0.98318850                4.98253669               62.06049128                0.01000000                0.00157176               -0.59019636                0.18960521                1.35724808                0.09506759                0.07398115
               1.98235418                4.97859306               62.06390502                0.01000001               -0.21258497               -0.39963755                0.18723173                1.59180678                0.13486029                0.03019324
               2.97893680                4.97965399               62.06679912                0.01000000               -0.35208842               -0.42392626                0.18425341                1.88483165                0.05015977                0.12915935
               3.97531242                4.98445870               62.06983983                0.01000001               -0.40436650               -0.38108314                0.18029598                2.18675350                0.02128350                0.16972379
               4.97084947                4.99280418               62.07268515                0.01000001               -0.47860321               -0.35356068                0.18546592                2.47808982               -0.00777841                0.22324484
               5.96574035                5.00310496               62.07532713                0.01000004               -0.52429914               -0.34722358                0.19305690                2.61687358               -0.03473632                0.28694710
               6.96036349                5.01328663               62.07775403                0.01000001               -0.55308167               -0.40566067                0.19881326                2.65043374               -0.06899271                0.36033445
               7.95467872                5.02183589               62.07984656                0.01000000               -0.39767674               -0.47246356                0.20141525                2.53285877               -0.08373111                0.42058654
               8.95240995                5.02505529               62.08214110                0.01000000                0.02224387               -0.88160972                0.18507680                2.18544333               -0.06734430                0.55786854
               9.95512359                5.01213796               62.08475442                0.01000003                0.27136404               -1.55774583                0.16918274                1.49142251               -0.05825866                0.51221057
               0.01173904                5.98584142               62.06185654                0.03549831               -0.00847784               -0.66595663               -0.02045056                1.04204198                0.64685296               -0.35173444
               1.01165426                5.97629004               62.06545233                0.01000001               -0.54782205               -0.28402890                0.17149291                1.40620487                0.44211095               -0.10035003
               2.00078260                5.97521685               62.06540759                0.01000000               -0.77353486               -0.41949422                0.22299265                1.89328853                0.04031235                0.12724884
               2.99618356                5.97491650               62.06907903                0.01000001               -0.46252257               -0.44546016                0.17850762                1.92249616                0.08879607                0.13366617
               3.99153215                5.98021841               62.07225838                0.01000001               -0.45035449               -0.48571528                0.18068420                2.32606711                0.05429955                0.16706414
               4.98717647                5.98883896               62.07551410                0.01000004               -0.45075998               -0.41693131                0.18867021                2.56438006                0.05587988                0.22793466
               5.98251695                5.99930992               62.07873077                0.01000004               -0.45080346               -0.37673044                0.19822320                2.64191409                0.04944768                0.30446498
               6.97816040                6.00912860               62.08182390                0.01000000               -0.35459922               -0.41147173                0.20618164                2.50160225                0.03552619                0.38846554
               7.97542496                6.01574258               62.08476998                0.01000000               -0.14072080               -0.58129291                0.20830658                2.15499657                0.01575514                0.46676210
               8.97534599                6.01544725               62.08754899                0.01000001                0.06235838               -0.78653987                0.20141159                1.34411841               -0.00004526                0.49146435
               9.97667213                6.00404388               62.09030920                0.01000000                0.13261419               -0.53622510                0.18555951                0.65295379               -0.00624232                0.44253700
               0.02226633                6.98348851               62.06255676                0.98585299               -0.03291650               -0.13266502                0.10177287                0.19581345               -0.00951872                0.00578671
               1.02193717                6.97685611               62.06574559                0.41322784               -0.03364181                0.01039045                0.11890148                0.18242253               -0.04098680               -0.02913024
               2.02159349                6.97020318               62.06830563                0.01000003               -0.47760016               -0.27064863                0.12382622                1.06597740               -0.06010147                0.11177676
               3.01238516                6.97074479               62.07107122                0.01000000               -0.68410965               -0.59186542                0.15785947                1.80782259                0.02337740                0.08176222
               4.00791130                6.97474440               62.07445389                0.01000000               -0.46697971               -0.57838003                0.17195438                2.16563789                0.08545269                0.13587842
               5.00304557                6.98446556               62.07817891                0.01000001               -0.48111533               -0.45498891                0.18515376                2.53166005                0.12398918                0.20198032
               5.99828899                6.99557035               62.08201783                0.01000000               -0.45413489               -0.30260890                0.19697392                2.43019526                0.14854219                0.29085007
               6.99396287                7.00505719               62.08590915                0.01000000               -0.34144981               -0.32751225                0.20523471                2.06848520                0.15678344                0.38944656
               7.99146000                7.01021003               62.08961629                0.01000001               -0.14859244               -0.45213581                0.20852296                1.51860966                0.13427041                0.49714183
               8.99099102                7.00932449               62.09288312                0.01000002               -0.02352972               -0.47327854                0.20606735                0.81264474                0.07288231                0.53244843
               9.99098940                7.00141346               62.09538083                0.01000000               -0.00016176               -0.12282099                0.19921980                0.35174439                0.02851704                0.46062837
               0.02892010                7.98318811               62.06335341                0.99999999               -0.03320538               -0.03004298                0.10192571               -0.00094639               -0.00585927                0.01283193
               1.02858804                7.97649785               62.06647151                1.00000000               -0.03533122               -0.03534434                0.11712979               -0.00148815               -0.01217699               -0.00323281
               2.02821347                7.96980388               62.06946441                0.43694679               -0.03946251               -0.03953659                0.13108848               -0.00527219               -0.02830744                0.01272601
               3.02779879                7.96307920               62.07225464                0.01000005               -0.35446688               -0.40369069                0.13542073                1.04681418                0.02331195                0.01946059
               4.02112413                7.96865081               62.07624662                0.01000000               -0.54075354               -0.94094121                0.15706244                2.13926691                0.12788012                0.02845396
               5.01698372                7.97973918               62.08038021                0.01000000               -0.52974587               -0.31414943                0.17692434                2.36279408                0.18642018                0.15153382
               6.01052922                7.99325774               62.08493264                0.01000000               -0.60466489               -0.10596706                0.19256131                2.02467555                0.24854068                0.23550497
               7.00489042                8.00257835               62.08962427                0.01000001               -0.44996820               -0.14508265                0.20114481                1.44807000                0.30945751                0.33183569
               8.00152985                8.00669987               62.09461005                0.01000002               -0.22474834               -0.24484574                0.20127924                0.88403215                0.30908139                0.46261838
               9.00039546                8.00598168               62.09854272                0.01000001               -0.10003845               -0.26623214                0.19864965                0.39156919                0.20611050                0.73171494
               9.99952908                8.00158746               62.10110332                0.01000000               -0.08663731                0.08426769                0.19483989                0.18208112                0.13410351                0.51624935
               0.03562793                8.98288765               62.06420496                1.00000000               -0.03362849               -0.03017399                0.10265882               -0.00055312               -0.00041621                0.01285989
               1.03529164                8.97614923               62.06727743                0.99999999               -0.03606091               -0.03469261                0.11685570               -0.00079005                0.00068848                0.00138157
               2.03490671                8.96941245               62.07037046                0.99999998               -0.04085652               -0.03870865                0.13030124               -0.00189416                0.00138845                0.00082399
               3.03447451                8.96267097               62.07341190                0.66754279               -0.04350274               -0.04081273                0.13836290               -0.00311477                0.00091650                0.01024762
               4.03403665                8.95592557               62.07640173                0.01000000               -0.43899944               -0.65705500                0.13980295                1.75820648                0.13438865               -0.03853497
               5.02569452                8.97818257               62.08213629                0.01000000               -0.90466593                0.06673108                0.16628442                1.99794717                0.27515154                0.07704544
               6.01594333                8.99345101               62.08712977                0.01000001               -0.81061886                0.08684808                0.19105098                1.22683887                0.31322937                0.13428850
               7.00948214                9.00215554               62.09246589                0.01000002               -0.51030088               -0.00624905                0.19904723                0.72382762                0.42273091                0.19454342
               8.00573732                9.00531312               62.09839797                0.01000000               -0.27736685               -0.09153258                0.19509159                0.32063146                0.67413095                0.29356046
               9.00393481                9.00399985               62.10718821                1.00000000               -0.11589297               -0.12483609                0.17018067                0.11183881                0.45500526                0.45097578
              10.00341946                9.00309881               62.10681648                0.99999999               -0.05153504                0.04925473                0.17366026                0.14949818               -0.00273442                0.29848740
               0.04238588                9.98258464               62.06501520                1.00000000               -0.03384316               -0.03030147                0.10251570               -0.00226812                0.00980826                0.01007563
               1.04204745                9.97580400               62.06809615                0.99999997               -0.03660176               -0.03452267                0.11684516               -0.00216596                0.01500773                0.00176233
               2.04165384                9.96902970               62.07127711                0.99999997               -0.04120393               -0.03827414                0.13114182               -0.00233941                0.02045582                0.00099287
               3.04122337                9.96226294               62.07439789                0.99999998               -0.04385865               -0.04080324                0.14032698               -0.00111379                0.01781323               -0.00288063
               4.04077667                9.95550971               62.07744216                0.01689018               -1.09030687               -0.04158625                0.14365318                1.61454490                0.14793858               -0.01467193
               5.01941723                9.98107380               62.08320305                0.01000001               -1.48418226                0.28912363                0.16816802                1.34652042                0.26591409                0.01747489
               6.01109302                9.99499470               62.08832212                0.01000001               -0.59561820                0.15436924                0.19879860                0.58394756                0.31220529                0.05941536
               7.00750487               10.00245337               62.09374301                0.01000000               -0.24974271                0.02978355                0.20726446                0.29599789                0.45432958                0.08849833
               8.00609817               10.00486921               62.10022782                0.01000000               -0.13291634               -0.04439048                0.19824703                0.08766467                0.60125302                0.15575354
               9.00484654               10.00348496               62.10687710                0.99999999               -0.08885248               -0.05148921                0.17332405               -0.02365952                0.35464338                0.00361048
              10.00432112               10.00257256               62.10650543                1.00000000               -0.05254187               -0.05262543                0.17681922               -0.00107344                0.00329410               -0.00323774
              -0.06154367               -0.00377950               63.04916303                1.00000000               -0.02296459               -0.02360171                0.07510338                0.00164206               -0.00797425                0.00766353
               0.93822669               -0.00751769               63.05264604                1.00000000               -0.02343960               -0.02463542                0.07846606                0.00055815               -0.00861765               -0.00151722
               1.93798754               -0.01123258               63.05611651                0.01000000                0.10206000               -0.02567255                0.08183184                0.14008097               -0.02896718               -0.00349441
               2.94026789               -0.01213206               63.05918773                0.01000001                0.18770407               -0.08171168                0.09974558                0.12541083               -0.05717898                0.02607965
               3.94174162               -0.00969844               63.06168533                0.01000000                0.07426990               -0.02821854                0.11096719                0.20184971               -0.11197209                0.03029295
               4.94175329               -0.00257113               63.06339647                0.01000001               -0.17892671                0.02832684                0.11012269                0.39309113               -0.16780059                0.04838099
               5.93816309                0.01091549               63.06446130                0.01000002               -0.64864337                0.10472183                0.11273344                0.73952287               -0.16811163               -0.04587709
               6.92878042                0.02862186               63.06515509                0.97043334               -0.48273647               -0.03033470                0.09067258                0.76675354               -0.11981451               -0.00132768
               7.92850836                0.03106480               63.06826440                1.00000000               -0.02747158               -0.03088256                0.09237373                0.00030996                0.00147509               -0.00001322
               8.92823099                0.03357300               63.07138036                1.00000000               -0.02797868               -0.03137761                0.09401140                0.00034720                0.00167855                0.00116451
               9.92794879                0.03614647               63.07448696                1.00000000               -0.02822007               -0.03189912                0.09573213               -0.00300219                0.00169786                0.00287768
              -0.05778905                0.99598449               63.05017561                1.00000000               -0.02521342               -0.02465962                0.08234846                0.00114613                0.00143988                0.00812187
               0.94195881                0.99223596               63.05366024                0.01002600               -0.02577053               -0.02573606                0.08571132                0.00005876                0.00427095               -0.00443466
               1.94169554                0.98851069               63.05720350                0.01000000               -0.06019448               -0.06280392                0.08907692                0.10525615               -0.01018551                0.02745139
               2.94075492                0.98705082               63.06039604                0.01000000               -0.13579403               -0.06103674                0.11056904                0.25054101               -0.05257749                0.04430168
               3.93897966                0.99001938               63.06288238                0.01000000               -0.26888450               -0.01676593                0.12203221                0.47942218               -0.10262226                0.05372661
               4.93537723                0.99771214               63.06477850                0.01000000               -0.45089160                0.02787967                0.13389994                0.80999779               -0.15335310                0.05703395
               5.92996182                1.01196271               63.06567560                0.01000001               -0.45019676               -0.06515517                0.13331083                1.14483168               -0.16401742                0.00944207
               6.92637330                1.02831851               63.06627148                0.88622139               -0.19629679               -0.03338314                0.11139342                0.69920259               -0.12525944               -0.00159447
               7.92603589                1.03075598               63.06938529                1.00000000               -0.03398373               -0.03393973                0.11320510                0.00006146                0.00057864                0.00017484
               8.92569362                1.03325923               63.07250101                1.00000000               -0.03452978               -0.03449367                0.11502553                0.00001566                0.00033277                0.00187182
               9.92534529                1.03582748               63.07560957                0.99999999               -0.03483309               -0.03498796                0.11678311               -0.00318831                0.00014782                0.00434230
              -0.05402368                1.99572731               63.05120136                0.01000000               -0.02746575                0.06047004                0.08959706                0.14624010                0.00330044                0.10669714
               0.94570166                1.99196759               63.05461480                0.01000000               -0.03492592               -0.11248834                0.09296104                0.10640781                0.04684595                0.09404610
               1.94527780                1.98751134               63.05890266                0.01000001               -0.09658181               -0.14498946                0.11744454                0.25220905                0.03850511                0.08651183
               2.94377002                1.98664721               63.06203557                0.01000000               -0.23045224               -0.09269393                0.12828721                0.60549670               -0.04257016                0.08789117
               3.94066875                1.98996624               63.06460777                0.01000000               -0.38800559               -0.04424385                0.13793291                0.97346803               -0.09164706                0.09981189
               4.93600991                1.99798646               63.06655929                0.01000001               -0.51077012               -0.03671940                0.14356796                1.32591596               -0.14348452                0.10512487
               5.93045335                2.00961239               63.06787009                0.01000000               -0.60193537               -0.17991754                0.14572998                1.80149304               -0.27503714                0.13456277
               6.92397120                2.02795420               63.06738466                0.01000003               -0.34422374               -0.43382880                0.13200208                1.23473836               -0.17979075                0.16801858
               7.92356888                2.03038601               63.07050850                0.38643947               -0.04057040               -0.04018453                0.13412360               -0.00021412                0.00015308                0.00543178
               8.92315980                2.03288313               63.07363104                1.00000000               -0.04101843               -0.04076842                0.13610335               -0.00013458               -0.00003736                0.00188876
               9.92274851                2.03544671               63.07675454                0.99999999               -0.04112880               -0.04122673                0.13779033               -0.00325152               -0.00009656                0.00436322
              -0.04734481                2.99719389               63.05419098                0.01000001               -0.03522502                0.08490574                0.11078811                0.13930698                0.01788437                0.19568755
               0.95230294                2.98998619               63.05759857                0.01000000               -0.02975455               -0.25450647                0.13046356                0.30414494                0.01455888                0.18507123
               1.95206010                2.98561090               63.06095555                0.01000000               -0.09464951               -0.26985547                0.14202506                0.65548363               -0.00008758                0.13306452
               2.95040995                2.98519695               63.06407996                0.01000000               -0.24751709               -0.20895758                0.14971515                1.05867527               -0.03126398                0.12804860
               3.94710976                2.98913450               63.06673350                0.01000003               -0.40802709               -0.14682930                0.15435710                1.45495963               -0.07155952                0.13965489
               4.94224941                2.99697775               63.06893539                0.01000000               -0.55429031               -0.14045450                0.15900247                1.82508756               -0.12079552                0.16658389
               5.93602395                3.00836436               63.07053186                0.01000001               -0.59774823               -0.20310223                0.16003294                1.99355836               -0.15957772                0.20659821
               6.93029445                3.01964194               63.07190251                0.01000000               -0.74606396               -0.57217959                0.15978695                1.92225890               -0.25160690                0.30934598
               7.92110267                3.02995229               63.07174029                0.01000001               -0.48321098               -0.30197180                0.15796332                1.12542107               -0.17080224                0.21372753
               8.92063023                3.03244386               63.07475327                0.10348106               -0.04747917               -0.02403500                0.15736938                0.01072652               -0.00666827                0.09149612
               9.92015309                3.03500295               63.07787872                1.00000000               -0.04771353               -0.03213343                0.15894178                0.00568427               -0.00156631                0.09877950
              -0.03682215                3.99742542               63.05693422                0.01000000                0.01896921               -0.09348883                0.11928822                0.30584045                0.00328828                0.17889360
               0.96336754                3.98687746               63.06020084                0.01000000               -0.00005679               -0.44564614                0.15992380                0.65545044               -0.00285683                0.19883723
               1.96317671                3.98211423               63.06341077                0.01000000               -0.09738064               -0.40431259                0.17175977                1.15877110               -0.01660530                0.16910131
               2.96141993                3.98246805               63.06637903                0.01000003               -0.25947870               -0.32087354                0.16933443                1.53212701               -0.03192890                0.15483412
               3.95798714                3.98702966               63.06915571                0.01000000               -0.40690627               -0.27005167                0.17056793                1.90250520               -0.04597719                0.16732190
               4.95328180                3.99517737               63.07164709                0.01000001               -0.51634035               -0.23954091                0.17280856                2.21297933               -0.06972416                0.20355448
               5.94766033                4.00555034               63.07382914                0.01000001               -0.62266752               -0.28976342                0.17612693                2.40919562               -0.10644280                0.25861815
               6.94082845                4.01651060               63.07555972                0.01000000               -0.71924787               -0.34351280                0.17781793                2.29796247               -0.14541793                0.30783951
               7.93327538                4.02434657               63.07703488                0.01000000               -1.12523946               -0.43358060                0.17838675                2.32333082               -0.21948564                0.41426259
               8.91832366                4.03240243               63.07768153                0.01000000               -0.77656819               -0.40030061                0.18538385                1.95829705               -0.15411860                0.34724980
               9.91774401                4.03480404               63.08091935                0.01000001               -0.05796523               -1.18343251                0.18134329                1.83236666                0.00185941                0.33748041
              -0.02013207                4.99532411               63.05955622                0.01000000                0.08552152               -0.62562954                0.09566084                0.83396610               -0.00277064                0.18208098
               0.98072315                4.98107327               63.06316000                0.01000000               -0.01115018               -0.57963505                0.20892918                1.35839642               -0.05085084                0.24163743
               1.97964493                4.97752465               63.06588352                0.01000001               -0.22930424               -0.39740844                0.19141381                1.63456408               -0.07915695                0.19762647
               2.97613706                4.97877947               63.06878204                0.01000000               -0.35971922               -0.41641054                0.18804904                1.90720172               -0.03204025                0.14782060
               3.97245054                4.98373347               63.07167138                0.01000001               -0.40743751               -0.37413652                0.17970523                2.20775366               -0.01447800                0.17387960
               4.96798831                4.99218693               63.07453998                0.01000001               -0.47879544               -0.34266036                0.18215378                2.50052585               -0.01459587                0.22142257
               5.96287464                5.00256909               63.07723310                0.01000003               -0.52654231               -0.33071487                0.18711485                2.63956289               -0.03072276                0.28285689
               6.95745747                5.01277168               63.07969140                0.01000004               -0.55985844               -0.38333490                0.19109823                2.67134977               -0.06072174                0.35504253
               7.95167747                5.02128067               63.08182141                0.01000000               -0.40593864               -0.44580636                0.19228967                2.55927432               -0.08196174                0.42173214
               8.94933869                5.02443784               63.08397660                0.01000000                0.01598613               -0.87394952                0.19183742                2.21911376               -0.06876300                0.51440531
               9.95199719                5.01133430               63.08654146                0.01000000                0.26584959               -1.58399320                0.18839995                1.49881157               -0.05803373                0.46575635
               0.00835886                5.98491283               63.06216477                0.01749769               -0.00239283               -0.62598847               -0.02136069                0.98898396               -0.34277245                0.33684390
               1.00833493                5.97528476               63.06551790                0.01000001               -0.50985355               -0.25085951                0.10830069                1.35523567               -0.35769137                0.20759385
               1.99816179                5.97416606               63.06851574                0.01000000               -0.74898917               -0.41184949                0.23535974                1.87315949               -0.12593707                0.09592247
               2.99335515                5.97413984               63.07089069                0.01000001               -0.47135162               -0.44352315                0.17993449                1.93131840               -0.03956272                0.11442875
               3.98873476                5.97954693               63.07409411                0.01000001               -0.44492244               -0.48273243                0.17832711                2.34280432                0.03049798                0.15400471
               4.98445670                5.98832417               63.07738863                0.01000003               -0.44339555               -0.40976115                0.18410640                2.59319798                0.05126276                0.21660552
               5.97986684                5.99893605               63.08068495                0.01000000               -0.44564169               -0.36347417                0.19159804                2.67750137                0.05567321                0.29187562
               6.97554386                6.00884391               63.08384030                0.01000000               -0.35360736               -0.39089634                0.19728551                2.53978051                0.04467097                0.37446764
               7.97279470                6.01543044               63.08679320                0.01000000               -0.14457741               -0.55605479                0.19925466                2.18814759                0.02350071                0.45112827
               8.97265232                6.01492344               63.08953605                0.01000001                0.05663207               -0.76872538                0.19665220                1.36210061                0.00300246                0.48485492
               9.97392734                6.00312418               63.09220981                0.01000000                0.12750221               -0.53819675                0.19239373                0.66108344               -0.00607806                0.44054809
               0.01890376                6.98280434               63.06358076                0.99235203               -0.03291271               -0.12063887                0.10259740                0.19080156               -0.00842379                0.04274551
               1.01857464                6.97605608               63.06692947                0.35059194               -0.03253646                0.02083267                0.11772670                0.17443271               -0.04647888                0.02599275
               2.01825303                6.96928766               63.06951409                0.01000000               -0.45960365               -0.26353702                0.11723560                1.03299275               -0.05349437                0.02040170
               3.00938256                6.96990901               63.07266780                0.01000000               -0.65653629               -0.60239483                0.15389273                1.80066316                0.01662474                0.04226393
               4.00512231                6.97407882               63.07616485                0.01000001               -0.44597040               -0.58356188                0.16678720                2.18185756                0.07828966                0.11075962
               5.00046315                6.98399171               63.08000959                0.01000004               -0.46086923               -0.45528602                0.17995797                2.56146448                0.12628439                0.18388883
               5.99590492                6.99529961               63.08395918                0.01000000               -0.43522386               -0.29814738                0.19040417                2.47357249                0.15496811                0.27225440
               6.99175868                7.00495375               63.08792145                0.01000000               -0.32720181               -0.31597817                0.19712379                2.12316576                0.16416329                0.36889794
               7.98936089                7.01015958               63.09165508                0.01000001               -0.14358543               -0.42918790                0.19976910                1.57452754                0.13959688                0.47594959
               8.98888697                7.00906334               63.09489622                0.01000001               -0.02717581               -0.44194269                0.19881087                0.84890264                0.07505386                0.51473440
               9.98881737                7.00057036               63.09735413                0.01000003               -0.00695979               -0.10633465                0.19746572                0.36944888                0.02827027                0.45163218
               0.02567142                7.98250006               63.06438068                1.00000000               -0.03311532               -0.03049138                0.10307931               -0.00069166               -0.00555627                0.01468616
               1.02534026                7.97570141               63.06763908                0.99999995               -0.03513552               -0.03516834                0.11640026               -0.00118034               -0.01197670               -0.00406200
               2.02496871                7.96889532               63.07076714                0.39844890               -0.03815062               -0.03890106                0.12912909               -0.00338626               -0.03536540                0.01553983
               3.02457725                7.96209195               63.07354813                0.01000001               -0.33397496               -0.41132076                0.12742084                1.05015678                0.02096395                0.00823292
               4.01828921                7.96787569               63.07775577                0.01000000               -0.50560261               -0.96081696                0.15447106                2.14844333                0.14043430                0.01860801
               5.01446520                7.97921845               63.08214882                0.01000000               -0.49564788               -0.32525880                0.17384396                2.38688036                0.19769472                0.12923572
               6.00837625                7.99297310               63.08682767                0.01000000               -0.56589962               -0.11426201                0.18658096                2.06418917                0.25487445                0.21592832
               7.00314721                8.00252434               63.09160137                0.01000001               -0.41002937               -0.15012057                0.19394708                1.50858056                0.31233826                0.31095527
               8.00017566                8.00684669               63.09658694                0.01000002               -0.19638112               -0.23969397                0.19410566                0.96534067                0.30867894                0.44009947
               8.99921959                8.00608458               63.10049818                0.01000001               -0.09366988               -0.23685532                0.19269096                0.47609044                0.20357510                0.70361705
               9.99830227                8.00099749               63.10303464                0.01000000               -0.09173193                0.13982992                0.19200862                0.23774879                0.12854349                0.49724799
               0.03248722                8.98219451               63.06524068                1.00000000               -0.03314529               -0.03072155                0.10404227               -0.00035733                0.00017129                0.01472779
               1.03215577                8.97535271               63.06844296                0.99999999               -0.03462230               -0.03485746                0.11615952               -0.00042631                0.00061525                0.00140821
               2.03179477                8.96850964               63.07164879                0.99999999               -0.03752195               -0.03852223                0.12762425                0.00100696                0.00265734               -0.00147892
               3.03140533                8.96168260               63.07487074                0.76143025               -0.04150489               -0.04276590                0.14211504                0.00221043                0.01366273                0.01544567
               4.03096468                8.95486248               63.07826549                0.01000000               -0.41509866               -0.67708051                0.16415137                1.76711152                0.12896545               -0.03338176
               5.02310335                8.97748653               63.08377489                0.01000000               -0.85409327                0.04495268                0.16836988                2.01859163                0.27612153                0.06097341
               6.01388281                8.99301437               63.08901079                0.01000001               -0.75233271                0.06740423                0.18519824                1.25061580                0.32459221                0.12049538
               7.00805670                9.00195134               63.09442624                0.01000002               -0.43876753               -0.02754333                0.19283566                0.76345728                0.42081066                0.18016998
               8.00510746                9.00536570               63.10032281                0.01000001               -0.18993621               -0.11574026                0.18963983                0.38539779                0.65722815                0.27821581
               9.00425798                9.00432623               63.10887660                1.00000000               -0.06804609               -0.11339049                0.16748953                0.20095024                0.44064660                0.43544157
              10.00374654                9.00336696               63.10855526                1.00000000               -0.05114380                0.09189922                0.17408654                0.22434740               -0.00272619                0.28671937
               0.03934788                9.98188563               63.06605022                0.99999998               -0.03312655               -0.03088869                0.10416143               -0.00207042                0.01184484                0.01164962
               1.03901661                9.97500426               63.06926112                1.00000000               -0.03444589               -0.03484467                0.11614006               -0.00195293                0.01617926                0.00196817
               2.03865896                9.96812487               63.07255171                1.00000000               -0.03739959               -0.03847642                0.12761182               -0.00196297                0.02384120               -0.00033564
               3.03826862                9.96123663               63.07588736                1.00000000               -0.04157294               -0.04459670                0.14453421               -0.00321040                0.03376024                0.00017299
               4.03782750                9.95433408               63.07934788                0.01771576               -1.07917374               -0.05283992                0.16711519                1.63032615                0.14499426               -0.00406645
               5.01668515                9.98011750               63.08488222                0.01000001               -1.44518711                0.26309662                0.17328095                1.35753431                0.27345861                0.00869863
               6.00892376                9.99432118               63.09027789                0.01000001               -0.53100627                0.13068164                0.19299043                0.59689374                0.32753351                0.05162084
               7.00606502               10.00197348               63.09578804                0.01000000               -0.17075145                0.00221347                0.20138226                0.31136701                0.44875019                0.07983707
               8.00550873               10.00453188               63.10219107                0.01000000               -0.04138462               -0.08338175                0.19396835                0.13229196                0.57791699                0.14655136
               9.00523733               10.00381677               63.10860827                1.00000000               -0.04004879               -0.05094569                0.17290691                0.01311481                0.34056189                0.00363223
              10.00470775               10.00283547               63.10828691                0.99999998               -0.05295738               -0.05314880                0.17950083               -0.00200847                0.00323985               -0.00325042
              -0.06512324               -0.00475169               64.04991656                1.00000000               -0.02297989               -0.02379947                0.07560357                0.00155060               -0.00797482                0.00766222
               0.93464696               -0.00858331               64.05342892                1.00000000               -0.02332830               -0.02456826                0.07811114                0.00042693               -0.00861765               -0.00151707
               1.93441020               -0.01239077               64.05692874                0.01000000                0.11285416               -0.02533687                0.08061804                0.15415127               -0.02202492               -0.00349564
               2.93690405               -0.01309788               64.06016821                0.01000001                0.20609350               -0.08387090                0.09486445                0.13558257               -0.04729495                0.03245978
               3.93853207               -0.01061537               64.06274785                0.01000003                0.09083907               -0.03160676                0.10266669                0.20318728               -0.10916014                0.03781191
               4.93872083               -0.00353254               64.06451092                0.01000001               -0.13560551                0.01291655                0.10485225                0.34779685               -0.18595015                0.04013025
               5.93581996                0.00853615               64.06526280                0.01000005               -0.65245890                0.11859054                0.10041131                0.77598796               -0.20016186               -0.01803907
               6.92567165                0.02738851               64.06606038                0.97051114               -0.52093832               -0.03044934                0.09045162                0.82374506               -0.11546025               -0.00132994
               7.92540119                0.02983942               64.06918408                1.00000000               -0.02723439               -0.03082069                0.09160849                0.00022883                0.00129767               -0.00004797
               8.92512696                0.03235880               64.07231390                1.00000000               -0.02758327               -0.03114989                0.09271556                0.00025944                0.00148885                0.00114259
               9.92484952                0.03494646               64.07543528                1.00000000               -0.02774380               -0.03153994                0.09391982               -0.00325084                0.00154275                0.00274784
              -0.06127611                0.99501032               64.05100288                1.00000000               -0.02531156               -0.02489758                0.08310479                0.00118301                0.00143962                0.00812153
               0.93847077                0.99117101               64.05451688                0.01000000               -0.02574478               -0.02570042                0.08561381                0.00005955                0.00427263               -0.00443227
               1.93820899                0.98735586               64.05808950                0.01000000               -0.05493000               -0.05431198                0.08812199                0.11913440               -0.00157906                0.03750294
               2.93737217                0.98606342               64.06148345                0.01000000               -0.12138604               -0.06002255                0.10550413                0.26262014               -0.04167390                0.05662569
               3.93578127                0.98906857               64.06407395                0.01000000               -0.23745679               -0.01828251                0.11403679                0.47419225               -0.09732115                0.06307246
               4.93262304                0.99659663               64.06599788                0.01000000               -0.38309797                0.01793344                0.11411324                0.74668196               -0.14805526                0.05712019
               5.92811931                1.00972206               64.06697296                0.01000001               -0.46827830               -0.00822509                0.12153586                1.09636356               -0.18440432                0.02159952
               6.92325747                1.02708402               64.06738984                0.87965583               -0.26004897               -0.03366648                0.11229025                0.74919482               -0.13488696               -0.00165775
               7.92291833                1.02953121               64.07051890                1.00000000               -0.03407188               -0.03404924                0.11353268                0.00007118                0.00064067                0.00014704
               8.92257603                1.03204730               64.07364996                1.00000000               -0.03444902               -0.03441847                0.11477891                0.00003700                0.00036641                0.00186360
               9.92222935                1.03463106               64.07677372                1.00000000               -0.03466805               -0.03481853                0.11602211               -0.00332982                0.00016258                0.00424119
              -0.05742096                1.99475036               64.05210235                0.01000001               -0.02764301                0.06526005                0.09060518                0.14632699                0.00329938                0.11344968
               0.94230261                1.99090268               64.05554519                0.01000000               -0.03392801               -0.10108599                0.09311600                0.11240829                0.05689657                0.10776408
               1.94190048                1.98652299               64.06006352                0.01000001               -0.09294297               -0.12740507                0.11232740                0.26331521                0.04603072                0.11467906
               2.94044375                1.98570167               64.06330008                0.01000000               -0.22088878               -0.08434297                0.12182600                0.61059501               -0.04257904                0.10904090
               3.93748270                1.98901898               64.06595547                0.01000000               -0.37213871               -0.04064469                0.12951571                0.96199862               -0.09019591                0.11306084
               4.93300097                1.99682613               64.06796663                0.01000001               -0.51114312               -0.02739909                0.13516129                1.29167421               -0.14304341                0.11175220
               5.92725984                2.00837165               64.06926555                0.01000000               -0.60772879               -0.11739266                0.13451416                1.73515998               -0.27624726                0.13176791
               6.92084640                2.02671518               64.06871524                0.01000003               -0.34102553               -0.42636732                0.13403754                1.23471134               -0.18348796                0.17031682
               7.92043933                2.02915843               64.07185650                0.39650724               -0.04092754               -0.04053010                0.13548180               -0.00006899                0.00051565                0.00607489
               8.92002785                2.03167043               64.07499589                1.00000000               -0.04119633               -0.04099356                0.13688502                0.00001157                0.00010920                0.00195096
               9.91961540                2.03425009               64.07813452                1.00000000               -0.04124453               -0.04140157                0.13813215               -0.00336047               -0.00005831                0.00438184
              -0.05065422                2.99631552               64.05530081                0.01000000               -0.03994755                0.10053036                0.10675269                0.14067392                0.02141790                0.21105056
               0.94894630                2.98914929               64.05887697                0.01000000               -0.03347375               -0.21966976                0.12082372                0.29753349                0.00847332                0.23240217
               1.94867630                2.98480776               64.06235458                0.01000000               -0.09291112               -0.24296665                0.13122649                0.64401293               -0.01431317                0.17318710
               2.94708808                2.98437656               64.06554904                0.01000000               -0.23897585               -0.19560192                0.13967497                1.04866063               -0.04550822                0.15704454
               3.94389679                2.98825567               64.06825329                0.01000006               -0.39921155               -0.13851744                0.14615761                1.44745254               -0.08027602                0.15589627
               4.93910385                2.99604864               64.07049502                0.01000000               -0.54816628               -0.12247292                0.15103571                1.81552880               -0.12409081                0.17322251
               5.93293346                3.00737421               64.07211489                0.01000001               -0.59694661               -0.18230717                0.15507385                1.99343062               -0.16117788                0.20990247
               6.92716492                3.01855667               64.07349306                0.01000000               -0.74858802               -0.55527362                0.15777692                1.91342838               -0.25272249                0.31322141
               7.91796170                3.02872061               64.07331531                0.01000004               -0.48401585               -0.28812221                0.15807765                1.11281843               -0.17257561                0.21967432
               8.91748460                3.03122743               64.07633525                0.11799987               -0.04794419               -0.04346567                0.15909551                0.00134650               -0.00722382                0.05877013
               9.91700282                3.03380303               64.07947531                0.99999997               -0.04817839               -0.04822096                0.16030134                0.00531844               -0.00169502                0.06420396
              -0.04027503                3.99676097               64.05808876                0.01000000                0.00360601               -0.05484029                0.10925911                0.26053233                0.00421345                0.20291833
               0.95976103                3.98650929               64.06178791                0.01000000               -0.00857519               -0.35484497                0.13504790                0.59002898               -0.03200129                0.26545608
               1.95955347                3.98166366               64.06504009                0.01000000               -0.08959903               -0.36835732                0.14624543                1.08765262               -0.06717724                0.23156334
               2.95796905                3.98178964               64.06803422                0.01000003               -0.23969018               -0.31389072                0.15407908                1.50025132               -0.06898173                0.18624368
               3.95475966                3.98624863               64.07082762                0.01000000               -0.38880180               -0.26288891                0.15970908                1.89775803               -0.06528313                0.18049696
               4.95019301                3.99437667               64.07334794                0.01000001               -0.50696185               -0.22787771                0.16504936                2.21844290               -0.07671396                0.20821491
               5.94462043                4.00472551               64.07556666                0.01000001               -0.62122248               -0.27339561                0.17004319                2.41370227               -0.10768437                0.25923439
               6.93776857                4.01560971               64.07730972                0.01000007               -0.72977454               -0.32248824                0.17417728                2.30331528               -0.13748999                0.30630843
               7.93002494                4.02339599               64.07893419                0.01000000               -1.13981073               -0.41041958                0.18210905                2.29919975               -0.23932278                0.41003837
               8.91497235                4.03080112               64.07882508                0.01000000               -0.77271859               -0.38692789                0.13796249                1.93598659               -0.16947453                0.32934861
               9.91457056                4.03328567               64.08203808                0.01000000               -0.04017862               -1.18202018                0.13601023                1.83997473               -0.00199374                0.30636568
              -0.02494022                4.99521871               64.06054732                0.01000003                0.07844067               -0.41036043                0.08872191                0.60598603               -0.07439561                0.18553401
               0.97584419                4.98205239               64.06466986                0.01000000                0.00446126               -0.49184190                0.12260619                1.03051661               -0.15853602                0.39391396
               1.97514901                4.97744062               64.06773330                0.01000001               -0.16680284               -0.40794656                0.15167221                1.46919731               -0.17877069                0.25101642
               2.97250813                4.97809874               64.07056010                0.01000000               -0.29420480               -0.42351580                0.16084651                1.87010816               -0.09275033                0.16506070
               3.96926491                4.98299789               64.07343393                0.01000001               -0.37561498               -0.37217986                0.16755815                2.21384235               -0.04068131                0.17512976
               4.96499583                4.99149109               64.07632823                0.01000001               -0.46452202               -0.33376032                0.17356405                2.51631402               -0.02307287                0.21869429
               5.95997447                5.00190629               64.07906942                0.01000000               -0.52175435               -0.31520788                0.17963396                2.65870671               -0.03018578                0.27732629
               6.95456075                5.01210690               64.08157600                0.01000000               -0.56100929               -0.36109012                0.18491889                2.68914615               -0.05821072                0.34777969
               7.94875429                5.02051221               64.08369235                0.01000000               -0.41230503               -0.42322531                0.18582687                2.57781263               -0.07185433                0.40395072
               8.94631465                5.02348887               64.08597785                0.01000000                0.00394562               -0.82881939                0.19029544                2.23337474               -0.06060542                0.52204134
               9.94883320                5.01016263               64.08852242                0.01000000                0.25185526               -1.56217517                0.18885002                1.49900018               -0.05872020                0.47261341
              -0.00182267                5.98855376               64.06142933                0.01000000               -0.00278762               -0.65456024                0.00802798                0.82890152               -0.40192381                0.57485457
               0.99814946                5.97667245               64.06761834                0.01000001               -0.26431371               -0.33988015                0.10327099                1.20905195               -0.51819475                0.36533665
               1.99289106                5.97350473               64.07011479                0.01000000               -0.41677612               -0.45404021                0.12687296                1.81415721               -0.26660846                0.07218484
               2.98981394                5.97331932               64.07267772                0.01000001               -0.36234492               -0.45830566                0.15746104                1.94295342               -0.08535199                0.09749139
               3.98564416                5.97880504               64.07582492                0.01000001               -0.41015209               -0.48499789                0.16640579                2.36262690                0.00743405                0.14007371
               4.98161089                5.98770146               64.07919623                0.01000000               -0.42327073               -0.40539696                0.17570541                2.61987032                0.04649782                0.20512784
               5.97717875                5.99842135               64.08256273                0.01000004               -0.43326634               -0.35167911                0.18354627                2.70942291                0.05680541                0.27946129
               6.97294557                6.00838790               64.08576961                0.01000000               -0.34897633               -0.37164138                0.18909624                2.57498107                0.04837158                0.35985565
               7.97019922                6.01493148               64.08875507                0.01000000               -0.14780682               -0.52884644                0.19261270                2.21798529                0.02573247                0.43639078
               8.96998943                6.01422473               64.09148203                0.01000001                0.05019162               -0.74159071                0.19381241                1.37945433                0.00332684                0.46379646
               9.97120305                6.00204217               64.09415707                0.01000000                0.12136224               -0.52706805                0.19545895                0.67203302               -0.00710694                0.42220220
               0.01540043                6.98212751               64.06460871                0.99792846               -0.03261716               -0.33659184                0.10265803                0.51847017               -0.00743516                0.13170252
               1.01507426                6.97525479               64.06810013                0.28370574               -0.03075738               -0.08846630                0.11602361                0.50224480               -0.05416439               -0.02135957
               2.01478528                6.96835981               64.07065034                0.01000002               -0.45036826               -0.27623790                0.10832264                1.11919486               -0.04938519                0.00281486
               3.00606689                6.96893263               64.07414907                0.01000000               -0.63249886               -0.61392020                0.14033326                1.81768156                0.01827111                0.00645903
               4.00213531                6.97329794               64.07778963                0.01000000               -0.41449839               -0.59413521                0.15758926                2.20692465                0.07580269                0.09262329
               4.99777693                6.98338315               64.08177807                0.01000000               -0.43294070               -0.45714342                0.17280828                2.59147968                0.12785537                0.16639538
               5.99347649                6.99487271               64.08582591                0.01000000               -0.41133431               -0.29483270                0.18274908                2.51431649                0.15726407                0.25502759
               6.98955024                7.00467408               64.08985162                0.01000000               -0.30996619               -0.30476153                0.18901540                2.17474636                0.16622761                0.35033613
               7.98727717                7.00993529               64.09361167                0.01000001               -0.13785984               -0.40486756                0.19219627                1.62951934                0.14029880                0.45587566
               8.98679304                7.00865706               64.09685933                0.01000000               -0.03190954               -0.40755474                0.19378956                0.88579048                0.07445572                0.49727387
               9.98663898                6.99962127               64.09933014                0.01000003               -0.01540660               -0.08554380                0.19679712                0.38761917                0.02670615                0.43779577
               0.02229218                7.98182192               64.06541499                1.00000000               -0.03301282               -0.03074169                0.10366964               -0.00056210               -0.00534966                0.01615229
               1.02196205                7.97490312               64.06879951                0.99999997               -0.03475311               -0.03497168                0.11557314               -0.00101888               -0.01210970               -0.00502936
               2.02159711                7.96797997               64.07204699                0.35073630               -0.03663029               -0.03807587                0.12715835               -0.00577044               -0.04298736                0.02146628
               3.02122944                7.96104092               64.07480306                0.01000001               -0.31324911               -0.41459854                0.12073506                1.05032666                0.02379118               -0.00042217
               4.01533213                7.96692233               64.07933604                0.01000000               -0.46818658               -0.98160517                0.15327489                2.15470932                0.15154406               -0.00157030
               5.01186571                7.97855860               64.08385709                0.01000000               -0.45789902               -0.33572588                0.16790808                2.41485459                0.20153800                0.11429529
               6.00617415                7.99252470               64.08866426                0.01000000               -0.52438955               -0.12310027                0.18021606                2.10207066                0.25825080                0.19800457
               7.00137792                8.00229267               64.09350322                0.01000001               -0.36837627               -0.15509050                0.18659078                1.56727677                0.31150427                0.29202492
               7.99880663                8.00683413               64.09849216                0.01000002               -0.16793310               -0.23309883                0.18717697                1.04676517                0.30504964                0.41992925
               8.99801926                8.00607363               64.10239654                0.01000009               -0.08898057               -0.20292333                0.18746071                0.56097016                0.19934247                0.67677875
               9.99702702                8.00033129               64.10494350                0.01000002               -0.09922430                0.19798340                0.18999609                0.29419788                0.12303995                0.47710123
               0.02922678                8.98151267               64.06628581                1.00000000               -0.03309512               -0.03116835                0.10510910               -0.00029233               -0.00011346                0.01610426
               1.02889583                8.97455535               64.06960062                0.99999999               -0.03473505               -0.03480348                0.11578981               -0.00034471                0.00007283                0.00104373
               2.02853208                8.96759829               64.07292295                0.99999983               -0.03823834               -0.03814112                0.12665356               -0.00036908                0.00079695               -0.00256225
               3.02813106                8.96064066               64.07625420                0.78928853               -0.04101353               -0.04038789                0.13675526               -0.00297477                0.00613861                0.02035777
               4.02771181                8.95366583               64.07968475                0.01000000               -0.38297058               -0.68293589                0.14171891                1.76887685                0.13144899               -0.04401109
               5.02047165                8.97666863               64.08550369                0.01000000               -0.79639917                0.02372580                0.16849662                2.04177788                0.28719749                0.05275150
               6.01178383                8.99241071               64.09083373                0.01000001               -0.69426547                0.04841173                0.17991672                1.27336763                0.32754742                0.10803534
               7.00658634                9.00157227               64.09632260                0.01000002               -0.36761584               -0.04830840                0.18646276                0.80256840                0.41735417                0.16718972
               8.00443151                9.00527331               64.10219077                0.01000001               -0.10355315               -0.13852077                0.18406090                0.45279917                0.63937787                0.26435216
               9.00451528                9.00459859               64.11053800                1.00000000               -0.02119485               -0.09896765                0.16479119                0.29251533                0.42624626                0.42032067
              10.00400761                9.00358094               64.11029821                0.99999999               -0.05076667                0.13564835                0.17450505                0.29831529               -0.00272631                0.27514772
               0.03620097                9.98119855               64.06709842                1.00000000               -0.03314363               -0.03141187                0.10572640               -0.00173129                0.01214705                0.01268672
               1.03586953                9.97420705               64.07041895                0.99999998               -0.03482706               -0.03482991                0.11616064               -0.00170010                0.01622080                0.00187906
               2.03550443                9.96721715               64.07382934                0.99999999               -0.03835616               -0.03811463                0.12725219               -0.00146015                0.02279246               -0.00054896
               3.03510241                9.96023316               64.07728858                0.99999994               -0.04113670               -0.04075004                0.13863786               -0.00054214                0.02709890                0.00132237
               4.03468169                9.95326361               64.08078446                0.01481507               -1.05730076               -0.04022176                0.14376270                1.63698607                0.14913988               -0.00252371
               5.01395639                9.97903311               64.08666867                0.01000001               -1.39719109                0.23644786                0.17392354                1.35994006                0.29111501                0.00369887
               6.00673787                9.99349293               64.09218193                0.01000001               -0.46948544                0.10822253                0.18809290                0.61007414                0.33378369                0.04431146
               7.00456669               10.00132651               64.09777066                0.01000000               -0.09507932               -0.02457608                0.19515520                0.32657331                0.44262961                0.07227826
               8.00483629               10.00406371               64.10410718                0.01000000                0.04976264               -0.12095959                0.18926070                0.17886628                0.55587299                0.13827307
               9.00556194               10.00409428               64.11033524                0.99999999                0.00961727               -0.05043099                0.17248836                0.05369320                0.32701869                0.00362698
              10.00502863               10.00304426               64.11009544                0.99999999               -0.05333074               -0.05366747                0.18220255               -0.00290023                0.00324832               -0.00324615
              -0.06872789               -0.00579890               65.05067510                1.00000000               -0.02299612               -0.02399806                0.07610383                0.00145739               -0.00797490                0.00766216
               0.93104215               -0.00972395               65.05420826                1.00000000               -0.02321772               -0.02450031                0.07775598                0.00029450               -0.00861863               -0.00151654
               1.93080776               -0.01362400               65.05772887                0.01000001                0.12303660               -0.02500202                0.07940777                0.16949362               -0.01723228               -0.00349616
               2.93350289               -0.01411334               65.06108502                0.01000000                0.22039723               -0.08351936                0.08910008                0.14489038               -0.04186188                0.03722756
               3.93521570               -0.01159441               65.06373867                0.01000003                0.10082212               -0.03323871                0.09586048                0.19885544               -0.11579660                0.04106913
               4.93551933               -0.00474243               65.06549352                0.01000001               -0.13026554                0.01412650                0.09921562                0.33622030               -0.19394706                0.03818897
               5.93261039                0.00713440               65.06646952                0.01000000               -0.64846938                0.12575513                0.11256504                0.76107742               -0.25293696                0.02485680
               6.92254994                0.02593635               65.06696412                0.97078352               -0.51648006               -0.03058484                0.09034252                0.82095804               -0.13118678               -0.00136782
               7.92228079                0.02839421               65.07009657                1.00000000               -0.02701893               -0.03077063                0.09091585                0.00014820                0.00111086               -0.00009928
               8.92200956                0.03092374               65.07323467                1.00000000               -0.02719528               -0.03092336                0.09143768                0.00017466                0.00132046                0.00112698
               9.92173689                0.03352456               65.07636536                1.00000000               -0.02726744               -0.03114885                0.09207468               -0.00350400                0.00142935                0.00267319
              -0.06478826                0.99396112               65.05183771                1.00000000               -0.02540897               -0.02513614                0.08386056                0.00121872                0.00144003                0.00812061
               0.93495765                0.99003105               65.05537252                0.01000000               -0.02571747               -0.02566317                0.08551335                0.00005639                0.00427316               -0.00443150
               1.93469739                0.98612598               65.05896594                0.01000000               -0.05103304               -0.04180825                0.08716581                0.13280881                0.00469390                0.04414919
               2.93393699                0.98505147               65.06250612                0.01000000               -0.10892944               -0.05621153                0.09922563                0.27354170               -0.03604042                0.06556324
               3.93251880                0.98807321               65.06516311                0.01000000               -0.22099331               -0.01787340                0.10558478                0.46649747               -0.10392865                0.07123095
               4.92951712                0.99539884               65.06706076                0.01000000               -0.38185129                0.02333982                0.10755908                0.73191933               -0.17260803                0.07068853
               5.92488178                1.00839196               65.06810632                0.01000001               -0.46937526               -0.00142973                0.11392223                1.09005370               -0.24851758                0.06866978
               6.92012962                1.02563050               65.06851729                0.87266727               -0.25465990               -0.03395223                0.11321841                0.74275502               -0.13562844               -0.00176471
               7.91978858                1.02808650               65.07165594                1.00000000               -0.03417438               -0.03415593                0.11388195                0.00008726                0.00065809                0.00008826
               8.91944613                1.03061451               65.07479659                1.00000000               -0.03437746               -0.03434408                0.11454283                0.00004835                0.00038128                0.00186855
               9.91910103                1.03321307               65.07793001                1.00000000               -0.03451017               -0.03459014                0.11521485               -0.00348346                0.00017730                0.00420722
              -0.06084336                1.99369838               65.05301347                0.01000000               -0.02782124                0.07336824                0.09161694                0.14241512                0.00329892                0.11533960
               0.93887843                1.98976279               65.05647712                0.01000000               -0.03565606               -0.08197705                0.09327041                0.11512144                0.06354263                0.11425846
               1.93844352                1.98553983               65.06114921                0.01000001               -0.09259688               -0.10139527                0.10451325                0.27020054                0.05214320                0.12940945
               2.93702649                1.98476243               65.06447209                0.01000000               -0.21226173               -0.07238840                0.11264690                0.60861933               -0.04206366                0.12210734
               3.93419828                1.98804812               65.06719809                0.01000000               -0.35937630               -0.03464670                0.12009783                0.95006994               -0.09285880                0.12601381
               4.92983896                1.99572437               65.06926252                0.01000001               -0.50092418               -0.01689694                0.12601314                1.27232755               -0.15218370                0.13317923
               5.92417980                2.00710581               65.07056038                0.01000000               -0.60642339               -0.10653284                0.12965894                1.72267565               -0.27251628                0.14712166
               6.91771050                2.02525731               65.07006541                0.01000003               -0.34406339               -0.41593110                0.13597709                1.22576159               -0.18098722                0.16977101
               7.91729853                2.02771109               65.07321814                0.40608215               -0.04132690               -0.04092132                0.13684788               -0.00000241                0.00079409                0.00604619
               8.91688396                2.03023686               65.07636875                1.00000000               -0.04142194               -0.04122207                0.13768570                0.00006442                0.00025357                0.00202125
               9.91647009                2.03283276               65.07951719                0.99999999               -0.04138645               -0.04148024                0.13836693               -0.00350892               -0.00000396                0.00445339
              -0.05406877                2.99542849               65.05632603                0.01000000               -0.05126012                0.12694491                0.09929174                0.13166101                0.02479864                0.21131228
               0.94541863                2.98839151               65.06001505                0.01000000               -0.04147346               -0.16845506                0.10644976                0.27836733                0.00781023                0.24015962
               1.94510176                2.98409807               65.06358008                0.01000000               -0.09087728               -0.20865254                0.11519489                0.61777677               -0.01655499                0.18377321
               2.94360108                2.98360370               65.06687346                0.01000000               -0.22717491               -0.17902816                0.12548196                1.02542367               -0.04731439                0.16896015
               3.94055826                2.98738027               65.06965666                0.01000002               -0.38475468               -0.12945857                0.13442857                1.43133384               -0.08221810                0.16769792
               4.93590599                2.99506090               65.07195610                0.01000000               -0.53779565               -0.11079525                0.14180351                1.80252775               -0.12308985                0.18268160
               5.92980235                3.00626130               65.07363334                0.01000001               -0.59332085               -0.16626559                0.14886129                1.98080233               -0.15828845                0.21657456
               6.92403957                3.01731188               65.07505804                0.01000000               -0.74966865               -0.53517351                0.15533714                1.90036970               -0.24926282                0.31513820
               7.91480898                3.02726807               65.07490184                0.01000001               -0.48569108               -0.27703922                0.15983816                1.10766036               -0.17171752                0.21615533
               8.91432575                3.02979007               65.07793518                0.13353261               -0.04849587               -0.04450316                0.16093031                0.00308619               -0.00708591                0.04830910
               9.91383906                3.03238347               65.08108475                1.00000000               -0.04866919               -0.04742548                0.16157303               -0.00025718               -0.00176872                0.05263630
              -0.04413618                3.99623728               65.05911940                0.01000003               -0.00876317                0.01328687                0.09977301                0.22582593               -0.00582059                0.18743520
               0.95577619                3.98639369               65.06290180                0.01000000               -0.01384797               -0.26351951                0.10199797                0.50386593               -0.03544935                0.25102027
               1.95558686                3.98136678               65.06633568                0.01000000               -0.07617142               -0.33138944                0.11767046                0.99328442               -0.06577801                0.22449242
               2.95425276                3.98118187               65.06946061                0.01000002               -0.21095509               -0.30832567                0.13312569                1.45362559               -0.06941557                0.19009198
               3.95136776                3.98545895               65.07234989                0.01000000               -0.36221354               -0.25707529                0.14498764                1.88185642               -0.06699422                0.18691933
               4.94700849                3.99350846               65.07494808                0.01000001               -0.49114494               -0.21741859                0.15459508                2.21534587               -0.07660561                0.21207753
               5.94154486                4.00378050               65.07723001                0.01000001               -0.61486880               -0.25708778                0.16264962                2.41330866               -0.10409754                0.25905483
               6.93471112                4.01455384               65.07904327                0.01000002               -0.72856543               -0.30222484                0.17018120                2.30102788               -0.13279379                0.30235160
               7.92697355                4.02217030               65.08067706                0.01000000               -1.14404128               -0.38646322                0.17328861                2.29112561               -0.23693806                0.39989546
               8.91183029                4.02934680               65.08044078                0.01000000               -0.78477005               -0.37841717                0.17120863                1.93423507               -0.16834691                0.33541281
               9.91127815                4.03188425               65.08363955                0.01000000               -0.05521373               -1.18579490                0.17045943                1.84847373               -0.00628425                0.30930072
              -0.02986506                4.99569423               65.06133066                0.01000003                0.02315108               -0.19443721                0.08273420                0.34661586               -0.04925463                0.16513525
               0.97036645                4.98312112               65.06561212                0.01000000                0.00221677               -0.36162307                0.07722617                0.76427223               -0.12488177                0.27803897
               1.97017927                4.97747028               65.06891696                0.01000001               -0.08925116               -0.43370324                0.10570760                1.32497206               -0.14154150                0.21188632
               2.96858142                4.97743718               65.07199897                0.01000000               -0.21552379               -0.43405821                0.13277198                1.82268482               -0.08299176                0.16030688
               3.96586880                4.98223877               65.07502255                0.01000001               -0.33450301               -0.37331253                0.15138447                2.21362552               -0.04154690                0.17497351
               4.96189136                4.99071252               65.07801126                0.01000001               -0.44228231               -0.32657887                0.16281958                2.52605659               -0.02369250                0.21597559
               5.95702315                5.00111954               65.08082578                0.01000000               -0.51105185               -0.30058576                0.17129879                2.67197853               -0.02843787                0.27137143
               6.95167033                5.01126738               65.08338978                0.01000003               -0.55923100               -0.33942222                0.17803104                2.70135504               -0.05464756                0.33680559
               7.94583853                5.01953881               65.08553795                0.01000000               -0.41869078               -0.39656845                0.18251290                2.57888533               -0.07200334                0.39130943
               8.94329651                5.02222172               65.08778251                0.01000000               -0.00524465               -0.80144581                0.18194212                2.23076595               -0.06263827                0.51531842
               9.94573364                5.00866757               65.09031846                0.01000000                0.24371256               -1.55618696                0.18298411                1.50243255               -0.05832160                0.46901425
              -0.01205764                5.99234854               65.06232533                0.01000003                0.13432213               -0.71207495                0.13919737                0.76313329               -0.20596222                0.37121218
               0.98928558                5.97916122               65.06758332                0.01000001               -0.00860602               -0.43367020                0.02479020                1.07137260               -0.22369496                0.26646091
               1.98777024                5.97269272               65.07105320                0.01000000               -0.16738018               -0.50292648                0.08172068                1.71882940               -0.14880742                0.06295138
               2.98593798                5.97250070               65.07403991                0.01000001               -0.27026529               -0.47621634                0.12858251                1.96636287               -0.06328351                0.08836273
               3.98236493                5.97799270               65.07742223                0.01000001               -0.36445645               -0.49093007                0.15349597                2.38083794                0.01107076                0.13144120
               4.97864885                5.98697688               65.08090274                0.01000003               -0.39676787               -0.40268866                0.16618681                2.64343491                0.04586779                0.19590446
               5.97442957                5.99776878               65.08435587                0.01000005               -0.41649475               -0.34104581                0.17506932                2.73710021                0.05744567                0.26778688
               6.97031895                6.00776539               65.08762222                0.01000000               -0.34163262               -0.35202587                0.18146922                2.60486456                0.04932431                0.34522228
               7.96759692                6.01423893               65.09064546                0.01000000               -0.15010499               -0.49994036                0.18601903                2.24365565                0.02710287                0.41979572
               8.96731685                6.01331788               65.09341230                0.01000001                0.04190971               -0.70637078                0.19003104                1.39413394                0.00412225                0.44926979
               9.96843512                6.00076051               65.09611899                0.01000000                0.11182646               -0.50638562                0.19395195                0.67807486               -0.00815208                0.41181860
               0.01177222                6.98145273               65.06563392                1.00000000               -0.03225049               -0.56012641                0.10248187                0.84214998               -0.00659332                0.13871378
               1.01144972                6.97444771               65.06924995                0.21205871               -0.02779198               -0.25304474                0.11392858                0.75697607               -0.06550653                0.03703886
               2.01121638                6.96741175               65.07168054                0.01000001               -0.44205119               -0.28203401                0.09443007                1.19001622               -0.04872694                0.01563898
               3.00260869                6.96791286               65.07547446                0.01000000               -0.61035060               -0.62611603                0.12812822                1.84172333                0.03616345               -0.00569139
               3.99900937                6.97242016               65.07931664                0.01000007               -0.38123562               -0.60217711                0.14927493                2.23235085                0.08279630                0.07964647
               4.99498398                6.98265875               65.08346575                0.01000020               -0.40163625               -0.45990785                0.16535156                2.61986787                0.13024999                0.15293965
               5.99097665                6.99429863               65.08761416                0.01000000               -0.38432575               -0.29217072                0.17498361                2.55168434                0.15729173                0.23971324
               6.98729747                7.00422687               65.09170176                0.01000000               -0.29087462               -0.29357645                0.18119136                2.22359063                0.16527960                0.33284224
               7.98515915                7.00954000               65.09549900                0.01000001               -0.13199249               -0.37863770                0.18527558                1.68269267                0.13843941                0.43628708
               8.98465762                7.00809431               65.09877201                0.01000000               -0.03746363               -0.36881959                0.18880271                0.92190507                0.07259522                0.47748813
               9.98440988                6.99853986               65.10129008                0.01000003               -0.02477358               -0.05945341                0.19452365                0.40625640                0.02496223                0.42074867
               0.01879538                7.98114601               65.06645408                1.00000000               -0.03293107               -0.03097800                0.10425402               -0.00041309               -0.00504136                0.01761903
               1.01846607                7.97410033               65.06995054                1.00000000               -0.03449839               -0.03467815                0.11460864               -0.00118046               -0.01180348               -0.00545301
               2.01810542                7.96705204               65.07331031                0.29152548               -0.03510221               -0.03678566                0.12541062               -0.00905975               -0.05334457                0.03158610
               3.01776403                7.95997838               65.07596283                0.01000001               -0.29196813               -0.41543123                0.10905551                1.05273628                0.02584359               -0.00225163
               4.01226605                7.96594916               65.08082127                0.01000000               -0.42981444               -0.99431675                0.14422476                2.15675696                0.16629203               -0.01235817
               5.00916774                7.97777873               65.08550698                0.01000000               -0.41854542               -0.34643827                0.16186265                2.43452766                0.20556938                0.10114372
               6.00389515                7.99192537               65.09043200                0.01000000               -0.48091758               -0.13206123                0.17333278                2.13766681                0.25857946                0.18284191
               6.99954939                8.00189386               65.09533319                0.01000001               -0.32559058               -0.15995857                0.17948175                1.62450474                0.30756519                0.27488340
               7.99738333                8.00666618               65.10033048                0.01000002               -0.13971446               -0.22511410                0.18060562                1.12840443                0.29903924                0.40065236
               8.99675510                8.00594149               65.10424739                0.01000001               -0.08570922               -0.16501838                0.18266179                0.64615473                0.19406193                0.65014752
               9.99566915                7.99957144               65.10683457                0.01000002               -0.10859503                0.25890566                0.18784042                0.35108049                0.11761696                0.45634029
               0.02585532                8.98083317               65.06734286                1.00000000               -0.03352356               -0.03159433                0.10646678               -0.00018225               -0.00023040                0.01736606
               1.02552008                8.97375415               65.07075876                0.99999999               -0.03490890               -0.03475685                0.11592610               -0.00065459               -0.00027839                0.00097137
               2.02515714                8.96667604               65.07418186                0.99999999               -0.03768925               -0.03754666                0.12490203               -0.00050761               -0.00023187               -0.00366092
               3.02476629                8.95960423               65.07760584                0.81409683               -0.04064870               -0.03920308                0.13345847               -0.00253798                0.00336487                0.02900942
               4.02434416                8.95253383               65.08109987                0.01000000               -0.35339839               -0.69324884                0.14097129                1.76449521                0.13659235               -0.04829986
               5.01769833                8.97572999               65.08714482                0.01000000               -0.73646584                0.00413934                0.15974050                2.05329086                0.29499842                0.04467438
               6.00961485                8.99165740               65.09260913                0.01000001               -0.63257885                0.02928259                0.17448847                1.29500064                0.32849993                0.09796672
               7.00504675                9.00102770               65.09815549                0.01000002               -0.29676151               -0.06854647                0.18012421                0.84116426                0.41088172                0.15568906
               8.00367962                9.00503772               65.10400402                0.01000002               -0.01856487               -0.16008367                0.17863116                0.52222576                0.62033206                0.25146625
               9.00467545                9.00479394               65.11217243                1.00000000                0.02459874               -0.08233268                0.16209180                0.38572952                0.41166920                0.40507786
              10.00417159                9.00371797               65.11204537                0.99999998               -0.05038615                0.18023258                0.17492529                0.37156129               -0.00272374                0.26353560
               0.03294977                9.98051412               65.06816474                1.00000000               -0.03396643               -0.03190458                0.10783074               -0.00144698                0.01249513                0.01348214
               1.03261011                9.97340519               65.07158433                1.00000000               -0.03522958               -0.03489567                0.11715089               -0.00164797                0.01635019                0.00184915
               2.03224518                9.96630110               65.07509676                0.99999999               -0.03773146               -0.03749368                0.12594660               -0.00173928                0.02280431               -0.00094453
               3.03185548                9.95919432               65.07866011                0.99999998               -0.04074883               -0.04099136                0.13591954               -0.00192743                0.02593373                0.00151255
               4.03143020                9.95208418               65.08222313                0.01698729               -1.03727474               -0.04496458                0.14356380                1.64196391                0.15694568               -0.00344769
               5.01110998                9.97786151               65.08836069                0.01000001               -1.34663779                0.21315282                0.16466744                1.36250763                0.30458044               -0.00061697
               6.00449745                9.99251102               65.09403974                0.01000001               -0.40588139                0.08536177                0.18254926                0.62133122                0.33819294                0.03845845
               7.00299236               10.00052293               65.09969115                0.01000000               -0.02179224               -0.05047617                0.18893797                0.34223502                0.43437322                0.06569868
               8.00406160               10.00346451               65.10597628                0.01000000                0.13985426               -0.15732132                0.18461828                0.22679389                0.53466186                0.13068494
               9.00578944               10.00429484               65.11205803                0.99999999                0.05953577               -0.04991047                0.17206958                0.09697815                0.31406700                0.00362651
              10.00525232               10.00317609               65.11193096                0.99999999               -0.05371226               -0.05418776                0.18490310               -0.00380164                0.00324489               -0.00324515
              -0.07234906               -0.00692367               66.05143864                1.00000000               -0.02301262               -0.02419691                0.07660480                0.00136421               -0.00797524                0.00766210
               0.92742081               -0.01094216               66.05498404                1.00000000               -0.02310740               -0.02443220                0.07740085                0.00016202               -0.00861927               -0.00151640
               1.92718879               -0.01493482               66.05851690                0.01000000                0.13181007               -0.02466700                0.07819679                0.18537945               -0.01398687               -0.00349642
               2.93005702               -0.01519553               66.06195021                0.01000000                0.23094211               -0.08168674                0.08435945                0.15431424               -0.03861577                0.03937773
               3.93180763               -0.01264288               66.06466506                0.01000000                0.10270084               -0.03233591                0.09043114                0.19865569               -0.11639458                0.04355763
               4.93211103               -0.00590325               66.06649524                0.01000001               -0.12585087                0.01446487                0.09700796                0.33179291               -0.20054791                0.04457057
               5.92929062                0.00575970               66.06751411                0.01000000               -0.63450820                0.12449003                0.10029522                0.74808488               -0.26584203                0.02883218
               6.91942087                0.02425481               66.06786723                0.97134190               -0.50688822               -0.03073801                0.09033106                0.80539049               -0.13856235               -0.00143131
               7.91915285                0.02671869               66.07100240                1.00000000               -0.02681424               -0.03072817                0.09027553                0.00006926                0.00088998               -0.00016403
               8.91888458                0.02925751               66.07414266                0.99999998               -0.02680562               -0.03069095                0.09015237                0.00009786                0.00112376                0.00111189
               9.91861674                0.03187063               66.07727678                1.00000000               -0.02678429               -0.03072497                0.09018549               -0.00375605                0.00129988                0.00258720
              -0.06831693                0.99283436               66.05268009                1.00000000               -0.02550625               -0.02537498                0.08461647                0.00125440                0.00144015                0.00812021
               0.93142801                0.98881352               66.05622715                0.01000000               -0.02568999               -0.02562575                0.08541291                0.00005273                0.00427329               -0.00443138
               1.93116927                0.98481851               66.05983281                0.01000000               -0.04869101               -0.02840717                0.08620925                0.14668316                0.00883006                0.04709144
               2.93045419                0.98398761               66.06346796                0.01000000               -0.10106082               -0.05139961                0.09396792                0.28559160               -0.03194915                0.06982898
               3.92914805                0.98703376               66.06618565                0.01000000               -0.21132574               -0.01557020                0.10038552                0.46406285               -0.10534666                0.07704132
               4.92622767                0.99424140               66.06814906                0.01000000               -0.37278093                0.02488150                0.10731569                0.72274082               -0.17694323                0.07950253
               5.92169244                1.00700460               66.06925140                0.01000001               -0.46161967                0.00136837                0.11332992                1.07110187               -0.24528803                0.07076983
               6.91699528                1.02394743               66.06965421                0.86514952               -0.25201195               -0.03424827                0.11418796                0.72774159               -0.13619635               -0.00191516
               7.91665220                1.02641141               66.07279654                1.00000000               -0.03428437               -0.03426187                0.11424242                0.00010951                0.00066697                0.00001400
               8.91630959                1.02895060               66.07594082                1.00000000               -0.03430683               -0.03426249                0.11429467                0.00006286                0.00039238                0.00188131
               9.91596606                1.03156338               66.07907801                1.00000000               -0.03435321               -0.03431057                0.11436798               -0.00363709                0.00019144                0.00416002
              -0.06428229                1.99256883               66.05393469                0.01000023               -0.02799933                0.08007352                0.09262801                0.13668256                0.00329877                0.11336596
               0.93543772                1.98854532               66.05741059                0.01000000               -0.03846707               -0.06428595                0.09342472                0.11743315                0.06648508                0.11318831
               1.93494837                1.98449704               66.06215378                0.01000001               -0.09420602               -0.07608751                0.09803504                0.27743393                0.05728249                0.13196359
               2.93355360                1.98377648               66.06555302                0.01000000               -0.20566336               -0.06101825                0.10483454                0.60798571               -0.03789182                0.12653005
               3.93083510                1.98704572               66.06835743                0.01000000               -0.34792920               -0.02879684                0.11261647                0.94198143               -0.09066824                0.13353431
               4.92659501                1.99459438               66.07048689                0.01000001               -0.49142392               -0.01123400                0.12031025                1.25895251               -0.15033624                0.14163283
               5.92100662                2.00578707               66.07185873                0.01000000               -0.60130587               -0.09842669                0.12868426                1.69743902               -0.26983305                0.15287026
               6.91456889                2.02356984               66.07143478                0.01000000               -0.34273739               -0.40329290                0.13788079                1.20811293               -0.17739309                0.16655843
               7.91415187                2.02603345               66.07459345                0.41529067               -0.04175131               -0.04133102                0.13820769                0.00002146                0.00110765                0.00599648
               8.91373387                2.02857226               66.07774961                1.00000000               -0.04167179               -0.04145095                0.13848207                0.00006763                0.00042098                0.00212274
               9.91331844                2.03118442               66.08090186                0.99999998               -0.04154296               -0.04149938                0.13853655               -0.00367153                0.00006005                0.00452141
              -0.05753627                2.99443583               66.05728664                0.01000000               -0.06152664                0.14681060                0.09447273                0.12549937                0.02583433                0.20043456
               0.94184846                2.98752780               66.06100596                0.01000000               -0.04884672               -0.13063554                0.09776254                0.26294925                0.01305385                0.22637657
               1.94148679                2.98329676               66.06465848                0.01000000               -0.08916197               -0.18402058                0.10497552                0.59850858               -0.00726214                0.17311927
               2.94006522                2.98276724               66.06805868                0.01000000               -0.21585035               -0.16552569                0.11393452                1.00869962               -0.03828624                0.16778894
               3.93716979                2.98645783               66.07094186                0.01000002               -0.36999237               -0.12122941                0.12377105                1.41733448               -0.07482760                0.17188560
               4.93266537                2.99401672               66.07333109                0.01000000               -0.52520179               -0.10156583                0.13369683                1.78820080               -0.11663929                0.18843853
               5.92666575                3.00503607               66.07509212                0.01000001               -0.58771095               -0.15364544                0.14357259                1.96507582               -0.15027083                0.21869880
               6.92091115                3.01588157               66.07659980                0.01000000               -0.75077691               -0.51224211                0.15313205                1.88227297               -0.24178275                0.31113234
               7.91165021                3.02558479               66.07651208                0.01000001               -0.48755884               -0.26378298                0.16250195                1.09884012               -0.16813990                0.20996445
               8.91115998                3.02812158               66.07955385                0.15037388               -0.04909497               -0.04551043                0.16283010                0.00288297               -0.00687297                0.04605912
               9.91066831                3.03073339               66.08270677                1.00000000               -0.04916659               -0.04732193                0.16281045               -0.00237452               -0.00181275                0.05022119
              -0.04795624                3.99550504               66.06008422                0.01000000               -0.02079872                0.04398292                0.09753673                0.19515951               -0.00071156                0.16005221
               0.95183577                3.98593261               66.06382787                0.01000000               -0.01823293               -0.22980723                0.09327987                0.46116905               -0.01791166                0.19395093
               1.95167910                3.98081663               66.06739350                0.01000000               -0.06346232               -0.31679725                0.10284852                0.94889492               -0.03686044                0.19093667
               2.95056652                3.98046597               66.07069673                0.01000002               -0.18733917               -0.30208307                0.11845751                1.42409998               -0.04661139                0.18025144
               3.94793231                3.98462113               66.07372737                0.01000000               -0.33928676               -0.25164003                0.13241038                1.86744955               -0.05481108                0.18846153
               4.94378079                3.99256306               66.07643984                0.01000001               -0.47445151               -0.20803898                0.14446550                2.20732014               -0.06842164                0.21380233
               5.93844328                4.00271416               66.07881965                0.01000001               -0.60575765               -0.24141048                0.15520203                2.40616930               -0.09685355                0.25703151
               6.93166563                4.01332500               66.08071334                0.01000001               -0.72773074               -0.28087538                0.16486028                2.29440541               -0.12604165                0.29513026
               7.92388867                4.02075779               66.08239997                0.01000000               -1.15113561               -0.36073883                0.17261209                2.28041647               -0.23246152                0.38976904
               8.90864292                4.02766205               66.08224926                0.01000000               -0.79206720               -0.36489316                0.18644008                1.93007901               -0.16651512                0.32291768
               9.90804732                4.03023798               66.08544727                0.01000000               -0.05955973               -1.18349558                0.18631481                1.85392041               -0.00331026                0.29749466
              -0.03448823                4.99531549               66.06220200                0.01000003                0.02484868               -0.19151489                0.10485816                0.33653472               -0.02029689                0.13861643
               0.96576025                4.98293165               66.06621438                0.01000000                0.02097845               -0.37843837                0.07706072                0.73786233               -0.04222777                0.16280563
               1.96593134                4.97696082               66.06984745                0.01000001               -0.05087692               -0.44082250                0.09629410                1.27865722               -0.05482995                0.15516911
               2.96474272                4.97672558               66.07321554                0.01000000               -0.17548276               -0.44274444                0.11981970                1.80384625               -0.04466631                0.15290106
               3.96242168                4.98142503               66.07646162                0.01000001               -0.30119846               -0.37406811                0.13922795                2.21003957               -0.02588286                0.17555355
               4.95871875                4.98985594               66.07958462                0.01000001               -0.41972435               -0.31989995                0.15261827                2.52983257               -0.01749113                0.21480606
               5.95402719                5.00020786               66.08249540                0.01000002               -0.49815586               -0.28627259                0.16275412                2.67865127               -0.02400185                0.26502301
               6.94875563                5.01026406               66.08513662                0.01000000               -0.55528510               -0.31723156                0.17144989                2.70694940               -0.05067664                0.32570646
               7.94292149                5.01837001               66.08734261                0.01000000               -0.42371300               -0.36957264                0.17921243                2.58110920               -0.06927899                0.37752625
               8.94028137                5.02082372               66.08961669                0.01000000               -0.01633151               -0.77207141                0.18446740                2.23244471               -0.06128768                0.50171778
               9.94259486                5.00706348               66.09218211                0.01000000                0.23134925               -1.54655270                0.18868335                1.50294189               -0.05904734                0.45974161
              -0.01645788                5.99167474               66.06421328                0.01000005                0.14055707               -0.72712264                0.16162232                0.79514791               -0.02303200                0.14927501
               0.98494769                5.97836385               66.06811415                0.01000001               -0.00418996               -0.46516589                0.07688729                1.11413433               -0.03256800                0.12719181
               1.98345832                5.97200018               66.07174920                0.01000000               -0.13842245               -0.52726663                0.08743298                1.74510611               -0.05056519                0.05327143
               2.98217924                5.97161108               66.07524937                0.01000001               -0.22277846               -0.49148482                0.12283496                1.97754713               -0.01597602                0.08798812
               3.97900275                5.97713977               66.07889484                0.01000001               -0.32923151               -0.49665995                0.14577612                2.39661225                0.02359310                0.13040513
               4.97559461                5.98616506               66.08251996                0.01000002               -0.36972826               -0.40091142                0.15799041                2.66072958                0.04821009                0.19081570
               5.97160818                5.99698871               66.08606411                0.01000001               -0.39760686               -0.33085017                0.16669703                2.75872162                0.05791463                0.25768184
               6.96764247                6.00698037               66.08939899                0.01000000               -0.33284908               -0.33220537                0.17394862                2.62964965                0.04978669                0.33055935
               7.96495120                6.01336634               66.09247545                0.01000000               -0.15220621               -0.46970038                0.18010765                2.26472313                0.02688541                0.40261239
               8.96459835                6.01222062               66.09528265                0.01000001                0.03377178               -0.67259931                0.18534122                1.40565455                0.00341806                0.43278453
               9.96562664                5.99930692               66.09803611                0.01000000                0.10282903               -0.48714083                0.19069504                0.68399149               -0.00873639                0.39924164
               0.00803652                6.98077303               66.06665835                1.00000000               -0.03190096               -0.56046902                0.10223291                0.86834528               -0.00598794                0.09562348
               1.00771751                6.97362834               66.07037870                0.13528561               -0.02251448               -0.25392989                0.11164011                0.77822544               -0.08356889                0.06590811
               2.00758623                6.96641548               66.07253894                0.01000106               -0.42817200               -0.29449029                0.07237769                1.21635834               -0.04466008                0.03429008
               2.99915407                6.96689588               66.07671164                0.01000000               -0.58931423               -0.63732874                0.12873144                1.85662313                0.06328970               -0.01362500
               3.99579994                6.97149183               66.08077513                0.01000002               -0.35348338               -0.61239162                0.14696335                2.25264520                0.08910440                0.07240749
               4.99208440                6.98183771               66.08508510                0.01000000               -0.37068119               -0.46313299                0.15932224                2.64353956                0.13088886                0.14320455
               5.98838632                6.99359085               66.08932558                0.01000000               -0.35567040               -0.29010669                0.16753655                2.58467999                0.15493153                0.22657582
               6.98497099                7.00361996               66.09347545                0.01000000               -0.27053071               -0.28218817                0.17353660                2.26867079                0.16219614                0.31627980
               7.98297570                7.00897600               66.09731719                0.01000001               -0.12585585               -0.35120910                0.17833794                1.73368908                0.13532903                0.41669909
               8.98245387                7.00737173               66.10063539                0.01000005               -0.04368088               -0.32722285                0.18342471                0.95713652                0.07044523                0.45808587
               9.98210209                6.99732066               66.10322061                0.01000003               -0.03517876               -0.03020566                0.19076059                0.42381156                0.02330216                0.40449308
               0.01519842                7.98046536               66.06750007                1.00000000               -0.03286704               -0.03118549                0.10479021               -0.00031825               -0.00465340                0.01910609
               1.01486975                7.97328525               66.07109169                0.99999999               -0.03402399               -0.03436730                0.11358852               -0.00106191               -0.01092845               -0.00542167
               2.01451794                7.96611037               66.07455520                0.21855000               -0.03171948               -0.03384286                0.12316460               -0.01633046               -0.06833369                0.04855885
               3.01423536                7.95886450               66.07698417                0.01000001               -0.27020555               -0.41861611                0.09895513                1.04539263                0.02761476               -0.00205001
               4.00911383                7.96489194               66.08222053                0.01000000               -0.39344926               -1.00969278                0.14059379                2.15713184                0.18481410               -0.01959265
               5.00636637                7.97690240               66.08709435                0.01000000               -0.37971458               -0.35646497                0.15587128                2.45363020                0.20935357                0.08881795
               6.00151953                7.99118657               66.09213091                0.01000000               -0.43678168               -0.14142802                0.16703945                2.16955195                0.25592102                0.16974631
               6.99763074                8.00133661               66.09709285                0.01000001               -0.28231627               -0.16459344                0.17229701                1.67968362                0.30108733                0.25906556
               7.99587321                8.00634216               66.10210427                0.01000001               -0.11171616               -0.21595844                0.17407524                1.20925338                0.29121014                0.38195514
               8.99539641                8.00567617               66.10604977                0.01000000               -0.08341035               -0.12411130                0.17767358                0.73070518                0.18805484                0.62348909
               9.99420500                7.99870281               66.10870030                0.01000002               -0.11914129                0.32172953                0.18493821                0.40792359                0.11239153                0.43603253
               0.02239038                8.98014932               66.06841514                1.00000000               -0.03391172               -0.03204658                0.10788728               -0.00016933                0.00018628                0.01873668
               1.02205126                8.97294099               66.07191914                0.99999999               -0.03550074               -0.03461781                0.11598155               -0.00079607               -0.00017829                0.00125323
               2.02168036                8.96573863               66.07542099                0.99999999               -0.03854528               -0.03709507                0.12389914               -0.00253175               -0.00056489               -0.00548667
               3.02128035                8.95852356               66.07892337                0.91141513               -0.03878413               -0.03548216                0.12562281               -0.00906500                0.00317510                0.04237124
               4.02090468                8.95129797               66.08250418                0.01000000               -0.32089943               -0.69718975                0.12378916                1.75955283                0.14012861               -0.05020838
               5.01486237                8.97470841               66.08869850                0.01000000               -0.67807636               -0.01566858                0.15527999                2.06646714                0.30070642                0.03663418
               6.00734315                8.99076229               66.09432350                0.01000001               -0.57266427                0.01071468                0.16795972                1.31357101                0.32820321                0.08924044
               7.00340908                9.00032809               66.09992509                0.01000002               -0.22609689               -0.08837178                0.17370925                0.87907060                0.40204027                0.14530046
               8.00282121                9.00465683               66.10576339                0.01000004                0.06491212               -0.18046325                0.17314971                0.59254219                0.60018929                0.23920132
               9.00470732                9.00488950               66.11377984                1.00000000                0.06930255               -0.06402811                0.15938810                0.47953047                0.39687656                0.38976773
              10.00420727                9.00375525               66.11379672                1.00000000               -0.05000572                0.22526785                0.17534600                0.44370858               -0.00272112                0.25225960
               0.02961170                9.97982443               66.06925504                1.00000000               -0.03471744               -0.03248944                0.11021399               -0.00102180                0.01360984                0.01444343
               1.02926452                9.97259289               66.07276197                0.99999997               -0.03634830               -0.03480982                0.11815482               -0.00147182                0.01698932                0.00197817
               2.02888473                9.96536847               66.07634828                0.99999998               -0.03849056               -0.03701573                0.12611496               -0.00146477                0.02379753               -0.00209630
               3.02849471                9.95815486               66.08000697                0.99999994               -0.03823488               -0.03687004                0.12859853                0.00041923                0.02666541                0.00176488
               4.02812003                9.95094814               66.08365574                0.01329968               -1.01316598               -0.03498308                0.12695631                1.64324384                0.16083062               -0.00229152
               5.00823139                9.97658903               66.08996202                0.01000001               -1.29743789                0.18806218                0.15972465                1.35953887                0.31548258               -0.00499500
               6.00217128                9.99140087               66.09583291                0.01000001               -0.34568910                0.06385732                0.17577488                0.63181929                0.34172002                0.03348330
               7.00131761                9.99956917               66.10154942                0.01000000                0.04956802               -0.07589158                0.18265354                0.35745413                0.42475547                0.05990972
               8.00316264               10.00273289               66.10779955                0.01000000                0.22854965               -0.19239418                0.18001792                0.27546359                0.51419214                0.12365563
               9.00588860               10.00439560               66.11377663                0.99999999                0.10925193               -0.04939017                0.17165016                0.14189182                0.30163519                0.00362515
              10.00534767               10.00320817               66.11379351                0.99999996               -0.05409285               -0.05470853                0.18760810               -0.00470261                0.00324339               -0.00324319
              -0.07597820               -0.00812857               67.05220719                1.00000000               -0.02302934               -0.02439611                0.07710637                0.00127106               -0.00797547                0.00766186
               0.92379151               -0.01224049               67.05575628                0.99999999               -0.02299719               -0.02436414                0.07704579                0.00002951               -0.00861993               -0.00151623
               1.92356186               -0.01632576               67.05929281                0.01000001                0.13954523               -0.02433175                0.07698519                0.20109301               -0.01186742               -0.00349675
               2.92658241               -0.01636129               67.06277221                0.01000000                0.23904648               -0.07934783                0.08044428                0.16434252               -0.03543849                0.03987259
               3.92834279               -0.01376443               67.06554729                0.01000001                0.10384555               -0.03139010                0.08567546                0.19892975               -0.11443798                0.04451667
               4.92865932               -0.00715866               67.06743368                0.01000000               -0.12106146                0.01558900                0.09108517                0.32536305               -0.20024605                0.04480098
               5.92592156                0.00423646               67.06847543                0.01000000               -0.61844597                0.12262748                0.09401739                0.72955345               -0.27145588                0.02820821
               6.91629040                0.02233378               67.06877074                0.97225854               -0.49491943               -0.03091265                0.09045974                0.78532497               -0.14146785               -0.00151205
               7.91602317                0.02480265               67.07190208                1.00000000               -0.02663730               -0.03069232                0.08972336                0.00000807                0.00058015               -0.00023895
               8.91575766                0.02734966               67.07503772                1.00000000               -0.02642591               -0.03044774                0.08886191                0.00004342                0.00081210                0.00108638
               9.91549465                0.02997383               67.07816907                1.00000000               -0.02630071               -0.03026348                0.08824814               -0.00400234                0.00106244                0.00239595
              -0.07185357                0.99162747               67.05353004                1.00000000               -0.02560359               -0.02561398                0.08537264                0.00129022                0.00144023                0.00811979
               0.92789040                0.98751587               67.05708078                0.01000000               -0.02566252               -0.02558837                0.08531269                0.00004920                0.00427337               -0.00443119
               1.92763318                0.98343092               67.06069012                0.01000000               -0.04726124               -0.01604028                0.08525224                0.16071284                0.01165679                0.04796217
               2.92694517                0.98284524               67.06438548                0.01000000               -0.09512064               -0.04682036                0.08997391                0.29866707               -0.02715732                0.07070462
               3.92573077                0.98592166               67.06717083                0.01000000               -0.20163332               -0.01364831                0.09641403                0.46301252               -0.10082994                0.07823575
               4.92291251                0.99299723               67.06920708                0.01000000               -0.36299506                0.02668275                0.10389790                0.71063416               -0.17156407                0.08019767
               5.91847087                1.00546273               67.07037292                0.01000001               -0.45259746                0.00430211                0.11094916                1.04705623               -0.24227282                0.06905908
               6.91386056                1.02202465               67.07080105                0.85718498               -0.24777810               -0.03454529                0.11517111                0.70852478               -0.13475970               -0.00211519
               7.91351531                1.02449572               67.07394079                0.99999994               -0.03440284               -0.03435849                0.11460537                0.00016098                0.00069784               -0.00006971
               8.91317250                1.02704519               67.07708248                1.00000000               -0.03424221               -0.03416921                0.11403636                0.00008936                0.00041699                0.00189983
               9.91283046                1.02967119               67.08021737                1.00000000               -0.03420374               -0.03396997                0.11347722               -0.00379206                0.00020964                0.00401111
              -0.06772919                1.99135915               67.05486603                0.01000000               -0.02817722                0.08300879                0.09363803                0.13200102                0.00329868                0.10917155
               0.93198904                1.98724774               67.05834561                0.01000000               -0.04120336               -0.05070536                0.09357916                0.12058739                0.06735617                0.11058481
               1.93144675                1.98335343               67.06310991                0.01000001               -0.09620149               -0.05550914                0.09429641                0.28625900                0.05995110                0.13016557
               2.93006501                1.98270231               67.06656878                0.01000000               -0.19978508               -0.05147372                0.09886044                0.61079871               -0.03176032                0.12539956
               3.92745104                1.98596260               67.06945042                0.01000000               -0.33670358               -0.02368151                0.10633561                0.93656104               -0.08254987                0.13373426
               4.92333094                1.99337499               67.07166872                0.01000001               -0.48078941               -0.00602524                0.11575677                1.24351697               -0.14133838                0.14228396
               5.91783526                2.00432250               67.07313406                0.01000000               -0.59515155               -0.08941892                0.12605157                1.66626143               -0.25877358                0.15125176
               6.91142791                2.02164288               67.07282303                0.01000000               -0.34146991               -0.38843457                0.13960475                1.18581890               -0.17128741                0.16088084
               7.91100586                2.02411548               67.07598229                0.42425802               -0.04219659               -0.04174363                0.13951178                0.00001136                0.00159140                0.00627691
               8.91058398                2.02666628               67.07913839                0.99999999               -0.04195295               -0.04167937                0.13927769                0.00000235                0.00067281                0.00229713
               9.91016680                2.02929443               67.08228792                0.99999999               -0.04171778               -0.04143562                0.13860085               -0.00386011                0.00014959                0.00455928
              -0.06099072                2.99328765               67.05821549                0.01000000               -0.07014123                0.15819040                0.08878768                0.12598552                0.02464179                0.19678084
               0.93830787                2.98650176               67.06197030                0.01000000               -0.05527394               -0.10917304                0.10348185                0.25763674                0.01457750                0.20354915
               1.93790380                2.98232074               67.06567959                0.01000000               -0.08779413               -0.16784443                0.10177553                0.59240245               -0.00144544                0.16091275
               2.93655198                2.98181576               67.06915215                0.01000000               -0.20572468               -0.15361381                0.10519282                1.00244715               -0.02621101                0.16059633
               3.93378931                2.98544803               67.07213208                0.01000001               -0.35645178               -0.11270886                0.11493460                1.40691774               -0.06176482                0.17048650
               4.92942295                2.99287672               67.07463004                0.01000000               -0.51305443               -0.09220084                0.12638475                1.77215832               -0.10411212                0.18816262
               5.92352822                3.00367435               67.07650479                0.01000001               -0.58194940               -0.14023262                0.13886502                1.94391349               -0.13810932                0.21570681
               6.91778396                3.01425596               67.07812068                0.01000000               -0.75180424               -0.48616240                0.15109479                1.85842769               -0.22962428                0.30293383
               7.90849213                3.02366085               67.07815188                0.01000001               -0.48951805               -0.24901609                0.16613844                1.08690930               -0.16178291                0.20252056
               8.90799360                3.02621160               67.08119179                0.16990558               -0.04975827               -0.04619834                0.16481655                0.00251703               -0.00685742                0.04799881
               9.90749697                3.02884248               67.08434096                0.99999999               -0.04966314               -0.04678102                0.16391587               -0.00445529               -0.00188050                0.05228317
              -0.05163770                3.99452296               67.06107013                0.01000000               -0.02536136                0.05249270                0.10693074                0.18887985                0.00234179                0.15195248
               0.94810868                3.98506428               67.06476740                0.01000000               -0.01907517               -0.22054027                0.09351206                0.45210809               -0.00332486                0.16128726
               1.94798079                3.97999655               67.06839265                0.01000000               -0.05610123               -0.30513879                0.09810616                0.93717317               -0.00982412                0.16663586
               2.94698666                3.97963003               67.07182976                0.01000001               -0.17261788               -0.29365985                0.10890014                1.41169106               -0.02107984                0.17231999
               3.94452844                3.98370842               67.07499810                0.01000000               -0.32194362               -0.24328299                0.12247033                1.85468521               -0.03669655                0.18840519
               4.94054779                3.99153098               67.07783739                0.01000001               -0.45970750               -0.19741032                0.13529647                2.19471199               -0.05537063                0.21350731
               5.93533429                4.00151785               67.08033405                0.01000001               -0.59689106               -0.22494075                0.14782848                2.39257730               -0.08548233                0.25212196
               6.92860996                4.01191963               67.08234048                0.01000003               -0.72729387               -0.25800497                0.16074498                2.28214671               -0.11550377                0.28506028
               7.92078841                4.01913515               67.08412931                0.01000156               -1.15786385               -0.33235015                0.17339156                2.26517146               -0.21829694                0.37521877
               8.90545269                4.02574231               67.08416958                0.01000000               -0.79862384               -0.34944575                0.19704041                1.92306560               -0.15733217                0.30977328
               9.90481593                4.02835881               67.08736585                0.01000000               -0.06367563               -1.17844634                0.19569773                1.85789410               -0.00318205                0.28761596
              -0.03829576                4.99433750               67.06342783                0.01000003                0.01722077               -0.18226351                0.12526997                0.34122948                0.00126100                0.12063139
               0.96187644                4.98209096               67.06715334                0.01000000                0.01886387               -0.37617677                0.10017769                0.74350370               -0.00417766                0.12553048
               1.96208151                4.97621796               67.07084285                0.01000001               -0.04012578               -0.44649454                0.09913805                1.27472605               -0.00838877                0.14216957
               2.96107393                4.97594256               67.07439536                0.01000000               -0.15497245               -0.44328314                0.11640882                1.79252845               -0.01266801                0.15755512
               3.95898206                4.98058237               67.07780710                0.01000001               -0.27830822               -0.37105623                0.13020694                2.20118594               -0.00986335                0.18324504
               4.95550776                4.98892852               67.08106363                0.01000001               -0.39954756               -0.31191284                0.14336127                2.52445747               -0.00877076                0.21546539
               5.95099111                4.99917554               67.08408086                0.01000001               -0.48490885               -0.27128053                0.15420742                2.67709499               -0.01737076                0.25844478
               6.94580959                5.00909586               67.08681878                0.01000001               -0.55091177               -0.29409408                0.16492843                2.70658444               -0.04387834                0.31284702
               7.93997288                5.01701385               67.08912220                0.01000000               -0.42891636               -0.34092755                0.17661635                2.57946894               -0.06320398                0.36023759
               8.93723126                5.01922268               67.09147185                0.01000000               -0.02755080               -0.73937188                0.18590802                2.23157842               -0.05756017                0.47677781
               9.93942186                5.00527355               67.09409213                0.01000003                0.21906024               -1.53259870                0.19191714                1.50196364               -0.05692657                0.43960104
              -0.02032002                5.99087769               67.06555777                0.01000000                0.14183163               -0.71295518                0.13430952                0.79168161               -0.02648513                0.12288471
               0.98109830                5.97754075               67.06912106                0.01000001               -0.00281370               -0.46513110                0.10463013                1.11051332               -0.03019312                0.12819816
               1.97962371                5.97106665               67.07280186                0.01000000               -0.13127394               -0.54632065                0.12478377                1.75661756               -0.02886726                0.04207496
               2.97847282                5.97076437               67.07649661                0.01000001               -0.20287519               -0.50185011                0.12700990                1.98925075               -0.00455196                0.11271438
               3.97556620                5.97628730               67.08033775                0.01000001               -0.30145224               -0.50198776                0.14328354                2.39821449                0.02566204                0.14184296
               4.97244377                5.98529272               67.08406255                0.01000001               -0.34286810               -0.39900287                0.15006463                2.66742399                0.04730838                0.19029351
               5.96870884                5.99609224               67.08768981                0.01000124               -0.37702134               -0.32060967                0.15822621                2.77194175                0.05794059                0.24903555
               6.96490335                6.00603775               67.09110119                0.01000000               -0.32289357               -0.31186302                0.16626322                2.64822841                0.05058336                0.31563915
               7.96225097                6.01231660               67.09424761                0.01000000               -0.15393967               -0.43843420                0.17405768                2.28250244                0.02786777                0.38322103
               8.96182455                6.01095487               67.09711912                0.01000000                0.02512498               -0.63668895                0.18141004                1.41610315                0.00390379                0.41284247
               9.96275347                5.99770683               67.09993289                0.01000000                0.09289159               -0.46540132                0.18770997                0.68937635               -0.00895907                0.38280043
               0.00421176                6.98007840               67.06767858                0.99960736               -0.03140128               -0.55531782                0.10127096                0.86294909               -0.00570274                0.07871286
               1.00389775                6.97278833               67.07148275                0.05369910               -0.01107585               -0.25446474                0.10888611                0.76536162               -0.11297323                0.06956089
               2.00399024                6.96529155               67.07312810                0.01000001               -0.41297230               -0.29627452                0.07355749                1.21698924               -0.05909443                0.04516836
               2.99563830                6.96590556               67.07804909                0.01000000               -0.57861201               -0.65193579                0.16027790                1.87146236                0.06014989               -0.01690531
               3.99241800                6.97054262               67.08225590                0.01000001               -0.32934976               -0.62295201                0.14754272                2.26644267                0.07688436                0.07149189
               4.98905130                6.98094846               67.08665220                0.01000001               -0.33665398               -0.46755185                0.15423961                2.66106927                0.12378387                0.13714172
               5.98568492                6.99276334               67.09096490                0.01000000               -0.32507589               -0.28849292                0.16022190                2.61081829                0.14938025                0.21576964
               6.98254979                7.00285860               67.09517249                0.01000000               -0.24895621               -0.27061032                0.16556596                2.30881237                0.15777097                0.30012041
               7.98070580                7.00824516               67.09906576                0.01000000               -0.11933468               -0.32287613                0.17115095                1.78149727                0.13162107                0.39670707
               8.98016309                7.00648890               67.10244050                0.01000001               -0.05001622               -0.28440272                0.17738878                0.99079880                0.06815229                0.43778415
               9.97970547                6.99596553               67.10510529                0.01000003               -0.04576201                0.00045760                0.18574416                0.44078470                0.02199376                0.38795020
               0.01151909                7.97977133               67.06854988                1.00000000               -0.03267152               -0.03127323                0.10480073               -0.00002469               -0.00415824                0.02041267
               1.01119238                7.97245145               67.07222231                0.99999998               -0.03364147               -0.03396996                0.11238849               -0.00086254               -0.00993006               -0.00504413
               2.01084626                7.96514116               67.07577360                0.14340994               -0.02706903               -0.02591594                0.12106609               -0.02872117               -0.08478487                0.07782629
               3.01065099                7.95772565               67.07794193                0.01000001               -0.24970521               -0.42383523                0.08738313                1.03976997                0.03365913               -0.01256023
               4.00585216                7.96382826               67.08363314                0.01000002               -0.36032815               -1.02240827                0.13939413                2.15848163                0.20329472               -0.04243158
               5.00344443                7.97594168               67.08862440                0.01000000               -0.34185476               -0.36767320                0.15441213                2.46679749                0.20395010                0.08075168
               5.99901506                7.99032238               67.09377279                0.01000000               -0.39233289               -0.15115662                0.16027896                2.19756293                0.25004963                0.15747294
               6.99559777                8.00062554               67.09877913                0.01000000               -0.23822245               -0.16907319                0.16488611                1.73172920                0.29217385                0.24409196
               7.99425061                8.00585908               67.10381199                0.01000002               -0.08388044               -0.20593455                0.16728601                1.28820659                0.28231289                0.36353594
               8.99392017                8.00526682               67.10780086                0.01000001               -0.08173468               -0.08132342                0.17234486                0.81367309                0.18164912                0.59728706
               9.99261592                7.99771598               67.11053333                0.01000002               -0.13042460                0.38522174                0.18133191                0.46381312                0.10742165                0.41741662
               0.01885103                8.97945293               67.06950061                1.00000000               -0.03403673               -0.03240721                0.10885413                0.00005138                0.00067346                0.02007389
               1.01851067                8.97210893               67.07307839                0.99999999               -0.03547079               -0.03461688                0.11597479               -0.00077098                0.00084338                0.00154560
               2.01814162                8.96477323               67.07665985                0.99999998               -0.03820296               -0.03682817                0.12288231               -0.00251036               -0.00455565               -0.00609133
               3.01774661                8.95742886               67.08011830                0.84256055               -0.03850070               -0.03316179                0.12433541               -0.01242244               -0.00969881                0.05374878
               4.01737160                8.95009445               67.08357565                0.01000000               -0.29267360               -0.70465130                0.12361956                1.75028728                0.14972005               -0.06529364
               5.01189313                8.97359500               67.09025042                0.01000000               -0.62096394               -0.03535547                0.15074287                2.07218956                0.31603466                0.03087992
               6.00495232                8.98974021               67.09596832                0.01000000               -0.51227333               -0.00802567                0.16176473                1.33057678                0.32323456                0.08041191
               7.00164767                8.99947714               67.10162968                0.01000002               -0.15618375               -0.10765347                0.16697201                0.91546575                0.39176163                0.13563989
               8.00182865                9.00412647               67.10746702                0.01000156                0.14659923               -0.19968908                0.16742229                0.66264557                0.57929790                0.22737497
               9.00457965                9.00486244               67.11536019                0.99999997                0.11273794               -0.04465351                0.15667903                0.57257558                0.38195421                0.37452594
              10.00408341                9.00366996               67.11555229                1.00000000               -0.04962442                0.27008361                0.17576766                0.51412870               -0.00271788                0.24168729
               0.02620812                9.97912319               67.07036902                1.00000000               -0.03514594               -0.03297430                0.11218279               -0.00069926                0.01467561                0.01553484
               1.02585666                9.97175911               67.07394743                0.99999999               -0.03659934               -0.03498209                0.11914455               -0.00133023                0.01904222                0.00190875
               2.02547613                9.96440460               67.07761906                0.99999997               -0.03876668               -0.03686308                0.12607749               -0.00138349                0.02130225               -0.00250141
               3.02508132                9.95706242               67.08123209                0.99999994               -0.03921831               -0.03664416                0.12810761                0.00000332                0.01452178               -0.00083417
               4.02469176                9.94973523               67.08476226                0.01449544               -0.99194296               -0.03592226                0.12822416                1.64062403                0.17141856               -0.00745878
               5.00524246                9.97523457               67.09155518                0.01000001               -1.24736552                0.16395774                0.15467323                1.35626472                0.33604687               -0.00890628
               5.99974445                9.99016186               67.09755524                0.01000001               -0.28608176                0.04216517                0.16949477                0.64110779                0.34134130                0.02850749
               6.99952083                9.99847247               67.10334422                0.01000000                0.11868873               -0.10046699                0.17621801                0.37248797                0.41456032                0.05471927
               8.00211823               10.00186530               67.10957664                0.01000002                0.31536796               -0.22611729                0.17526499                0.32402194                0.49454584                0.11714866
               9.00582819               10.00437375               67.11549104                1.00000000                0.15826080               -0.04886860                0.17122975                0.18747153                0.28973870                0.00362395
              10.00528344               10.00311766               67.11568312                1.00000000               -0.05447444               -0.05523042                0.19031841               -0.00560571                0.00324128               -0.00324120
              -0.07960674               -0.00941613               68.05298077                1.00000000               -0.02304659               -0.02459512                0.07760877                0.00117756               -0.00797427                0.00766017
               0.92016280               -0.01362149               68.05652496                1.00000000               -0.02288755               -0.02429566                0.07669138               -0.00010333               -0.00861997               -0.00151569
               1.91993551               -0.01779938               68.06005660                0.01000001                0.14654832               -0.02399662                0.07577461                0.21606275               -0.01046950               -0.00349775
               2.92309376               -0.01762462               68.06355909                0.01000001                0.24609456               -0.07702620                0.07710664                0.17364578               -0.03271180                0.03898027
               3.92485740               -0.01499961               68.06637857                0.01000000                0.10421049               -0.03050369                0.08127445                0.19877428               -0.11106052                0.04342753
               4.92517797               -0.00855403               68.06831694                0.01000001               -0.11664834                0.01643375                0.08684013                0.31805752               -0.19805448                0.04341174
               5.92252444                0.00252889               68.06939445                0.01000000               -0.60065580                0.11982601                0.09118699                0.70875618               -0.27254517                0.02678376
               6.91316486                0.02016395               68.06967643                0.97365883               -0.48134812               -0.03111103                0.09085291                0.76211565               -0.14186188               -0.00168819
               7.91289747                0.02263649               68.07279686                1.00000000               -0.02655105               -0.03066899                0.08936588                0.00001263                0.00007096               -0.00034965
               8.91263384                0.02518971               68.07591990                1.00000000               -0.02610908               -0.03017846                0.08761175                0.00002447                0.00021087                0.00102629
               9.91237529                0.02782195               68.07904174                1.00000000               -0.02585442               -0.02971989                0.08630473               -0.00425758                0.00051717                0.00188336
              -0.07538960                0.99033792               68.05438755                1.00000000               -0.02570075               -0.02585305                0.08612808                0.00132576                0.00143980                0.00811850
               0.92435339                0.98613556               68.05793340                0.01000000               -0.02563465               -0.02555057                0.08521166                0.00004446                0.00427282               -0.00442999
               1.92409771                0.98196065               68.06153786                0.01000000               -0.04615262               -0.00448698                0.08429303                0.17291357                0.01361300                0.04786749
               2.92343034                0.98160512               68.06526744                0.01000000               -0.08939251               -0.04287913                0.08627164                0.31094067               -0.02251843                0.06914475
               3.92230985                0.98469535               68.06811393                0.01000000               -0.19180194               -0.01206174                0.09227395                0.46159716               -0.09329821                0.07564008
               4.91959430                0.99161031               68.07022702                0.01000000               -0.35284237                0.02855656                0.10034497                0.69692108               -0.16329730                0.07733578
               5.91525301                1.00372715               68.07147038                0.01000001               -0.44310436                0.00756723                0.10892465                1.01974729               -0.23473327                0.06526035
               6.91073221                1.01985284               68.07195763                0.84844142               -0.24341439               -0.03480629                0.11606503                0.68663571               -0.13123210               -0.00249079
               7.91038472                1.02232980               68.07508864                0.99999994               -0.03454296               -0.03442985                0.11497258                0.00029768                0.00082312               -0.00015276
               8.91004135                1.02488793               68.07822154                1.00000000               -0.03421194               -0.03404085                0.11377476                0.00014039                0.00048062                0.00195643
               9.90970048                1.02752475               68.08134756                0.99999997               -0.03408721               -0.03349696                0.11246410               -0.00396412                0.00022364                0.00353631
              -0.07117549                1.99006681               68.05580745                0.01038520               -0.02835532                0.09147085                0.09464760                0.12189639                0.00329884                0.10024951
               0.92854095                1.98586750               68.05928218                0.01000000               -0.04501440               -0.04792797                0.09373436                0.11832921                0.06726004                0.11482804
               1.92792422                1.98211088               68.06403971                0.01000001               -0.09815366               -0.03641863                0.08949944                0.29143123                0.05567740                0.13252506
               2.92657788                1.98151780               68.06753023                0.01000000               -0.19200279               -0.04434659                0.09299451                0.61532251               -0.02478842                0.11865811
               3.92408416                1.98475915               68.07048414                0.01000000               -0.32466408               -0.01877379                0.10055184                0.93230222               -0.07104483                0.12889252
               4.92008460                1.99201710               68.07280203                0.01000001               -0.47036579                0.00004999                0.11086828                1.22685994               -0.12818526                0.13773699
               5.91467685                2.00268023               68.07437976                0.01000000               -0.58948409               -0.07884652                0.12295199                1.63053165               -0.24330875                0.14598149
               6.90829492                2.01946783               68.07422687                0.01000000               -0.34042538               -0.37150214                0.14075074                1.16035122               -0.16225081                0.15298016
               7.90786834                2.02194790               68.07738369                0.43483466               -0.04266107               -0.04208097                0.14062854               -0.00000986                0.00258882                0.00772338
               8.90744170                2.02450890               68.08053516                0.99999999               -0.04229869               -0.04187822                0.14008643               -0.00017424                0.00113387                0.00273224
               9.90702237                2.02715201               68.08367387                0.99999999               -0.04193296               -0.04118141                0.13834854               -0.00409485                0.00027113                0.00446268
              -0.06455306                2.99216734               68.05906239                0.01000000               -0.07710384                0.16324699                0.11589690                0.09454367               -0.03623357                0.13005661
               0.93467591                2.98517700               68.06307560                0.01000000               -0.05854566               -0.09460924                0.10295257                0.24853742               -0.04396600                0.22493596
               1.93427603                2.98123228               68.06669399                0.01000000               -0.07936946               -0.15623951                0.09323322                0.60186124               -0.00977276                0.14119293
               2.93308852                2.98071819               68.07016254                0.01000000               -0.19097146               -0.14243225                0.09724448                1.00245917               -0.01416273                0.14968023
               3.93045660                2.98431987               68.07324055                0.01000001               -0.34390484               -0.10224735                0.10718141                1.39998544               -0.04480349                0.16441664
               4.92621042                2.99161131               68.07585878                0.01000000               -0.50218435               -0.08087399                0.11940020                1.75415840               -0.08737283                0.18321264
               5.92041291                3.00215022               68.07786942                0.01000001               -0.57694230               -0.12498554                0.13372096                1.91825965               -0.12155282                0.20856225
               6.91467157                3.01242280               68.07962170                0.01000000               -0.75347315               -0.45698550                0.14932283                1.83016751               -0.21117414                0.29085398
               7.90534345                3.02148818               68.07983485                0.01000000               -0.49189103               -0.23280212                0.17072376                1.07264268               -0.15221032                0.19440531
               8.90483375                3.02405036               68.08285018                0.19359434               -0.05055479               -0.04657248                0.16706366                0.00154886               -0.00752096                0.05370571
               9.90433236                3.02670112               68.08598509                0.99999999               -0.05013972               -0.04564400                0.16462156               -0.00648553               -0.00210451                0.05728708
              -0.05530394                3.99333175               68.06222284                0.01000000               -0.02493025                0.05365684                0.10547622                0.19630756               -0.01010239                0.16121284
               0.94444676                3.98397532               68.06569811                0.01000000               -0.01379053               -0.20441978                0.08823072                0.46200581                0.00124572                0.13309946
               1.94442025                3.97898609               68.06935562                0.01000000               -0.04536444               -0.29186444                0.09097616                0.94696742                0.01596016                0.14289981
               2.94353947                3.97866916               68.07287474                0.01000001               -0.16147472               -0.27541785                0.09985378                1.40823482                0.00452280                0.16414152
               3.94119076                3.98271421               68.07617678                0.01000000               -0.31010225               -0.22848003                0.11319277                1.84150060               -0.01432649                0.18564883
               4.93733743                3.99039962               68.07914577                0.01000001               -0.44801045               -0.18356115                0.12654652                2.17627338               -0.03878239                0.21053194
               5.93223055                4.00018052               68.08177622                0.01000001               -0.58885618               -0.20646146                0.14035527                2.37201043               -0.07023194                0.24405649
               6.92556030                4.01032812               68.08392824                0.01000007               -0.72684605               -0.23312555                0.15598739                2.26382448               -0.09952292                0.27177383
               7.91769363                4.01729185               68.08586780                0.01000001               -1.16502844               -0.30158633                0.17407576                2.24551082               -0.19395177                0.35636641
               8.90225973                4.02357745               68.08619007                0.01000000               -0.80512440               -0.33203188                0.20921365                1.91368812               -0.14092826                0.29503033
               9.90159114                4.02623913               68.08936122                0.01000001               -0.06685940               -1.17063302                0.20354180                1.86034004               -0.00524033                0.27627971
              -0.04191404                4.99324047               68.06470740                0.01000001                0.01757199               -0.17250341                0.13930390                0.34430155                0.00757301                0.12164008
               0.95826168                4.98108860               68.06821794                0.01000000                0.02177888               -0.36884578                0.10069928                0.74037477                0.01921832                0.11830365
               1.95852154                4.97539499               68.07183021                0.01000001               -0.03682927               -0.42148330                0.09206653                1.26032005                0.02345496                0.15276501
               2.95752510                4.97520983               68.07554372                0.01000000               -0.14826950               -0.42287600                0.10629617                1.76840588                0.02278101                0.16848813
               3.95555615                4.97975027               68.07906576                0.01000001               -0.26277627               -0.35931897                0.12031067                2.17447704                0.00567869                0.19606365
               4.95226957                4.98794008               68.08245184                0.01000001               -0.38157615               -0.30086283                0.13371968                2.50610004                0.00255193                0.21577421
               5.94792463                4.99802099               68.08557955                0.01000001               -0.47164202               -0.25475668                0.14522377                2.66590034               -0.00824776                0.25076048
               6.94283673                5.00776029               68.08843519                0.01000001               -0.54601456               -0.26943367                0.15769677                2.69857533               -0.03345483                0.29762127
               7.93700434                5.01545646               68.09087493                0.01000000               -0.43382471               -0.31023301                0.17279936                2.57232189               -0.05238049                0.33866120
               8.93416024                5.01740973               68.09333485                0.01000000               -0.03942736               -0.70343121                0.18526372                2.22817080               -0.05002229                0.44390231
               9.93621579                5.00328846               68.09602045                0.01000002                0.20555515               -1.51446800                0.19227605                1.49931286               -0.05204199                0.41321328
              -0.02411416                5.98988168               68.06689947                0.01000001                0.12138981               -0.69426440                0.15625520                0.78308012               -0.03818390                0.09139070
               0.97709974                5.97659840               68.07020675                0.01000001               -0.01902089               -0.45851491                0.11466052                1.12107927               -0.02639693                0.10165515
               1.97550542                5.97055642               68.07424487                0.01000000               -0.12737154               -0.55239409                0.11458866                1.74648449                0.02523498                0.07615516
               2.97455231                5.97021164               68.07778957                0.01000001               -0.17776864               -0.50486885                0.12038120                1.93377807               -0.03321110                0.19883486
               3.97195005                5.97552783               68.08176051                0.01000001               -0.26817967               -0.50620004                0.13495945                2.36745506                0.02127614                0.16033816
               4.96918871                5.98438236               68.08552126                0.01000001               -0.31108491               -0.39606957                0.14017418                2.65695383                0.04415646                0.19404859
               5.96572835                5.99508539               68.08922864                0.01000001               -0.35461864               -0.30988561                0.14910544                2.77430406                0.05850067                0.24109126
               6.96209634                6.00493944               68.09272426                0.01000000               -0.31188626               -0.29079268                0.15782365                2.65953085                0.05266341                0.29982749
               7.95949062                6.01108719               68.09595661                0.01000000               -0.15525987               -0.40553450                0.16701677                2.29525789                0.03049055                0.36145200
               8.95899114                6.00950882               68.09891085                0.01000007                0.01646501               -0.59820249                0.17571944                1.42398682                0.00573847                0.38927631
               9.95981992                5.99594977               68.10179031                0.01000000                0.08287825               -0.44046182                0.18214730                0.69392500               -0.00803213                0.36309204
               0.00031413                6.97935519               68.06868377                0.99818827               -0.03056009               -0.54150471                0.09936149                0.85053898               -0.00546825                0.06044888
               1.00000853                6.97191830               68.07255642                0.01000004               -0.02380658               -0.25048392                0.10587950                0.76698048               -0.12579610                0.06772218
               1.99983799                6.96434711               68.07401009                0.01000003               -0.43896348               -0.32106393                0.14306725                1.23956752               -0.43468765                0.27700460
               2.99122926                6.96511246               68.07991720                0.01000000               -0.55517352               -0.68337716                0.17327346                1.88879264               -0.00969654               -0.02179497
               3.98873452                6.96962627               68.08372598                0.01000007               -0.26890846               -0.64021361                0.14038184                2.27267176                0.03020567                0.08534238
               4.98585109                6.98001869               68.08816989                0.01000028               -0.29404478               -0.47315743                0.14871334                2.66570104                0.10874722                0.13908710
               5.98285363                6.99182328               68.09253002                0.01000000               -0.29127719               -0.28763907                0.15144859                2.62815980                0.14198356                0.20539326
               6.98002554                7.00194443               68.09678677                0.01000000               -0.22567583               -0.25890906                0.15703982                2.34305810                0.15313337                0.28410825
               7.97834011                7.00734577               68.10074020                0.01000007               -0.11240741               -0.29377862                0.16346755                1.82541750                0.12835876                0.37612911
               8.97777739                7.00544568               68.10418316                0.01000000               -0.05638600               -0.24033018                0.17079983                1.02251858                0.06629890                0.41688365
               9.97721239                6.99447923               68.10693550                0.01000000               -0.05650026                0.03271880                0.17978477                0.45678341                0.02113296                0.37195673
               0.00777038                7.97905159               68.06959609                1.00000000               -0.03229622               -0.03117644                0.10416208                0.00042106               -0.00364936                0.02134259
               1.00744742                7.97158872               68.07333946                0.99999998               -0.03338829               -0.03357580                0.11117534               -0.00080406               -0.00870827               -0.00431827
               2.00710262                7.96413515               68.07697652                0.07559572               -0.01992134               -0.02878837                0.11956462               -0.01666410               -0.10787447                0.09082453
               3.00704900                7.95654409               68.07873183                0.01000001               -0.23026853               -0.44020362                0.07136353                1.07648615                0.04056045               -0.04835696
               4.00249725                7.96272355               68.08500841                0.01000003               -0.33716321               -1.03816446                0.16180885                2.17037780                0.19741938               -0.03662357
               5.00030573                7.97491921               68.09018259                0.01000000               -0.30657224               -0.38117309                0.14942352                2.47741790                0.19193029                0.06930773
               5.99636580                7.98933261               68.09533649                0.01000000               -0.34353600               -0.16175999                0.15278769                2.22085016                0.23860340                0.14620274
               6.99343501                7.99976126               68.10039057                0.01000007               -0.19340362               -0.17343187                0.15701173                1.77995437                0.28284017                0.22958217
               7.99249773                8.00521162               68.10544999                0.01000001               -0.05634787               -0.19530441                0.16025744                1.36387528                0.27296471                0.34520359
               8.99230805                8.00470222               68.10949667                0.01000001               -0.08046178               -0.03779144                0.16676364                0.89381359                0.17517128                0.57167413
               9.99088850                7.99660415               68.11232694                0.01000002               -0.14195587                0.44799910                0.17729138                0.51800910                0.10281026                0.40111506
               0.01524828                8.97873166               68.07059222                0.99999998               -0.03393913               -0.03266480                0.10929098                0.00041375                0.00126865                0.02097785
               1.01490889                8.97124679               68.07423864                0.99999999               -0.03494678               -0.03478650                0.11602537               -0.00062022                0.00106082                0.00186800
               2.01454934                8.96377134               68.07787864                0.99999997               -0.03691583               -0.03675630                0.12217628               -0.00074523               -0.00437340               -0.00773252
               3.01417057                8.95630838               68.08141008                0.86775987               -0.03911917               -0.03167462                0.12821325               -0.01577040               -0.00768625                0.07605691
               4.01376696                8.94886298               68.08497657                0.01000000               -0.26900888               -0.71488978                0.13584773                1.74074522                0.15217133               -0.06862232
               5.00879039                8.97239523               68.09171336                0.01000000               -0.56691870               -0.05589181                0.14651768                2.07893527                0.31417478                0.01828850
               6.00242859                8.98858808               68.09755880                0.01000000               -0.45223883               -0.02677152                0.15566276                1.34619156                0.31835072                0.07232831
               6.99974562                8.99847580               68.10326453                0.01000002               -0.08759632               -0.12633906                0.16000625                0.95020025                0.38013111                0.12645785
               8.00067666                9.00343968               68.10911183                0.01000001                0.22577618               -0.21775025                0.16152082                0.73115269                0.55834423                0.21579365
               9.00426114                9.00468985               68.11691342                1.00000000                0.15460299               -0.02479140                0.15396301                0.66341867                0.36704971                0.35954604
              10.00376872                9.00343921               68.11731207                1.00000000               -0.04924211                0.31387621                0.17619049                0.58192758               -0.00271428                0.23215152
               0.02274840                9.97839829               68.07149870                1.00000000               -0.03530677               -0.03333655                0.11343984               -0.00051771                0.01566989                0.01620747
               1.02239533                9.97089299               68.07514486                0.99999999               -0.03611413               -0.03537944                0.12008454               -0.00126906                0.01954628                0.00194231
               2.02202612                9.96340002               68.07886983                0.99999999               -0.03766932               -0.03713234                0.12597574               -0.00144210                0.02232622               -0.00359058
               3.02164195                9.95591060               68.08256912                0.99999999               -0.04004054               -0.03977829                0.13299417               -0.00157546                0.01852913               -0.00050530
               4.02122531                9.94842576               68.08622022                0.01983994               -0.97413005               -0.04372258                0.14118469                1.64037363                0.17493375               -0.00553381
               5.00215935                9.97380138               68.09305548                0.01000000               -1.20081198                0.14061488                0.15058239                1.35546613                0.34029533               -0.01400610
               5.99720907                9.98879718               68.09922281                0.01000001               -0.22859656                0.02091001                0.16375751                0.64970329                0.34176041                0.02380990
               6.99758741                9.99723448               68.10507378                0.01000000                0.18488323               -0.12413166                0.16979289                0.38715180                0.40358678                0.05004045
               8.00090673               10.00085662               68.11130485                0.01000002                0.39947414               -0.25830625                0.17045011                0.37160293                0.47614539                0.11113337
               9.00557690               10.00420639               68.11720123                1.00000000                0.20607976               -0.04834569                0.17080810                0.23282854                0.27850893                0.00362277
              10.00502833               10.00288167               68.11759987                0.99999999               -0.05485698               -0.05575369                0.19303560               -0.00651115                0.00323912               -0.00323890
              -0.08322607               -0.01078893               69.05375937                1.00000000               -0.02306587               -0.02479193                0.07811467                0.00108231               -0.00796870                0.00765189
               0.91654327               -0.01508769               69.05729010                1.00000000               -0.02277990               -0.02422574                0.07634095               -0.00023753               -0.00861610               -0.00151520
               1.91631833               -0.01935823               69.06080830                0.01000001                0.15314708               -0.02366094                0.07457090                0.22977445               -0.00961866               -0.00349735
               2.91960621               -0.01899836               69.06431434                0.01000000                0.25227001               -0.07446364                0.07439562                0.18083331               -0.03027664                0.03655503
               3.92136373               -0.01636661               69.06717278                0.01000001                0.10380680               -0.03044977                0.07868956                0.19853906               -0.10626088                0.04103437
               4.92168235               -0.01011058               69.06917048                0.01000000               -0.11262826                0.01694339                0.08561317                0.31011963               -0.19358520                0.04098110
               5.91911117                0.00062027               69.07029917                0.01000000               -0.58157956                0.11623649                0.09153224                0.68585270               -0.27115509                0.02449711
               6.91005076                0.01773762               69.07058780                0.97589520               -0.46650229               -0.03132249                0.09179204                0.73628132               -0.14100186               -0.00220811
               7.90978112                0.02021209               69.07368940                1.00000000               -0.02668785               -0.03062509                0.08944150                0.00013722               -0.00081082               -0.00063596
               8.90951700                0.02276689               69.07678996                1.00000000               -0.02599052               -0.02978442                0.08668350                0.00000796               -0.00089487                0.00077747
               9.90926131                0.02539985               69.07989516                1.00000000               -0.02556898               -0.02900695                0.08469748               -0.00454436               -0.00063964                0.00050075
              -0.07891648                0.98896315               69.05525260                1.00000000               -0.02579744               -0.02608883                0.08687923                0.00136017                0.00143716                0.00811422
               0.92082554                0.98467005               69.05878501                0.01000000               -0.02560538               -0.02550991                0.08510643                0.00003632                0.00426955               -0.00442619
               1.92057141                0.98040517               69.06237598                0.01000000               -0.04534043                0.01030132                0.08332715                0.17904319                0.01455186                0.04464731
               2.91991873                0.98025700               69.06611091                0.01000000               -0.08330911               -0.04106331                0.08254405                0.32211670               -0.01716982                0.06426949
               3.91890523                0.98332890               69.06901630                0.01000000               -0.18143146               -0.01097832                0.08842071                0.45982351               -0.08418530                0.07113707
               4.91629011                0.99005886               69.07121398                0.01000000               -0.34298173                0.03042730                0.09751851                0.68215025               -0.15272918                0.07265751
               5.91204559                1.00178263               69.07255141                0.01000001               -0.43362240                0.01114131                0.10781513                0.98993050               -0.22457172                0.05984557
               6.90761766                1.01742439               69.07312235                0.83720218               -0.23888695               -0.03496068                0.11676389                0.66257059               -0.12603905               -0.00345049
               7.90726785                1.01990584               69.07624024                0.99999998               -0.03472297               -0.03441757                0.11522398                0.00064411                0.00111911               -0.00024453
               8.90692320                1.02246905               69.07935798                1.00000000               -0.03424737               -0.03373052                0.11329285                0.00017062                0.00056051                0.00207240
               9.90658291                1.02510978               69.08246665                0.99999995               -0.03402914               -0.03268518                0.11109516               -0.00425225                0.00019809                0.00216084
              -0.07461266                1.98868930               69.05675898                0.03700951               -0.02853564                0.02551205                0.09565396                0.03001526                0.00329760                0.12190593
               0.92510198                1.98440211               69.06022030                0.01000000               -0.05375484               -0.00427519                0.09388710                0.05649538                0.06403142                0.11129631
               1.92431224                1.98084780               69.06489990                0.01000001               -0.09885850               -0.02882393                0.08314695                0.29141273                0.05752057                0.11956491
               2.92312481                1.98018037               69.06842867                0.01000000               -0.17769499               -0.03960707                0.08760412                0.61847307               -0.01394447                0.10911157
               3.92075834                1.98341383               69.07146146                0.01000000               -0.31266003               -0.01425863                0.09527541                0.93046805               -0.05746161                0.12138849
               4.91687161                1.99049797               69.07388609                0.01000001               -0.46070540                0.00691924                0.10601231                1.20928934               -0.11307946                0.13046899
               5.91154424                2.00084310               69.07559310                0.01000000               -0.58463266               -0.06667478                0.11942088                1.59145434               -0.22441510                0.13796600
               6.90517896                2.01703841               69.07563804                0.01000000               -0.33974451               -0.35263599                0.14068644                1.13290180               -0.15024866                0.14332520
               7.90474935                2.01952374               69.07879486                0.44512813               -0.04312455               -0.04204967                0.14156938                0.00027333                0.00468552                0.01102047
               8.90431647                2.02209228               69.08194012                0.99999999               -0.04272744               -0.04191212                0.14082212               -0.00039274                0.00207758                0.00408121
               9.90389480                2.02474615               69.08505489                0.99999999               -0.04216722               -0.04044554                0.13710311               -0.00450556                0.00050218                0.00387126
              -0.06974180                2.98947339               69.06053343                0.01000001               -0.04612527                0.17064570                0.09876989                0.30223308               -0.09592711                0.08306338
               0.92979695                2.98458455               69.06402935                0.01000000                0.01816023               -0.09090890                0.06853017                0.31270609               -0.07490488                0.20049979
               1.93062140                2.97982869               69.06754426                0.01000000               -0.00373885               -0.15647390                0.08207167                0.58457210                0.00139815                0.11911289
               2.92972217                2.97946486               69.07109704                0.01000000               -0.17122067               -0.13243453                0.09122437                1.01730886                0.00594817                0.13451807
               3.92719699                2.98304372               69.07427570                0.01000001               -0.33377728               -0.09088185                0.10116724                1.39724568               -0.02591239                0.15500812
               4.92304662                2.99019724               69.07701804                0.01000000               -0.49313743               -0.06747066                0.11291652                1.73532520               -0.06897603                0.17517438
               5.91733424                3.00044914               69.07917921                0.01000001               -0.57257879               -0.10771245                0.12744102                1.88886845               -0.10233526                0.19821042
               6.91159505                3.01037167               69.08110714                0.01000000               -0.75573996               -0.42483940                0.14609747                1.79823378               -0.18547850                0.27535845
               7.90221944                3.01906485               69.08156636                0.01000002               -0.49510566               -0.21506732                0.18017999                1.05786680               -0.13680161                0.18487282
               8.90169294                3.02163081               69.08453306                0.22098365               -0.05171890               -0.04670166                0.17040071                0.00301270               -0.00820004                0.06601527
               9.90118507                3.02430087               69.08763339                0.99999999               -0.05078703               -0.04485540                0.16435709               -0.00929257               -0.00215973                0.06567231
              -0.05879030                3.99210221               69.06317966                0.01000001               -0.02088869                0.13101406                0.09929732                0.27699318                0.00058618                0.14187638
               0.94100081                3.98258393               69.06653201                0.01000000               -0.00431638               -0.23180759                0.08292550                0.54785824                0.02483286                0.09145020
               1.94112337                3.97771832               69.07021217                0.01000000               -0.03724298               -0.27223378                0.08287574                0.97755868                0.05171888                0.11058843
               2.94025596                3.97753168               69.07382684                0.01000000               -0.15762492               -0.25336829                0.09461115                1.42248486                0.03703615                0.14580128
               3.93797088                3.98159619               69.07726196                0.01000000               -0.30416261               -0.20619011                0.10593197                1.83036993                0.01081247                0.17692263
               4.93417270                3.98914855               69.08036832                0.01000001               -0.44118521               -0.16643647                0.11891217                2.15455228               -0.01951553                0.20338329
               5.92914717                3.99868885               69.08314115                0.01000001               -0.58223879               -0.18554054                0.13248309                2.34508175               -0.05272129                0.23297667
               6.92252793                4.00854162               69.08546022                0.01000000               -0.72498109               -0.20596994                0.14945669                2.23918011               -0.07975076                0.25531515
               7.91464755                4.01522239               69.08761082                0.01000080               -1.16936138               -0.26832932                0.16932143                2.22113964               -0.15909359                0.33157103
               8.89914070                4.02115825               69.08835385                0.01000000               -0.81393665               -0.31254330                0.22925430                1.90095047               -0.11524206                0.28346189
               9.89836882                4.02384904               69.09143669                0.01000000               -0.07718830               -1.15960738                0.21730252                1.86031719               -0.00611719                0.26614592
              -0.04516538                4.99209368               69.06621390                0.01000001                0.03033757               -0.16865345                0.12134264                0.34007361                0.04431370                0.11705244
               0.95513800                4.97994839               69.06916732                0.01000000                0.01951029               -0.36742825                0.08175993                0.72572347                0.07615237                0.08789059
               1.95522483                4.97438401               69.07268418                0.01000001               -0.04219998               -0.36542216                0.08431786                1.29356530                0.08181993                0.11970181
               2.95429400                4.97439749               69.07652128                0.01000000               -0.15186579               -0.35820450                0.09323842                1.72864582                0.06876277                0.15844483
               3.95218751                4.97891992               69.08021332                0.01000001               -0.26244929               -0.33811765                0.11197262                2.13800908                0.03508911                0.19480396
               4.94904501                4.98686851               69.08373802                0.01000001               -0.36723498               -0.28464536                0.12416223                2.47522377                0.01958950                0.21169341
               5.94484281                4.99673833               69.08698534                0.01000001               -0.45999555               -0.23626295                0.13622629                2.64562238                0.00342404                0.24106507
               6.93984510                5.00625228               69.08997271                0.01000002               -0.54086055               -0.24294526                0.14903054                2.68303255               -0.02038910                0.28041398
               7.93402560                5.01369826               69.09257818                0.01000000               -0.43799023               -0.27710110                0.16606924                2.55771485               -0.03859680                0.31456782
               8.93108530                5.01537994               69.09517713                0.01000000               -0.05078876               -0.66330811                0.17890162                2.21876891               -0.03908889                0.40339070
               9.93300983                5.00110872               69.09793765                0.01000002                0.19245295               -1.48977086                0.18711442                1.49613289               -0.04248168                0.38325964
              -0.02769826                5.98872914               69.06868288                0.01000002                0.09232101               -0.67514609                0.24254535                0.72674532                0.00241598                0.05609610
               0.97322495                5.97523537               69.07141427                0.01000001                0.01219215               -0.44691623                0.11054334                1.12991189               -0.01002445                0.10303367
               1.97254558                5.97040988               69.07509363                0.01000000               -0.14659937               -0.31420092                0.06087696                1.39215533                0.07613127                0.09900411
               2.97029296                5.97036759               69.07890423                0.01000001               -0.21427718               -0.49350441                0.10704924                1.79292169                0.02689655                0.21906141
               3.96826004                5.97483384               69.08303694                0.01000001               -0.22170948               -0.49591805                0.11786811                2.28349838                0.04522864                0.17377555
               4.96585877                5.98345565               69.08686603                0.01000001               -0.27920920               -0.38998202                0.12962392                2.62534736                0.04745976                0.19877691
               5.96267585                5.99396359               69.09067192                0.01000002               -0.33150637               -0.29874858                0.13920223                2.76459810                0.06300344                0.23095524
               6.95922864                6.00368271               69.09425767                0.01000000               -0.30008366               -0.26889118                0.14878782                2.66369763                0.05670425                0.28313056
               7.95667418                6.00968037               69.09758795                0.01000000               -0.15615149               -0.37119517                0.15875990                2.30301764                0.03457025                0.33858942
               8.95610561                6.00789209               69.10063351                0.01000000                0.00798633               -0.55695907                0.16808826                1.42908660                0.00848547                0.36475315
               9.95683391                5.99405362               69.10357584                0.01000000                0.07282930               -0.41203473                0.17406004                0.69683549               -0.00641849                0.34344637
              -0.00364292                6.97859075               69.06966581                0.98516628               -0.03015834               -0.52197060                0.09827307                0.82481291               -0.00522511                0.01875351
               0.99605550                6.97101007               69.07360034                0.01000002               -0.42106848               -0.22762493                0.10461458                0.99610317               -0.08248194                0.05847969
               1.98793571                6.96809999               69.07598944                0.01000001               -0.51635116               -0.36603846                0.18199712                1.21340753               -0.27984893                0.21478902
               2.98572848                6.96452740               69.08151456                0.01000000               -0.15831450               -0.75509769                0.10746416                1.70194599                0.01246178                0.02989018
               3.98476942                6.96900156               69.08506354                0.01000000               -0.16531323               -0.64943192                0.13038762                2.23156072               -0.01656653                0.15447851
               4.98242221                6.97906887               69.08962646                0.01000002               -0.24308559               -0.48356388                0.13678947                2.64289926                0.10102518                0.13510558
               5.97990771                6.99076336               69.09399387                0.01000000               -0.25099703               -0.28729644                0.14147509                2.63544370                0.13631893                0.19564242
               6.97740227                7.00087445               69.09831329                0.01000000               -0.20155656               -0.24716424                0.14823169                2.37117165                0.15052836                0.26762905
               7.97587658                7.00627436               69.10233511                0.01000000               -0.10542459               -0.26444245                0.15555147                1.86479676                0.12606027                0.35542767
               8.97529378                7.00424076               69.10585650                0.01000000               -0.06265567               -0.19610209                0.16384075                1.05173496                0.06505530                0.39642787
               9.97462347                6.99286803               69.10870098                0.01000003               -0.06703125                0.06540427                0.17333835                0.47161075                0.02085882                0.35807377
               0.00395937                7.97828973               69.07063312                1.00000000               -0.03215940               -0.03104354                0.10386133                0.00063812               -0.00299941                0.02230280
               1.00363777                7.97068287               69.07444582                0.99999999               -0.03314851               -0.03345876                0.11073072               -0.00053244               -0.00770263               -0.00307431
               2.00329640                7.96308911               69.07816489                0.01000000               -0.01037299               -0.26873566                0.11858204                0.37648845               -0.13813339                0.04845232
               3.00343031                7.95526563               69.07936920                0.01000001               -0.24733058               -0.47073482                0.17785832                1.17612792               -0.23730968                0.27925200
               3.99834979                7.96184520               69.08686932                0.01000002               -0.32376763               -1.07456806                0.15116096                2.19305298                0.17042077               -0.06070817
               4.99695496                7.97378437               69.09161287                0.01000000               -0.23853197               -0.39904996                0.13922315                2.47723269                0.15893716                0.06452424
               5.99357915                7.98821766               69.09682854                0.01000000               -0.29069429               -0.17314465                0.14444743                2.24077580                0.23153533                0.13551062
               6.99114108                7.99873943               69.10191936                0.01000001               -0.14876691               -0.17756787                0.14901679                1.82344225                0.27398359                0.21549141
               7.99060381                8.00439152               69.10701714                0.01000001               -0.02972167               -0.18434335                0.15330295                1.43503397                0.26409349                0.32680226
               8.99054664                8.00397005               69.11113613                0.01000001               -0.07961131                0.00540200                0.16130642                0.96984071                0.16895864                0.54675417
               9.98901158                7.99536171               69.11407916                0.01000002               -0.15350599                0.50860153                0.17331923                0.56958379                0.09864463                0.38755260
               0.01158357                8.97796988               69.07168643                0.99999997               -0.03381012               -0.03276673                0.10941791                0.00059224                0.00149546                0.02151834
               1.01124547                8.97034089               69.07539890                0.99999999               -0.03504285               -0.03486701                0.11609427               -0.00029627                0.00115896                0.00211980
               2.01088271                8.96272528               69.07910337                0.99999998               -0.03752619               -0.03693518                0.12291729               -0.00130958               -0.00532655               -0.00853710
               3.01049495                8.95511271               69.08268256                0.88204154               -0.03854831               -0.02657062                0.12706724               -0.02719423               -0.00975711                0.10519108
               4.01011175                8.94751020               69.08629261                0.01000000               -0.24502702               -0.73539747                0.12905124                1.76647260                0.15567375               -0.09853446
               5.00559441                8.97108787               69.09318077                0.01000000               -0.51717892               -0.07570864                0.14499226                2.09405455                0.31045816                0.00950040
               5.99976817                8.98730046               69.09908158                0.01000007               -0.39485772               -0.04538101                0.14895267                1.36087241                0.31117020                0.06549452
               6.99769725                8.99732309               69.10482980                0.01000000               -0.02107646               -0.14423230                0.15321225                0.98282384                0.36860757                0.11785610
               7.99934664                9.00258749               69.11069743                0.01000005                0.30115782               -0.23447926                0.15573640                0.79677901                0.53779024                0.20435207
               9.00372041                9.00434880               69.11843945                1.00000000                0.19425883               -0.00497293                0.15123842                0.75046351                0.35217398                0.34487445
              10.00323182                9.00304006               69.11907610                1.00000000               -0.04885906                0.35577839                0.17661466                0.64609388               -0.00270974                0.22374928
               0.01922919                9.97763440               69.07263782                1.00000000               -0.03527398               -0.03354883                0.11412344               -0.00032473                0.01591654                0.01633233
               1.01887645                9.96998553               69.07634912                0.99999999               -0.03653999               -0.03553670                0.12068580               -0.00110114                0.01982239                0.00177744
               2.01849839                9.96235041               69.08013857                1.00000000               -0.03874712               -0.03748727                0.12773099               -0.00099737                0.02195093               -0.00405347
               3.01810151                9.95473422               69.08389197                0.99999999               -0.03971591               -0.03784850                0.13206764               -0.00000144                0.01670603               -0.00056795
               4.01770407                9.94713725               69.08758595                0.01828910               -0.95278609               -0.03729494                0.13425931                1.63603136                0.17753694               -0.00540553
               4.99904579                9.97227020               69.09456683                0.01000000               -1.15713513                0.11823256                0.15109879                1.35377773                0.34592635               -0.01869633
               5.99456137                9.98731004               69.10083039                0.01000001               -0.17676319                0.00095752                0.15800908                0.65854944                0.33840419                0.01953658
               6.99551052                9.99585478               69.10674007                0.01000000                0.24761559               -0.14683132                0.16363065                0.40092234                0.39297530                0.04620223
               7.99951368                9.99970194               69.11298564                0.01000002                0.47964091               -0.28855526                0.16586044                0.41749464                0.45924732                0.10565791
               9.00510334               10.00387059               69.11890720                1.00000000                0.25186273               -0.04782118                0.17038503                0.27706047                0.26786702                0.00362156
              10.00455094               10.00247728               69.11954383                0.99999998               -0.05524046               -0.05627834                0.19576131               -0.00741895                0.00323646               -0.00323691
              -0.08682758               -0.01224956               70.05454306                1.00000000               -0.02308769               -0.02498493                0.07864004                0.00098547               -0.00794864                0.00762441
               0.91294154               -0.01664160               70.05805178                1.00000000               -0.02267576               -0.02415602                0.07600031               -0.00037102               -0.00860301               -0.00151787
               1.91271890               -0.02100469               70.06154802                0.01000000                0.15911059               -0.02333075                0.07338138                0.24214121               -0.00885800               -0.00350191
               2.91612375               -0.02048666               70.06504701                0.01000001                0.25785713               -0.07371655                0.07227094                0.18922261               -0.02750102                0.03369389
               3.91787605               -0.01786597               70.06795236                0.01000000                0.10280645               -0.03046098                0.07818426                0.19796628               -0.09924442                0.03858587
               4.91817988               -0.01182140               70.07002920                0.01000001               -0.10960141                0.01692516                0.08852039                0.30148873               -0.18743104                0.03851533
               5.91568402               -0.00148565               70.07122510                0.01000000               -0.56126460                0.11157781                0.09663610                0.66052282               -0.26957126                0.02157530
               6.90695459                0.01505069               70.07151227                0.97997906               -0.45024585               -0.03170972                0.09371447                0.70718806               -0.14053803               -0.00329699
               7.90667910                0.01752209               70.07458569                1.00000000               -0.02722077               -0.03026398                0.09073859                0.00016409               -0.00228612               -0.00124995
               8.90641018                0.02006922               70.07765357                1.00000000               -0.02635077               -0.02900035                0.08719231               -0.00005680               -0.00251182                0.00000756
               9.90615209                0.02268899               70.08073569                1.00000000               -0.02580898               -0.02807508                0.08466866               -0.00452153               -0.00229849               -0.00217132
              -0.08242568                0.98750059               70.05612513                0.99999999               -0.02589233               -0.02631696                0.08762136                0.00139381                0.00143018                0.00809772
               0.91731540                0.98311684               70.05963553                0.01000000               -0.02557399               -0.02546525                0.08498908                0.00002633                0.00425764               -0.00441302
               1.91706284                0.97876200               70.06320440                0.01000000               -0.04343887                0.01692980                0.08234155                0.19033478                0.01459519                0.03893753
               2.91644662                0.97877618               70.06691832                0.01000000               -0.07698799               -0.03997191                0.07912151                0.33405484               -0.01255661                0.05908994
               3.91552308                0.98182942               70.06988234                0.01000000               -0.17210054               -0.01032523                0.08447624                0.45865705               -0.07498927                0.06786167
               4.91300461                0.98834785               70.07217739                0.01000000               -0.33349407                0.03219099                0.09509756                0.66560935               -0.14121584                0.06800988
               5.90885320                0.99963012               70.07362669                0.01000001               -0.42410052                0.01487044                0.10769361                0.95691588               -0.21264840                0.05293045
               6.90452260                1.01473359               70.07429291                0.82098122               -0.23408632               -0.03505744                0.11736472                0.63614595               -0.12012570               -0.00545767
               7.90417147                1.01721945               70.07739312                1.00000000               -0.03482226               -0.03399505                0.11475911                0.00132511                0.00135853               -0.00050203
               8.90382615                1.01977922               70.08048740                1.00000000               -0.03421883               -0.03268911                0.11202096                0.00009192                0.00060125                0.00183638
               9.90348710                1.02240824               70.08356946                1.00000000               -0.03390570               -0.03131489                0.10922768               -0.00455865                0.00013258               -0.00122402
              -0.07803219                1.98722410               70.05772053                0.06537719               -0.02871529               -0.00463348                0.09663299                0.01061026                0.00328903                0.09460743
               0.92168066                1.98284909               70.06115992                0.01000000               -0.05507782               -0.01207774                0.09403070                0.04806894                0.05828454                0.08073225
               1.92086626                1.97933391               70.06570265                0.01000001               -0.09716126               -0.02298665                0.08133301                0.30191372                0.06480432                0.09881053
               2.91973744                1.97871390               70.06928231                0.01000000               -0.16943703               -0.03828947                0.08480766                0.63115131               -0.00258991                0.10201334
               3.91747752                1.98192752               70.07238965                0.01000000               -0.30230365               -0.01049400                0.09055030                0.93013904               -0.04577920                0.11646063
               4.91369136                1.98882242               70.07492228                0.01000001               -0.45204614                0.01423580                0.10062059                1.19035088               -0.09865609                0.12424628
               5.90843659                1.99881175               70.07676818                0.01000000               -0.58015888               -0.05318750                0.11517669                1.54755143               -0.20440329                0.12812548
               6.90208819                2.01434954               70.07704060                0.01000000               -0.33883095               -0.33129028                0.13856424                1.10413422               -0.13605443                0.13080092
               7.90165998                2.01684219               70.08021508                0.46103103               -0.04324827               -0.04248840                0.14226117                0.00379635                0.00797291                0.02115312
               8.90122322                2.01941544               70.08335160                0.99999999               -0.04285562               -0.04111414                0.13999228               -0.00014638                0.00340337                0.00760329
               9.90080286                2.02206269               70.08641593                0.99999999               -0.04203574               -0.03877350                0.13355580               -0.00520429                0.00100295                0.00226901
              -0.07346344                2.98740793               70.06103779                0.01000001               -0.03695794                0.16323473                0.06052567                0.34849864               -0.01585414                0.13223244
               0.92616698                2.98287528               70.06444620                0.01000000                0.03498733               -0.10913730                0.05224155                0.35622945                0.01434989                0.13569559
               1.92723630                2.97830227               70.06833543                0.01000000                0.01545273               -0.16379833                0.08388279                0.62143272                0.04571691                0.10336951
               2.92647603                2.97801039               70.07198702                0.01000000               -0.16094755               -0.12764839                0.09082699                1.04051192                0.02432048                0.12333899
               3.92401735                2.98161954               70.07526390                0.01000004               -0.32743176               -0.08062386                0.09780265                1.40050923               -0.01040980                0.14787940
               4.91992740                2.98863256               70.07811711                0.01000000               -0.48701220               -0.05375545                0.10710285                1.71616948               -0.05369927                0.16820122
               5.91427711                2.99856637               70.08041824                0.01000001               -0.56762721               -0.08889165                0.12117650                1.85614209               -0.08407883                0.18697400
               6.90857485                3.00810778               70.08254365                0.01000000               -0.75478036               -0.38903454                0.13569100                1.76053707               -0.15534259                0.25617717
               7.89918150                3.01636968               70.08343845                0.01000001               -0.49860662               -0.19653697                0.19988902                1.04036517               -0.11936982                0.17772171
               8.89860272                3.01895693               70.08625820                0.27871249               -0.05465009               -0.04064116                0.17487457                0.00844486               -0.01051055                0.09263314
               9.89808850                3.02163277               70.08927223                0.99999999               -0.05142205               -0.04024510                0.16353800               -0.00740313               -0.00230234                0.08328941
              -0.06199692                3.99048880               70.06420879                0.01000000               -0.00921700                0.13351891                0.09675822                0.34419646                0.00691019                0.12540084
               0.93791091                3.98066634               70.06735662                0.01000000                0.00783644               -0.24555630                0.09309790                0.63583105                0.04465000                0.06230487
               1.93815980                3.97605794               70.07101314                0.01000000               -0.03402495               -0.26973531                0.09107297                1.05311340                0.08155851                0.07749372
               2.93723041                3.97616094               70.07476696                0.01000001               -0.16471394               -0.23545280                0.09917951                1.45761423                0.06737085                0.12424938
               3.93486553                3.98031504               70.07829542                0.01000000               -0.30812454               -0.18740845                0.10462322                1.83051078                0.02921374                0.16749294
               4.93106792                3.98774731               70.08152401                0.01000001               -0.43906549               -0.14781647                0.11354779                2.13404096               -0.00297233                0.19409868
               5.92608422                3.99703392               70.08442588                0.01000001               -0.57861478               -0.16274265                0.12494972                2.31514225               -0.03664471                0.22125882
               6.91949562                4.00656885               70.08691738                0.01000002               -0.72330443               -0.17683298                0.14179973                2.20693896               -0.06339614                0.23759968
               7.91161813                4.01291145               70.08925423                0.01000003               -1.16832973               -0.22994964                0.15319620                2.19401255               -0.11339345                0.30176770
               8.89612903                4.01860261               70.09077515                0.01000000               -0.81575013               -0.28795274                0.22780867                1.88813109               -0.07351096                0.26765304
               9.89530312                4.02125779               70.09370727                0.01000000               -0.08259008               -1.14091324                0.21854910                1.85334880               -0.00058012                0.25174608
              -0.04693460                4.99007830               70.06713425                0.01000000                0.02490624               -0.14685504                0.11001082                0.41199992                0.07649316                0.14881482
               0.95331446                4.97796415               70.06985314                0.01000000               -0.01307083               -0.32201413                0.08227733                0.77034230                0.14903733               -0.03585403
               1.95280398                4.97290756               70.07351657                0.01000001               -0.09716238               -0.34133493                0.10428547                1.33577277                0.17671915                0.03277221
               2.95137121                4.97330133               70.07740849                0.01000000               -0.18813907               -0.32806741                0.10165169                1.74401636                0.10801884                0.13749485
               3.94904120                4.97787137               70.08130521                0.01000001               -0.27409356               -0.30809660                0.11093890                2.12010991                0.06563635                0.17674796
               4.94588934                4.98567623               70.08493509                0.01000001               -0.36413921               -0.26389248                0.11806054                2.44375816                0.03592434                0.20179130
               5.94175841                4.99531152               70.08830407                0.01000001               -0.45266170               -0.21689780                0.12855367                2.62037295                0.01619219                0.22824974
               6.93683610                5.00457112               70.09141580                0.01000001               -0.53652150               -0.21536834                0.13982902                2.66389741               -0.00743922                0.26278520
               7.93102798                5.01177069               70.09419632                0.01000000               -0.44085545               -0.24046982                0.15651995                2.54074059               -0.02617011                0.29255019
               8.92801900                5.01319788               70.09691288                0.01000000               -0.05914320               -0.62390499                0.16659098                2.20438784               -0.02836287                0.35115251
               9.92984512                4.99881451               70.09976274                0.01000002                0.18261233               -1.46012155                0.17438460                1.48685209               -0.02998580                0.34586335
              -0.02952863                5.98755170               70.07175037                0.01000002                0.00171205               -0.61491447                0.14543958                0.63119499                0.32419188               -0.33456341
               0.97048849                5.97422606               70.07241761                0.01000001               -0.04666443               -0.39539027                0.19020434                1.02001696                0.38251596               -0.08956266
               1.96953808                5.96923124               70.07546241                0.01000000               -0.16707812               -0.36679659                0.07491751                1.44481705                0.16963530                0.09513819
               2.96714693                5.96959959               70.07993056                0.01000001               -0.23226306               -0.40280201                0.11062338                1.79775266                0.13320650                0.14409162
               3.96489282                5.97415311               70.08411787                0.01000001               -0.23220016               -0.44939517                0.11043477                2.20599812                0.07848335                0.16671584
               4.96250293                5.98246946               70.08811374                0.01000000               -0.26480180               -0.38511357                0.12245764                2.57973894                0.06552106                0.18783092
               5.95959679                5.99269597               70.09201268                0.01000001               -0.30942622               -0.28660064                0.13037701                2.74633965                0.07162096                0.21789081
               6.95631440                6.00226148               70.09570001                0.01000000               -0.28953012               -0.24679013                0.14026609                2.66324218                0.06297900                0.26563218
               7.95380618                6.00810205               70.09913180                0.01000000               -0.15707197               -0.33727792                0.15009253                2.30765781                0.03953178                0.31597751
               8.95317296                6.00612452               70.10227262                0.01000004                0.00003641               -0.51631325                0.15972345                1.43234729                0.01146635                0.34274615
               9.95380691                5.99205536               70.10527151                0.01000000                0.06339489               -0.38385640                0.16575182                0.69785877               -0.00463090                0.32692892
              -0.00765943                6.97778001               70.07064923                0.96819897               -0.03053139               -0.50373355                0.09888582                0.70831494               -0.00499350               -0.08745980
               0.99203526                6.97005635               70.07464871                0.01301155               -0.30068878               -0.22486929                0.10550959                0.85323616               -0.05535086                0.05906364
               1.98632679                6.96557163               70.07765003                0.01000000               -0.48154321               -0.36204901                0.17487887                1.25337135                0.11642694                0.02771747
               2.98240439                6.96524529               70.08206648                0.01000000               -0.30177512               -0.43192287                0.07942893                1.48816389                0.09272723                0.11385449
               3.98029129                6.96888346               70.08633374                0.01000003               -0.17315629               -0.69363950                0.12423964                2.07489210                0.04057668                0.14191852
               4.97894127                6.97797396               70.09090568                0.01000002               -0.16990538               -0.49070338                0.12335062                2.58591867                0.10982600                0.12798775
               5.97689318                6.98957951               70.09535952                0.01000000               -0.21232012               -0.28704281                0.13287256                2.63772978                0.14019099                0.18334856
               6.97469486                6.99963532               70.09975140                0.01000000               -0.17875399               -0.23534530                0.14009592                2.39286523                0.15045772                0.25059683
               7.97331810                7.00502513               70.10385123                0.01000013               -0.09911160               -0.23583529                0.14813837                1.89964686                0.12505285                0.33447430
               8.97271263                7.00287161               70.10745998                0.01000002               -0.06887513               -0.15350814                0.15731846                1.07822464                0.06460625                0.37642174
               9.97194060                6.99113738               70.11040226                0.01000000               -0.07720297                0.09623632                0.16753064                0.48499785                0.02121511                0.34620904
               0.00008500                7.97747703               70.07167331                1.00000000               -0.03234021               -0.03113446                0.10442940                0.00079857               -0.00275800                0.02274753
               0.99976160                7.96972868               70.07555407                0.99999999               -0.03342160               -0.03352328                0.11116684               -0.00034513               -0.00736834               -0.00236345
               1.99941657                7.96199026               70.07934817                0.01000000               -0.30816115               -0.19723548                0.11869386                0.60324045               -0.05465467                0.02209774
               2.99359837                7.96096113               70.08228900                0.01000001               -0.28772875               -0.56779263                0.24892283                1.13359316               -0.21566372                0.28963658
               3.99366199                7.96028032               70.08803163                0.01000004               -0.00365591               -1.13539000                0.10727307                1.88925958                0.11550215               -0.06260486
               4.99352526                7.97265539               70.09296705                0.01000000               -0.14859848               -0.41713412                0.13134065                2.49720551                0.16944721                0.06135348
               5.99069002                7.98695511               70.09822544                0.01000000               -0.23995854               -0.18416969                0.13641050                2.25044802                0.22891758                0.12613925
               6.98872609                7.99755457               70.10337091                0.01000000               -0.10635979               -0.18115581                0.14182688                1.86186411                0.26733966                0.20126806
               7.98856283                8.00338535               70.10851605                0.01000000               -0.00504401               -0.17334588                0.14687643                1.50022448                0.25588814                0.30793554
               8.98862521                8.00305435               70.11272280                0.01000000               -0.07937440                0.04723294                0.15631940                1.04040352                0.16320155                0.52203841
               9.98697534                7.99398009               70.11579333                0.01000002               -0.16498659                0.56560694                0.16983896                0.61760529                0.09488756                0.37621339
               0.00785324                8.97715732               70.07278058                1.00000000               -0.03381243               -0.03274391                0.10952824                0.00081266                0.00145199                0.02158184
               1.00751512                8.96938588               70.07656053                0.99999999               -0.03470483               -0.03502880                0.11641388               -0.00004859                0.00119336                0.00218892
               2.00715915                8.96162692               70.08033698                0.99999999               -0.03644641               -0.03708549                0.12312162                0.00046370               -0.00683587               -0.00847825
               3.00678619                8.95388944               70.08395142                0.82014611               -0.03884616               -0.37403514                0.13164334                0.27395278               -0.01485527                0.02035149
               4.00638222                8.94617566               70.08755760                0.01000000               -0.22878011               -0.72746799                0.14205118                1.80905165                0.15594009               -0.09540448
               5.00221059                8.96963128               70.09461320                0.01000000               -0.46896323               -0.10000272                0.13880814                2.10143128                0.31321549                0.00921810
               5.99700296                8.98589611               70.10053785                0.01000005               -0.33543400               -0.06324164                0.14334296                1.37474046                0.30448359                0.06042761
               6.99550191                8.99601220               70.10632877                0.01000002                0.04099274               -0.16082968                0.14700656                1.01138392                0.35764121                0.10958855
               7.99782281                9.00155821               70.11222656                0.01000001                0.37120247               -0.24959964                0.15041540                0.85828977                0.51755265                0.19263788
               9.00292596                9.00381627               70.11993819                0.99999999                0.23092104                0.01444880                0.14850492                0.83210748                0.33718373                0.33032600
              10.00244124                9.00244952               70.12084437                1.00000000               -0.04847231                0.39506835                0.17704059                0.70554671               -0.00270746                0.21630827
               0.01564414                9.97682215               70.07378116                1.00000000               -0.03531064               -0.03351752                0.11441010               -0.00031585                0.01563778                0.01627261
               1.01529103                9.96902810               70.07755857                0.99999999               -0.03609244               -0.03577838                0.12127123               -0.00108904                0.01997840                0.00158249
               2.01492229                9.96124855               70.08142445                0.99999998               -0.03811705               -0.03783712                0.12792559               -0.00106970                0.02079547               -0.00380909
               3.01452869                9.95348043               70.08521047                0.99999998               -0.04105510               -0.04090109                0.13704486               -0.00162974                0.01246420               -0.00140064
               4.01410118                9.94573096               70.08890541                0.08195927               -0.93476276               -0.04447009                0.14800876                1.63064134                0.18058988               -0.00764829
               4.99583343                9.97065533               70.09607746                0.01000000               -1.11486383                0.10240546                0.14779664                1.36024999                0.34924480               -0.01927923
               5.99180391                9.98569028               70.10238299                0.01000001               -0.12708828               -0.02058372                0.15340345                0.66422707                0.33393905                0.01768517
               6.99329167                9.99433798               70.10834639                0.01000000                0.30603233               -0.16742248                0.15816308                0.41412956                0.38290795                0.04268354
               7.99792455                9.99839335               70.11462206                0.01000002                0.55421907               -0.31648585                0.16177633                0.46044140                0.44363525                0.10056079
               9.00437605               10.00334333               70.12060893                1.00000000                0.29476151               -0.04729447                0.16995995                0.31941411                0.25765447                0.00362085
              10.00381978               10.00188146               70.12151510                0.99999999               -0.05562638               -0.05680625                0.19849631               -0.00833242                0.00323523               -0.00323231
              -0.09040248               -0.01380058               71.05533217                1.00000000               -0.02312705               -0.02517815                0.07921911                0.00088291               -0.00790191                0.00754631
               0.90936625               -0.01828556               71.05881011                1.00000000               -0.02257885               -0.02407944                0.07569697               -0.00050402               -0.00857010               -0.00149606
               1.90914594               -0.02274102               71.06227593                0.01000000                0.16428033               -0.02296883                0.07223198                0.25438127               -0.00809747               -0.00346816
               2.91265185               -0.02206711               71.06575976                0.01000002                0.26253527               -0.07293959                0.07023501                0.19808911               -0.02415341                0.03195464
               3.91439665               -0.01945486               71.06873647                0.01000000                0.10045668               -0.02963008                0.07671733                0.19649638               -0.09134784                0.03923242
               4.91466099               -0.01363664               71.07094089                0.01000001               -0.10799857                0.01626186                0.09629122                0.29121850               -0.17732945                0.03708976
               5.91223667               -0.00375140               71.07223189                0.01000000               -0.53907933                0.10495686                0.11199110                0.63139541               -0.27282436                0.01842975
               6.90387940                0.01211041               71.07246209                0.98748133               -0.43212873               -0.03234991                0.09691094                0.67311256               -0.14280847               -0.00426252
               7.90359410                0.01457223               71.07550417                1.00000000               -0.02813167               -0.03058163                0.09381126                0.00009142               -0.00382704               -0.00295110
               8.90331677                0.01709938               71.07853380                1.00000000               -0.02715021               -0.02916358                0.09016105                0.00004393               -0.00408896               -0.00197335
               9.90305110                0.01968888               71.08158854                1.00000000               -0.02656714               -0.02838223                0.08736105               -0.00401575               -0.00385507               -0.00579975
              -0.08590868                0.98594763               71.05700503                0.99999999               -0.02598946               -0.02653154                0.08834243                0.00144274                0.00140928                0.00804393
               0.91383143                0.98147365               71.06048479                0.01000000               -0.02553966               -0.02541784                0.08486434                0.00004829                0.00422374               -0.00437623
               1.91358053                0.97702929               71.06402281                0.01000000               -0.04208826                0.02170053                0.08133151                0.20349249                0.01389168                0.03466849
               2.91298966                0.97720350               71.06769334                0.01000000               -0.07170767               -0.03904812                0.07607671                0.34768601               -0.01308432                0.05914126
               3.91214637                0.98024884               71.07070583                0.01000000               -0.16341083               -0.00918282                0.07864544                0.45643168               -0.07090420                0.07031193
               4.90972144                0.98652598               71.07311593                0.01000000               -0.32346340                0.03399022                0.08988489                0.64541500               -0.13031186                0.06821040
               5.90567711                0.99729817               71.07470528                0.01000001               -0.41363683                0.01827282                0.10775027                0.91810481               -0.20140212                0.04582692
               6.90144871                1.01178691               71.07546964                0.79967112               -0.22882884               -0.03533638                0.11757775                0.60499108               -0.11480864               -0.00817731
               7.90110053                1.01426642               71.07853542                0.99999999               -0.03449120               -0.03353767                0.11411039                0.00122680                0.00048872               -0.00024772
               8.90075888                1.01680774               71.08159840                1.00000000               -0.03395467               -0.03129120                0.11097517                0.00027751                0.00038891                0.00076781
               9.90042144                1.01940506               71.08465120                0.99999998               -0.03374479               -0.03000591                0.10815950               -0.00351357                0.00051426               -0.00632554
              -0.08142565                1.98566878               71.05869164                0.09556993               -0.02887885               -0.01589214                0.09750715                0.00537883                0.00327071                0.07680180
               0.91828556                1.98120608               71.06210091                0.01000000               -0.05442031               -0.01859461                0.09417006                0.04895428                0.05394294                0.06056957
               1.91748594                1.97769299               71.06652656                0.01000001               -0.09497696               -0.02218492                0.08379755                0.31801180                0.06323248                0.09341933
               2.91638602                1.97715193               71.07012483                0.01000000               -0.16415734               -0.03782537                0.08386084                0.64794740               -0.00031421                0.10453410
               3.91420279                1.98036149               71.07327246                0.01000000               -0.29330283               -0.00766528                0.08583572                0.93017848               -0.04248625                0.12093795
               4.91051996                1.98704317               71.07589850                0.01000001               -0.44324752                0.02167748                0.09267718                1.16747100               -0.08912603                0.12606057
               5.90533784                1.99661405               71.07789664                0.01000000               -0.57544960               -0.03836257                0.10828478                1.49547671               -0.18400455                0.12196071
               6.89901097                2.01140368               71.07840932                0.01000000               -0.33700203               -0.30842318                0.13585712                1.06533536               -0.11991393                0.11237365
               7.89859780                2.01390148               71.08164008                0.60908937               -0.04136461               -0.03431423                0.13730814                0.00434211                0.01177548                0.04456212
               8.89818368                2.01647355               71.08473996                0.99999998               -0.04058051               -0.03739097                0.13265627                0.00386674                0.00328079                0.01289854
               9.89778619                2.01908876               71.08772601                0.99999999               -0.03974855               -0.03648659                0.12693168               -0.00400345               -0.00020015               -0.00059091
              -0.07687570                2.98562979               71.06174394                0.01000001               -0.03379886                0.14224900                0.07752606                0.37109045               -0.00244103                0.14516686
               0.92278631                2.98110175               71.06507418                0.01000000                0.04353100               -0.13914959                0.07144779                0.38798512                0.03979285                0.13604671
               1.92399492                2.97658559               71.06922191                0.01000000                0.02468997               -0.18029661                0.09419349                0.66017505                0.06473632                0.10713984
               2.92328011                2.97644699               71.07291358                0.01000000               -0.15681060               -0.12783635                0.09478673                1.07225075                0.02625581                0.12961203
               3.92085871                2.98009554               71.07623176                0.01000001               -0.32309062               -0.07283766                0.09584359                1.40539236               -0.00785674                0.15213713
               4.91681830                2.98695953               71.07916010                0.01000000               -0.48162892               -0.04153073                0.10157378                1.69491067               -0.04437289                0.16864669
               5.91122613                2.99653091               71.08160274                0.01000001               -0.56751540               -0.06929332                0.11414293                1.81709899               -0.07219708                0.17980299
               6.90546799                3.00561844               71.08382096                0.01000000               -0.75543147               -0.34911081                0.12968406                1.72349523               -0.11382203                0.23790475
               7.89611750                3.01358013               71.08556414                0.01000003               -0.49095251               -0.17008024                0.15798394                1.01827888               -0.09503466                0.15014525
               8.89564894                3.01605992               71.08803055                0.40673897               -0.05032736               -0.03084637                0.16766854                0.00644739               -0.02714314                0.10635247
               9.89511095                3.01867532               71.09090415                0.99999999               -0.05379872               -0.03476516                0.16445778               -0.00312052               -0.00303052                0.09484250
              -0.06494777                3.98851376               71.06511482                0.01000001                0.00372330                0.09492965                0.09996438                0.38105398                0.02134729                0.14381934
               0.93508946                3.97842309               71.06839397                0.01000000                0.01459890               -0.34657166                0.11871511                0.72617055                0.04785793                0.07795528
               1.93534421                3.97408705               71.07203363                0.01000000               -0.03841877               -0.29977056                0.11579543                1.16905257                0.07379500                0.09360345
               2.93432109                3.97459520               71.07581043                0.01000004               -0.17730545               -0.22315984                0.11003646                1.51016512                0.06096261                0.12991006
               3.93179810                3.97890473               71.07935442                0.01000000               -0.31691448               -0.17315526                0.10721690                1.83661418                0.02894711                0.16665920
               4.92798280                3.98621255               71.08263927                0.01000001               -0.43885944               -0.13224600                0.10997968                2.11348985                0.00377410                0.18937646
               5.92302091                3.99522819               71.08564015                0.01000001               -0.57755703               -0.14071975                0.11908873                2.28343653               -0.02340325                0.21096447
               6.91643166                4.00442146               71.08829622                0.01000002               -0.72495032               -0.14465506                0.13241411                2.18038859               -0.05357068                0.22372901
               7.90852190                4.01049988               71.09067474                0.01000001               -1.16071112               -0.19542231                0.14109180                2.16613890               -0.08402013                0.25514430
               8.89321744                4.01585662               71.09291002                0.01000000               -0.80144639               -0.25771985                0.17056827                1.85981326               -0.04681471                0.23724257
               9.89249298                4.01839346               71.09580767                0.01000000               -0.07244588               -1.11067877                0.17206483                1.83365593                0.02160307                0.23125012
              -0.04907328                4.98752838               71.06841412                0.01000000                0.08097083               -0.49954318                0.10745706                0.78413688                0.02991565                0.09296572
               0.95173643                4.97417032               71.07081287                0.01000000                0.01385686               -0.48872782                0.14666425                1.25677793                0.12335438                0.04296985
               1.95120386                4.97059018               71.07476989                0.01000001               -0.15353490               -0.29539373                0.14172301                1.54473042                0.16246397                0.03228030
               2.94866573                4.97198379               71.07855432                0.01000000               -0.26151099               -0.30018864                0.12755701                1.80114000                0.09330177                0.13072916
               3.94597364                4.97663243               71.08243210                0.01000001               -0.29505467               -0.28825512                0.11584427                2.10896225                0.06251209                0.16529842
               4.94276464                4.98431461               71.08609923                0.01000001               -0.36438462               -0.24854381                0.11601550                2.41878356                0.04210217                0.18964939
               5.93868595                4.99371652               71.08955641                0.01000002               -0.44802834               -0.19811169                0.12278110                2.59559092                0.02637515                0.21419889
               6.93380407                5.00272534               71.09276929                0.01000001               -0.53404166               -0.18808567                0.13241419                2.64463055                0.00426353                0.24464156
               7.92800511                5.00967169               71.09570858                0.01000000               -0.44262253               -0.20774341                0.14397885                2.52752431               -0.01569251                0.27569516
               8.92495162                5.01090552               71.09850895                0.01000000               -0.06473543               -0.58283542                0.15233802                2.18839296               -0.02016620                0.30536105
               9.92671041                4.99646175               71.10142534                0.01000000                0.17587838               -1.42203909                0.15700966                1.46814869               -0.02442829                0.30875821
              -0.02254891                5.97852290               71.07159167                0.03558257               -0.02878663               -0.53048835               -0.00600668                0.87913935                0.53804181               -0.34722062
               0.97716323                5.96864854               71.07521836                0.01000001               -0.45128739               -0.25577176                0.16279684                1.29337617                0.42799755               -0.07974601
               1.96842535                5.96817918               71.07659198                0.01000000               -0.64307964               -0.29107938                0.17110995                1.57927587                0.11652307                0.11618269
               2.96430164                5.96859143               71.08111670                0.01000001               -0.33894106               -0.37688695                0.13115771                1.75970175                0.12059933                0.12337404
               3.96164653                5.97313963               71.08524564                0.01000001               -0.25136270               -0.43531322                0.11926140                2.17091821                0.08059988                0.13927837
               4.95927438                5.98124168               71.08931519                0.01000006               -0.25622643               -0.37696509                0.11996844                2.54773135                0.07935162                0.16632556
               5.95652200                5.99126595               71.09327946                0.01000001               -0.29526396               -0.27494752                0.12480863                2.72989649                0.07992658                0.20222567
               6.95336910                6.00065975               71.09706299                0.01000000               -0.28148936               -0.22549252                0.13301271                2.65973470                0.06989682                0.24724091
               7.95089221                6.00634501               71.10058980                0.01000000               -0.15869347               -0.30460454                0.14230572                2.31020571                0.04538001                0.29282820
               8.95019523                6.00419992               71.10382798                0.01000005               -0.00743542               -0.47932550                0.15203339                1.43454597                0.01512078                0.32108611
               9.95074350                5.98995267               71.10689087                0.01000000                0.05482686               -0.35956759                0.15934696                0.69791547               -0.00215452                0.31124790
              -0.01174176                6.97691862               71.07164353                0.94873936               -0.03105647               -0.09547874                0.10048211                0.14820696               -0.00475261               -0.03210832
               0.98794768                6.96905489               71.07571053                0.01000002               -0.27058783                0.00376246                0.10713689                0.32511509               -0.01990383               -0.02998428
               1.98284648                6.96476859               71.07948702                0.01000001               -0.45241793               -0.36675314                0.14656029                1.12170990               -0.04804902                0.15183351
               2.97889932                6.96444605               71.08310314                0.01000000               -0.30523629               -0.47090014                0.12848279                1.46447559                0.04261503                0.05272187
               3.97674176                6.96792617               71.08754833                0.01000002               -0.16531868               -0.68851943                0.12437483                2.03322520                0.09964426                0.07496414
               4.97559294                6.97677531               71.09209347                0.01000001               -0.14379770               -0.49688803                0.12114181                2.55835603                0.12479900                0.11474757
               5.97386580                6.98821757               71.09665132                0.01000000               -0.18366149               -0.28519177                0.12707379                2.63359144                0.14731252                0.16859289
               6.97191971                6.99821549               71.10111520                0.01000000               -0.15983709               -0.22361639                0.13360711                2.40950900                0.15151038                0.23239578
               7.97066906                7.00357960               71.10529788                0.01000001               -0.09424200               -0.20850503                0.14161773                1.92904957                0.12499992                0.31250027
               8.97003487                7.00131901               71.10900287                0.01000004               -0.07529320               -0.11336554                0.15149035                1.10144835                0.06506926                0.35542204
               9.96916320                6.98927040               71.11205160                0.01000000               -0.08716756                0.12456001                0.16261132                0.49637716                0.02205047                0.33374048
              -0.00385730                7.97661333               71.07272171                1.00000000               -0.03271398               -0.03124732                0.10533747                0.00076993               -0.00307917                0.02279346
               0.99581556                7.96872378               71.07666916                0.99999999               -0.03371590               -0.03373581                0.11201765               -0.00019742               -0.00728191               -0.00196273
               1.99546838                7.96084412               71.08053877                0.01000000               -0.26909926               -0.21445785                0.11910529                0.54791296               -0.01440918               -0.01315680
               2.99043357                7.95917343               71.08434766                0.01000000               -0.27433023               -0.59238953                0.17792258                1.13015168                0.07483640               -0.04187784
               3.98998177                7.95936924               71.08901478                0.01000097               -0.01417358               -1.15989165                0.12105026                1.89787487                0.13831592               -0.04021436
               4.99015010                7.97130392               71.09423969                0.01000000               -0.11140657               -0.43067418                0.12662452                2.47391971                0.19262017                0.05307361
               5.98775364                7.98556212               71.09955675                0.01000000               -0.19764219               -0.19330511                0.13153580                2.25799870                0.22903525                0.11688968
               6.98619726                7.99618742               71.10475590                0.01000002               -0.06919812               -0.18380533                0.13591973                1.89272180                0.26105693                0.18619897
               7.98636968                8.00217491               71.10995467                0.01000000                0.01680713               -0.16226754                0.14122612                1.55821987                0.24790140                0.28794654
               8.98653340                8.00193261               71.11426252                0.01000000               -0.08007006                0.08750885                0.15181169                1.10401861                0.15772900                0.49654849
               9.98476828                7.99244388               71.11747594                0.01000002               -0.17651199                0.61870288                0.16684500                0.66123266                0.09136685                0.36584617
               0.00405272                8.97629367               71.07387699                0.99999999               -0.03397848               -0.03273225                0.10986048                0.00087162                0.00138522                0.02149646
               1.00371294                8.96838017               71.07772718                0.99999999               -0.03488099               -0.03513515                0.11691825                0.00014724                0.00053820                0.00223559
               2.00335510                8.96047943               71.08156581                0.99999994               -0.03678554               -0.03724113                0.12372050                0.00060584               -0.00503368               -0.00929262
               3.00297723                8.95259826               71.08531543                0.88767575               -0.03931674               -0.34926604                0.13224078                0.23425799               -0.00692544               -0.01805264
               4.00256877                8.94472833               71.08913363                0.01000000               -0.20493820               -0.75402936                0.14258695                1.80153365                0.14730302               -0.07133104
               4.99887846                8.96816183               71.09595693                0.01000000               -0.42132476               -0.11739096                0.13686135                2.10130697                0.30466470                0.01133337
               5.99414227                8.98435147               71.10194844                0.01000000               -0.28585502               -0.07943283                0.13902188                1.37975716                0.29993903                0.05568653
               6.99316136                8.99453939               71.10776993                0.01000001                0.09730021               -0.17571017                0.14194134                1.03575687                0.34584219                0.10109415
               7.99608828                9.00033424               71.11370574                0.01000002                0.43424580               -0.26263710                0.14572818                0.91419864                0.49701212                0.18029097
               9.00184628                9.00306919               71.12140955                1.00000000                0.26385180                0.03344588                0.14575426                0.90701004                0.32172154                0.31559521
              10.00136531                9.00164445               71.12261691                1.00000000               -0.04809656                0.43136446                0.17746867                0.75927759               -0.00269044                0.20950894
               0.01198713                9.97595868               71.07492602                1.00000000               -0.03543923               -0.03349894                0.11473052               -0.00031906                0.01567923                0.01622385
               1.01163274                9.96802108               71.07877454                0.99999999               -0.03623640               -0.03590876                0.12176561               -0.00098922                0.01911139                0.00170721
               2.01126240                9.96009929               71.08269708                1.00000000               -0.03814538               -0.03801391                0.12868967               -0.00091878                0.02271777               -0.00422285
               3.01086983                9.95218811               71.08663287                0.99999997               -0.04067596               -0.04101562                0.13794908               -0.00127153                0.02178230                0.00031852
               4.01044888                9.94428865               71.09054613                0.09441668               -0.91583625               -0.04396787                0.14839703                1.62641111                0.17458232               -0.00429515
               4.99255311                9.96895610               71.09752276                0.01000000               -1.07388293                0.07942710                0.14647708                1.35170467                0.33726884               -0.01824874
               5.98897122                9.98397346               71.10389846                0.01000001               -0.08117452               -0.03780052                0.14990222                0.66875135                0.33093856                0.01705919
               6.99092962                9.99267322               71.10990334                0.01000000                0.35763115               -0.18661674                0.15401814                0.42426047                0.37214673                0.03916869
               7.99612385                9.99692216               71.11622117                0.01000002                0.62168871               -0.34120803                0.15833165                0.49997236                0.42848739                0.09560131
               9.00336339               10.00260152               71.12230640                1.00000000                0.33397276               -0.04676678                0.16953599                0.35916114                0.24751493                0.00361736
              10.00280330               10.00107116               71.12351376                0.99999998               -0.05600867               -0.05732902                0.20124386               -0.00923683                0.00322648               -0.00324068
              -0.09394150               -0.01544435               72.05612744                1.00000000               -0.02321196               -0.02536481                0.07983733                0.00079388               -0.00793492                0.00740243
               0.90582638               -0.02002089               72.05956572                0.99681715               -0.02255966               -0.02406045                0.07564380               -0.00060300               -0.00862958               -0.00142062
               1.90560731               -0.02456782               72.06299266                0.01000011                0.16768853               -0.02274350                0.07148042                0.26779021               -0.00755894               -0.00342980
               2.90918015               -0.02371473               72.06645171                0.01000000                0.26303272               -0.06913375                0.06838039                0.20956565               -0.02327010                0.03067703
               3.91086796               -0.02102005               72.06948671                0.01000000                0.09788598               -0.02802886                0.07388449                0.19569704               -0.08481588                0.04258436
               4.91113787               -0.01542969               72.07195503                0.01000001               -0.10808142                0.01841328                0.09315449                0.27391553               -0.17303262                0.05134581
               5.90870633               -0.00606384               72.07346492                0.01000001               -0.51558642                0.09457589                0.15550088                0.59551180               -0.27877368                0.01960588
               6.90082614                0.00895032               72.07345049                0.99810025               -0.40877429               -0.03275178                0.10069541                0.63023469               -0.15396425               -0.00445960
               7.90053085                0.01140056               72.07646192                1.00000000               -0.02910556               -0.03219814                0.09780504               -0.00032281               -0.00457559               -0.00367996
               8.90024403                0.01390056               72.07945679                1.00000000               -0.02826653               -0.03121513                0.09489878               -0.00023245               -0.00482429               -0.00254809
               9.89996552                0.01644766               72.08248291                1.00000000               -0.02785149               -0.03034026                0.09192851               -0.00266461               -0.00441653               -0.00649821
              -0.08935702                0.98430200               72.05789198                0.99999999               -0.02608927               -0.02672111                0.08897345                0.00145895                0.00130738                0.00792064
               0.91038209                0.97973851               72.06133282                0.01000000               -0.02554262               -0.02540077                0.08485705                0.00004782                0.00408707               -0.00426115
               1.91013213                0.97520474               72.06483103                0.01000000               -0.04400831                0.02855090                0.08067447                0.21775585                0.01255786                0.03215945
               2.90950192                0.97559393               72.06843985                0.01000000               -0.07248582               -0.03504613                0.07419713                0.36500090               -0.02083038                0.06308529
               3.90868241                0.97869966               72.07145525                0.01000002               -0.15515001               -0.00797977                0.07382737                0.45733343               -0.08153691                0.08179584
               4.90639892                0.98475444               72.07397508                0.01000000               -0.31054837                0.03645737                0.07593063                0.61645268               -0.13823678                0.08860307
               5.90247144                0.99488192               72.07578169                0.01000001               -0.40013172                0.02086785                0.09633355                0.87038543               -0.18563290                0.04629604
               6.89839629                1.00862280               72.07664446                0.77677053               -0.22094733               -0.03523153                0.11713451                0.56584901               -0.10898185               -0.00905726
               7.89805250                1.01107858               72.07967533                0.99999999               -0.03390665               -0.03479232                0.11419726               -0.00001945               -0.00039688               -0.00136864
               8.89771815                1.01358841               72.08270690                1.00000000               -0.03303637               -0.03296554                0.11092498                0.00122844               -0.00010562               -0.00178622
               9.89739177                1.01614426               72.08573265                1.00000000               -0.03263839               -0.03248678                0.10801429               -0.00135236                0.00057507               -0.00950463
              -0.08478533                1.98402123               72.05967068                0.12804974               -0.02900767               -0.02069633                0.09817291                0.00420024                0.00326103                0.06540532
               0.91492460                1.97947109               72.06304332                0.01000000               -0.05538400               -0.02176736                0.09425477                0.05423690                0.05128900                0.04901820
               1.91410699                1.97600319               72.06737860                0.01000001               -0.09696739               -0.01333720                0.08505971                0.33363781                0.05742461                0.09889209
               2.91298525                1.97558435               72.07095953                0.01000000               -0.16264379               -0.03384528                0.08265240                0.66532697               -0.00831940                0.11680855
               3.91085412                1.97882035               72.07410636                0.01000000               -0.28502914               -0.00596693                0.08169699                0.93231984               -0.05296454                0.13854073
               4.90728467                1.98529946               72.07677582                0.01000001               -0.43042203                0.02551402                0.08494323                1.14015994               -0.09112809                0.14673583
               5.90224568                1.99435351               72.07893387                0.01000000               -0.56691046               -0.02314973                0.09424478                1.43235467               -0.16745253                0.13407371
               6.89594646                2.00824569               72.07975774                0.01000000               -0.33404150               -0.28219102                0.13453898                1.01459618               -0.10301008                0.10060321
               7.89556485                2.01070471               72.08296124                0.69931182               -0.03717713               -0.03703266                0.12626435                0.00071414                0.00997812                0.01952510
               8.89520292                2.01324125               72.08600473                0.99999997               -0.03690385               -0.03372469                0.12358819                0.00474533                0.00088231                0.01383398
               9.89482677                2.01579793               72.08895457                1.00000000               -0.03761443               -0.03481517                0.12453065                0.00011349               -0.00092480                0.00413928
              -0.08017275                2.98388808               72.06258831                0.01000000               -0.03423947                0.13368871                0.08915298                0.37436062                0.00118505                0.15050881
               0.91948486                2.97930316               72.06587516                0.01000000                0.04321875               -0.14921685                0.08595141                0.40372905                0.05329525                0.15217752
               1.92069163                2.97493800               72.07021930                0.01000000                0.02532211               -0.18105798                0.09938315                0.68630614                0.06330842                0.14111783
               2.91999130                2.97491703               72.07388276                0.01000000               -0.15389658               -0.12329752                0.09525203                1.08929700                0.01063269                0.15275659
               3.91761370                2.97858032               72.07718077                0.01000005               -0.31611718               -0.06862310                0.09326276                1.40545994               -0.01781746                0.16879519
               4.91366896                2.98526472               72.08014859                0.01000000               -0.47206979               -0.03518772                0.09621277                1.67058009               -0.04263362                0.18209311
               5.90817230                2.99441892               72.08270110                0.01000001               -0.56659745               -0.05269896                0.10827295                1.77138945               -0.05417377                0.18304046
               6.90233701                3.00297898               72.08513733                0.01000000               -0.75505422               -0.30752989                0.12644141                1.66810786               -0.11009496                0.21944034
               7.89307122                3.01033793               72.08659812                0.01000001               -0.48085824               -0.14174123                0.09795271                0.98470025               -0.08081986                0.12693206
               8.89271984                3.01291392               72.08961157                0.82605424               -0.03952642               -0.01860929                0.13371713               -0.00165376                0.00059964                0.07744827
               9.89228069                3.01544796               72.09256139                0.99999999               -0.04391554               -0.02181612                0.14076852                0.00906025                0.00951718                0.07124259
              -0.06812827                3.98669500               72.06620807                0.01000000                0.00775337                0.07863465                0.11367221                0.43112300                0.02230883                0.16340486
               0.93194926                3.97648676               72.06973093                0.01000002                0.01737615               -0.36519973                0.13550790                0.78139757                0.01566653                0.18501904
               1.93221925                3.97238204               72.07332905                0.01000000               -0.04101958               -0.29715923                0.12793682                1.21259109                0.01844969                0.16128361
               2.93112887                3.97311840               72.07696769                0.01000005               -0.18018131               -0.21536940                0.11310641                1.53247941                0.01783429                0.16447201
               3.92861562                3.97744789               72.08043976                0.01000000               -0.31355990               -0.16471008                0.10624212                1.83050672                0.01033918                0.17718093
               4.92485767                3.98459570               72.08372360                0.01000001               -0.43282078               -0.12357075                0.10666308                2.08948747                0.00348873                0.19116499
               5.91995921                3.99329953               72.08680765                0.01000001               -0.57340292               -0.12313684                0.11429160                2.24714704               -0.01286741                0.20516885
               6.91338961                4.00209509               72.08956566                0.01000001               -0.73176441               -0.11409002                0.12342392                2.15012755               -0.03750827                0.20575039
               7.90532392                4.00786989               72.09207606                0.01000004               -1.16649017               -0.14841934                0.13735958                2.13386166               -0.08061145                0.24885938
               8.89005981                4.01286907               72.09418652                0.01000000               -0.76920097               -0.22633884                0.07602786                1.83353941               -0.05392903                0.17779029
               9.88993990                4.01536161               72.09714857                0.01000000               -0.01199085               -1.07707451                0.07953895                1.81140801                0.02184527                0.17585011
              -0.05113379                4.98546077               72.06928340                0.01000001                0.05595734               -0.46585617                0.08735096                0.75919460                0.00046322                0.11519813
               0.94942578                4.97199916               72.07278642                0.01000000               -0.02771979               -0.43766372                0.19247871                1.28164560               -0.00493249                0.15999169
               1.94831181                4.96899481               72.07635103                0.01000001               -0.19253728               -0.27721372                0.15507648                1.61807140                0.00107600                0.14694159
               2.94557504                4.97060964               72.07995963                0.01000000               -0.27826420               -0.28000750                0.13725719                1.80338511                0.01750147                0.14888336
               3.94274653                4.97528612               72.08362210                0.01000001               -0.29839852               -0.28127245                0.11740049                2.09371908                0.03109463                0.16371458
               4.93960706                4.98279331               72.08725540                0.01000001               -0.35653377               -0.23969904                0.11387535                2.39342641                0.03789282                0.18128582
               5.93561585                4.99195618               72.09075970                0.01000002               -0.44189294               -0.18269800                0.11823316                2.56960921                0.03340624                0.20120443
               6.93076921                5.00069718               72.09406408                0.01000001               -0.53206873               -0.16173540                0.12657917                2.62128742                0.01418463                0.22714569
               7.92497448                5.00736954               72.09707590                0.01000000               -0.44351451               -0.17502862                0.13069552                2.51574152               -0.00435027                0.25122719
               8.92189892                5.00838714               72.09995964                0.01000000               -0.07253521               -0.54083757                0.13985033                2.18257128               -0.01349626                0.28356597
               9.92352377                4.99390647               72.10290293                0.01000002                0.16248575               -1.38537720                0.14132708                1.43683974               -0.02846658                0.28671780
              -0.02602117                5.97737788               72.07163024                0.03643205                0.00692980               -0.47264813                0.00154530                0.79782544                0.00105051                0.05782244
               0.97404813                5.96773348               72.07567355                0.01000001               -0.40043151               -0.19966490                0.03878509                1.19138925               -0.04050512                0.09444131
               1.96597020                5.96683776               72.07888461                0.01000000               -0.65714325               -0.21666489                0.21661587                1.47230784               -0.03170156                0.09786462
               2.96090526                5.96751825               72.08255371                0.01000001               -0.38319326               -0.37704340                0.14437957                1.73025107                0.01202288                0.11271658
               3.95830634                5.97182244               72.08650310                0.01000001               -0.24245654               -0.43362587                0.12437736                2.14153936                0.05292189                0.12163247
               4.95605613                5.97980172               72.09051310                0.01000002               -0.24294099               -0.37244472                0.11889412                2.52751648                0.07505084                0.15082643
               5.95344752                5.98964557               72.09450885                0.01000001               -0.28270639               -0.26410523                0.12112578                2.71302577                0.08355162                0.18577570
               6.95040200                5.99886039               72.09836027                0.01000000               -0.27493626               -0.20534285                0.12697218                2.65165217                0.07580381                0.22726367
               7.94794879                6.00436932               72.10197792                0.01000000               -0.16138507               -0.27296365                0.13529599                2.30739452                0.05202489                0.27006777
               8.94717430                6.00205232               72.10531329                0.01000001               -0.01553736               -0.44208136                0.14416806                1.43230655                0.02024222                0.29759692
               9.94763804                5.98765406               72.10845845                0.01000000                0.04637396               -0.33396728                0.15245988                0.69819370                0.00080230                0.29357390
              -0.01588849                6.97600781               72.07265887                0.93138709               -0.03178251               -0.08392245                0.10167787                0.10729036               -0.00475333                0.01400125
               0.98379369                6.96800587               72.07679145                0.01000002               -0.30691536               -0.00303544                0.10975469                0.32022383               -0.02213949               -0.00026776
               1.97797320                6.96466152               72.08058124                0.01000151               -0.42991550               -0.35947114                0.11866880                1.02712933               -0.05988725                0.06978670
               2.97519538                6.96306877               72.08463614                0.01000000               -0.23396817               -0.48034822                0.14268038                1.38329569                0.02541522                0.02718894
               3.97329384                6.96661360               72.08882123                0.01000002               -0.14305569               -0.69658521                0.12927564                2.02527954                0.08118155                0.05624696
               4.97233426                6.97534441               72.09332851                0.01000001               -0.12380681               -0.49741605                0.12327928                2.54200190                0.12433754                0.09740904
               5.97081770                6.98667408               72.09790100                0.01000000               -0.16278775               -0.28248942                0.12378300                2.62764571                0.14709758                0.15333137
               6.96907851                6.99659033               72.10242355                0.01000000               -0.14436332               -0.21182807                0.12842956                2.41917446                0.15108626                0.21300120
               7.96793044                7.00191027               72.10668359                0.01000000               -0.09091030               -0.18164506                0.13566808                1.95103150                0.12472081                0.28892016
               8.96726030                6.99954552               72.11048979                0.01000001               -0.08231407               -0.07368372                0.14567371                1.12005334                0.06587888                0.33255076
               9.96628416                6.98722712               72.11365449                0.01000001               -0.09761447                0.15388195                0.15752162                0.50505081                0.02301721                0.31909134
              -0.00787148                7.97569943               72.07378006                0.99999998               -0.03296242               -0.03124341                0.10635675                0.00078771               -0.00345850                0.02291442
               0.99179890                7.96767277               72.07779442                0.99999999               -0.03393206               -0.03403289                0.11291217               -0.00038550               -0.00815393               -0.00268410
               1.99144988                7.95964834               72.08173027                0.01000001               -0.25899035               -0.26893798                0.11924051                0.58677629               -0.00292630               -0.01026369
               2.98661909                7.95791128               72.08584745                0.01000003               -0.24567986               -0.59127964                0.14252904                1.10634393                0.04985419               -0.03779349
               3.98653628                7.95789074               72.09045264                0.01000001                0.01083010               -1.16979515                0.13896589                1.86675284                0.12736906               -0.07121585
               4.98683569                7.96985340               72.09549954                0.01000000               -0.08908835               -0.43847715                0.12805322                2.46299336                0.18477007                0.04729549
               5.98475452                7.98399579               72.10085616                0.01000000               -0.16431925               -0.20029733                0.12849558                2.25707308                0.22466773                0.10540106
               6.98354931                7.99462382               72.10608930                0.01000000               -0.03701425               -0.18518383                0.13123752                1.91617843                0.25250810                0.17021370
               7.98401423                8.00073642               72.11134058                0.01000001                0.03546026               -0.15063707                0.13616363                1.60739102                0.23899583                0.26672154
               8.98425851                8.00057864               72.11575903                0.01000001               -0.08191931                0.12693933                0.14740229                1.15921049                0.15193228                0.47003988
               9.98237585                7.99073170               72.11913023                0.01000002               -0.18826678                0.66873754                0.16387259                0.69973367                0.08778180                0.35609735
               0.00018058                8.97538294               72.07497779                1.00000000               -0.03435097               -0.03254345                0.11024074                0.00083465                0.00128627                0.02156019
               0.99983707                8.96732521               72.07889889                0.99999999               -0.03551794               -0.03526331                0.11730612                0.00015565                0.00074571                0.00239111
               1.99947022                8.95928276               72.08281139                0.99999999               -0.03786073               -0.03734013                0.12475780               -0.00067953               -0.00663715               -0.00897918
               2.99907985                8.95124318               72.08659624                0.86727034               -0.03917208               -0.35296798                0.12918484                0.22155716               -0.01231312               -0.03190921
               3.99868678                8.94321770               72.09040933                0.01000000               -0.17953870               -0.75353324                0.13210080                1.77491710                0.14625191               -0.08245002
               4.99548908                8.96657487               72.09735043                0.01000002               -0.37490183               -0.13473491                0.13698636                2.09206083                0.30090599                0.00995793
               5.99118874                8.98266813               72.10331829                0.01000001               -0.24138175               -0.09321879                0.13620958                1.37996847                0.28885028                0.04985005
               6.99066145                8.99288665               72.10916760                0.01000000                0.14673493               -0.18846380                0.13773613                1.05459868                0.33220390                0.09197835
               7.99412344                8.99889752               72.11514113                0.01000000                0.48938894               -0.27309476                0.14156762                0.96373302                0.47506707                0.16726252
               9.00044922                9.00208430               72.12285327                1.00000000                0.29246354                0.05216689                0.14302414                0.97397970                0.30557025                0.30049545
               9.99997271                9.00060187               72.12439374                1.00000000               -0.04765132                0.46456166                0.17789583                0.80644421               -0.00275119                0.20314300
               0.00826068                9.97504856               72.07607577                1.00000000               -0.03584836               -0.03343772                0.11510134               -0.00009548                0.01563802                0.01654174
               1.00790220                9.96696751               72.07999389                0.99999999               -0.03711798               -0.03576997                0.12267702               -0.00083880                0.01980981                0.00163582
               2.00751832                9.95890154               72.08399824                1.00000000               -0.03934520               -0.03812202                0.13027310               -0.00096936                0.02191727               -0.00394988
               3.00711529                9.95085192               72.08796945                0.99999997               -0.04076927               -0.03912552                0.13515623               -0.00052953                0.01631771                0.00022618
               4.00670293                9.94282007               72.09187335                0.06883480               -0.89444078               -0.03976262                0.13786905                1.61695446                0.17498152               -0.00470321
               4.98922648                9.96715870               72.09900700                0.01000001               -1.03304135                0.05838322                0.14594440                1.33930633                0.33790647               -0.01946480
               5.98604211                9.98213141               72.10538103                0.01000001               -0.04072926               -0.05367229                0.14770122                0.67012872                0.32171897                0.01488040
               6.98841189                9.99085455               72.11142675                0.01000000                0.40245669               -0.20321016                0.15063440                0.43219996                0.35975017                0.03572498
               7.99409124                9.99527452               72.11778869                0.01000002                0.68109338               -0.36230039                0.15535278                0.53515153                0.41265307                0.09056460
               9.00203376               10.00162198               72.12399965                1.00000000                0.36891735               -0.04623221                0.16909367                0.39587406                0.23713734                0.00363142
              10.00146959               10.00002293               72.12553998                0.99999998               -0.05641705               -0.05789386                0.20399828               -0.01021694                0.00325202               -0.00317896
              -0.09743773               -0.01718161               73.05692892                1.00000000               -0.02338310               -0.02555733                0.08053521                0.00069656               -0.00786606                0.00723805
               0.90232844               -0.02184817               73.06032299                0.99290469               -0.02267476               -0.02410059                0.07592200               -0.00066923               -0.00865977               -0.00140416
               1.90210877               -0.02648636               73.06370554                0.01000000                0.16819858               -0.02271010                0.07125843                0.28250387               -0.00738461               -0.00344517
               2.90569241               -0.02542986               73.06712737                0.01000000                0.25441183               -0.06127597                0.06801116                0.22294761               -0.02364027                0.02737802
               3.90719701               -0.02254026               73.07021416                0.01000001                0.07648564               -0.01946337                0.07603860                0.21734080               -0.08971441                0.04329080
               4.90722212               -0.01664983               73.07280398                0.01000003               -0.10156334                0.01270851                0.08678094                0.26818648               -0.17165678                0.06527354
               5.90516574               -0.00799283               73.07534191                0.01000003               -0.47095012                0.07479658                0.17553499                0.52708829               -0.45877305                0.16367048
               6.89780312                0.00563327               73.07447600                1.00000000               -0.38347262               -0.03347640                0.10507899                0.56046347               -0.19433889               -0.00366744
               7.89749629                0.00807181               73.07746027                0.99999999               -0.03019137               -0.03320858                0.10190316               -0.00086852               -0.00374742               -0.00224268
               8.89719929                0.01054818               73.08043178                1.00000000               -0.02928835               -0.03241059                0.09889383               -0.00060303               -0.00416594               -0.00139765
               9.89691052                0.01305943               73.08342711                1.00000000               -0.02887685               -0.03161246                0.09519307               -0.00178316               -0.00360825               -0.00421744
              -0.09276421                0.98256281               73.05878450                0.99999999               -0.02616752               -0.02689137                0.08947880                0.00140130                0.00129296                0.00778627
               0.90697412                0.97791082               73.06218193                0.01000000               -0.02555702               -0.02538577                0.08494973               -0.00006479                0.00409333               -0.00415763
               1.90672465                0.97328654               73.06563630                0.01000000               -0.05126414                0.03844628                0.08039745                0.23280103                0.01139822                0.02962298
               2.90594883                0.97395738               73.06917728                0.01000000               -0.08721236               -0.02624747                0.07617592                0.38890152               -0.02897155                0.06420825
               3.90498040                0.97726510               73.07218238                0.01000004               -0.16592828               -0.00264763                0.07683432                0.48250353               -0.10921060                0.09088321
               4.90263027                0.98347725               73.07463454                0.01000000               -0.28426659                0.02271065                0.08162345                0.60689017               -0.20101620                0.14295667
               5.89929507                0.99275514               73.07663195                0.01000001               -0.36274176                0.01844768                0.08655326                0.78311905               -0.29121609                0.17218328
               6.89537543                1.00529851               73.07781233                0.75675950               -0.21324621               -0.03551986                0.11794850                0.50524352               -0.09075475               -0.00706380
               7.89503015                1.00773972               73.08081937                0.99999999               -0.03379913               -0.03513105                0.11437279               -0.00101689               -0.00026151               -0.00341721
               8.89469945                1.01022407               73.08381690                1.00000000               -0.03243529               -0.03513067                0.11055107                0.00061430               -0.00081382               -0.00121101
               9.89438144                1.01274330               73.08681149                0.99999999               -0.03180080               -0.03583088                0.10730034               -0.00020230               -0.00056671               -0.00334243
              -0.08810572                1.98228056               73.06065510                0.16531751               -0.02908630               -0.02301207                0.09856413                0.00328126                0.00316167                0.05846695
               0.91160341                1.97764411               73.06398601                0.01000000               -0.05880245               -0.02265594                0.09414253                0.06245608                0.04865695                0.04343954
               1.91071823                1.97428256               73.06822775                0.01000001               -0.10557715                0.00854819                0.08289064                0.34649584                0.05165684                0.10275116
               2.90949187                1.97404519               73.07177788                0.01000000               -0.16955089               -0.02317124                0.08113710                0.68533392               -0.01718809                0.12537853
               3.90732721                1.97740678               73.07490640                0.01000000               -0.28109903               -0.00635309                0.08293081                0.95076549               -0.07009578                0.15625644
               4.90386989                1.98380438               73.07759736                0.01000001               -0.41601713                0.00881788                0.08864098                1.13921835               -0.11558223                0.19915016
               5.89900687                1.99237612               73.07978153                0.01000000               -0.54732450               -0.02185977                0.09251452                1.34886654               -0.13880048                0.18244212
               6.89292340                2.00492287               73.08110010                0.01000000               -0.32282429               -0.25495842                0.13302506                0.94933466               -0.08083395                0.08845132
               7.89255038                2.00736919               73.08416537                0.65191946               -0.03577026               -0.03678861                0.12118651               -0.00402946                0.00596853               -0.00287051
               8.89220800                2.00984557               73.08721172                0.99999998               -0.03411823               -0.03984887                0.12012816               -0.00140790                0.00345186                0.00432616
               9.89186802                2.01234281               73.09021662                0.99999999               -0.03399784               -0.04185636                0.12287334                0.00073520                0.00306429                0.00297854
              -0.08342569                2.98210257               73.06352700                0.01000001               -0.03530805                0.14031106                0.09697104                0.36343427                0.00169301                0.15390466
               0.91622123                2.97745770               73.06679321                0.01000000                0.03395860               -0.12159508                0.09439004                0.40166686                0.05821922                0.16848175
               1.91725348                2.97345750               73.07120958                0.01000000                0.01550296               -0.15507851                0.09137746                0.68972343                0.05562746                0.17093961
               2.91653129                2.97349396               73.07481862                0.01000000               -0.15084782               -0.11187102                0.08808386                1.08778644               -0.00337372                0.17149454
               3.91423653                2.97713804               73.07809701                0.01000004               -0.30429977               -0.06998813                0.09035362                1.40407036               -0.02771341                0.18574962
               4.91044530                2.98365361               73.08108435                0.01000000               -0.45413093               -0.04376687                0.09522408                1.64973430               -0.03867334                0.20030785
               5.90515391                2.99231794               73.08376820                0.01000001               -0.55381169               -0.05515789                0.10649265                1.72301839               -0.03751435                0.19887846
               6.89936906                3.00019934               73.08634979                0.01000000               -0.75635227               -0.26565761                0.11741731                1.60878467               -0.10485965                0.20217201
               7.89002686                3.00700395               73.08752319                0.01000004               -0.48356963               -0.11849481                0.10596806                0.94830968               -0.08043118                0.12444642
               8.88969767                3.00942710               73.09070489                0.76322639               -0.03126025               -0.03906062                0.11282854               -0.01197108                0.01083713                0.01864398
               9.88940166                3.01190618               73.09371952                0.99999997               -0.02960103               -0.03869476                0.11592288                0.00479615                0.00526179                0.01576126
              -0.07154730                3.98508678               73.06738827                0.01000000               -0.01708813                0.11538046                0.11791691                0.38032410                0.01787477                0.17612662
               0.92828182                3.97521221               73.07110413                0.01000002                0.00118684               -0.30150861                0.12226819                0.72215651               -0.02178325                0.27761494
               1.92847644                3.97118099               73.07459236                0.01000000               -0.03573807               -0.27420292                0.10726738                1.16971263               -0.03558381                0.22314551
               2.92756706                3.97180777               73.07807256                0.01000004               -0.16137360               -0.20592610                0.09937335                1.50197157               -0.01992484                0.19525356
               3.92524897                3.97600702               73.08147926                0.01000000               -0.29411909               -0.16473289                0.09879269                1.80922518               -0.00352698                0.18733250
               4.92168468                3.98292904               73.08477254                0.01000001               -0.41637301               -0.12513918                0.10320109                2.06027732                0.00502296                0.19452134
               5.91692151                3.99127297               73.08792598                0.01000001               -0.56357969               -0.11392667                0.11083987                2.20360791               -0.00206365                0.19992878
               6.91041308                3.99960972               73.09076470                0.01000001               -0.73163457               -0.08628446                0.11756954                2.10644144               -0.01941120                0.19240300
               7.90228882                4.00499929               73.09342194                0.01000001               -1.16733677               -0.11047891                0.12665578                2.07251586               -0.10784966                0.24253229
               8.88706635                4.00906435               73.09443058                0.01000000               -0.76415170               -0.19885119                0.05288758                1.78633085               -0.09201192                0.17047241
               9.88700578                4.01156892               73.09739845                0.01000000               -0.00605670               -1.05099787                0.05391743                1.79309831               -0.00876647                0.16826029
              -0.05607006                4.98441018               73.07016114                0.01000003                0.06402119               -0.43914512                0.11950501                0.74837382               -0.03588081                0.12877166
               0.94457015                4.97142753               73.07466245                0.01000000                0.00611183               -0.43399377                0.14269638                1.21900971               -0.12864883                0.25672314
               1.94405217                4.96797344               73.07787141                0.01000001               -0.14127269               -0.26373652                0.12753820                1.51913124               -0.14950246                0.24751276
               2.94174469                4.96937544               73.08129946                0.01000000               -0.23762048               -0.28192596                0.11533333                1.76132442               -0.05090673                0.16887378
               3.93929976                4.97384338               73.08478011                0.01000001               -0.26798979               -0.28169384                0.10856646                2.06359949                0.00484975                0.16437509
               4.93638490                4.98115083               73.08837674                0.01000001               -0.33771868               -0.23719765                0.10923205                2.36404933                0.03415376                0.17540987
               5.93254539                4.99003941               73.09192108                0.01000001               -0.43066667               -0.17164009                0.11412707                2.53735911                0.03953835                0.18957021
               6.92777157                4.99847365               73.09530088                0.01000000               -0.52614213               -0.13820811                0.12067518                2.58789976                0.02200462                0.20994209
               7.92202255                5.00479437               73.09832249                0.01000000               -0.44584512               -0.14303112                0.12227929                2.48336480                0.00497866                0.22622717
               8.91885466                5.00545007               73.10130596                0.01000000               -0.08840216               -0.47213207                0.12817572                2.15725200               -0.00933401                0.30737849
               9.92025450                4.99088622               73.10425188                0.01000000                0.13998410               -1.32481615                0.12824501                1.41678627               -0.03076681                0.31270851
              -0.03061452                5.97630388               73.07162258                0.01000003               -0.02867287               -0.46806808                0.00178996                0.82124935               -0.49426943                0.40470361
               0.96909875                5.96653233               73.07599406                0.01000001               -0.42371624               -0.22494349                0.11041170                1.23073774               -0.47986962                0.23993967
               1.96091116                5.96590626               73.08092430                0.01000000               -0.60875726               -0.23273881                0.14938236                1.46944009               -0.16348824                0.07980908
               2.95692361                5.96616925               73.08400429                0.01000001               -0.30827941               -0.38396718                0.12778648                1.69449079               -0.07398387                0.09605594
               3.95474557                5.97037315               73.08773318                0.01000001               -0.20769830               -0.43709093                0.11659185                2.11945411                0.02304819                0.11575194
               4.95276964                5.97818509               73.09169307                0.01000001               -0.21998507               -0.37068869                0.11492406                2.50410240                0.06735873                0.14008784
               5.95034587                5.98784016               73.09570198                0.01000000               -0.26767637               -0.25512560                0.11730804                2.69139015                0.08371533                0.17071186
               6.94741611                5.99684556               73.09960243                0.01000000               -0.26830902               -0.18635841                0.12190173                2.63428946                0.07929293                0.20738338
               7.94497969                6.00213867               73.10329572                0.01000000               -0.16482855               -0.23995152                0.12832711                2.29254240                0.05676162                0.24997192
               8.94411954                5.99962171               73.10671134                0.01000003               -0.02552353               -0.39628955                0.13522791                1.42304050                0.02477415                0.27581567
               9.94446922                5.98507259               73.10994007                0.01000000                0.03496732               -0.29528851                0.14261081                0.69706937                0.00246278                0.27897350
              -0.02010199                6.97504882               73.07367708                0.91385819               -0.03154942               -0.07755918                0.10196451                0.12095035               -0.00249893                0.06398654
               0.97958252                6.96692866               73.07790562                0.01000001               -0.30469786                0.00151652                0.11276765                0.34366830               -0.01777825                0.03593217
               1.97380405                6.96331867               73.08186039                0.01000003               -0.42074444               -0.37487861                0.12477577                1.06065522               -0.03721955               -0.04877491
               2.97116763                6.96169609               73.08595675                0.01000000               -0.20655215               -0.48558984                0.12560528                1.37837890                0.00245963                0.01254127
               3.96967301                6.96510156               73.09013385                0.01000001               -0.10838501               -0.70081611                0.12449122                2.00862252                0.06211053                0.04629777
               4.96899993                6.97373705               73.09455906                0.01000000               -0.09801437               -0.49785892                0.12081618                2.52538363                0.11193485                0.08689730
               5.96771272                6.98493690               73.09912698                0.01000000               -0.14205393               -0.27936558                0.12078139                2.61603987                0.14172336                0.13816180
               6.96615885                6.99474648               73.10368380                0.01000000               -0.13077419               -0.19989567                0.12391197                2.42026657                0.14758910                0.19356064
               7.96509724                6.99999534               73.10801124                0.01000000               -0.08886497               -0.15434343                0.13005216                1.96389907                0.12282443                0.26547622
               8.96438155                6.99752428               73.11191634                0.01000000               -0.09015532               -0.03258990                0.13948346                1.13239776                0.06578491                0.31085982
               9.96329413                6.98498045               73.11520203                0.01000001               -0.10874167                0.18769904                0.15152141                0.51123220                0.02380542                0.30666495
              -0.01195519                7.97475269               73.07484884                0.99999999               -0.03425368               -0.03098270                0.10682961               -0.00209117               -0.00483729                0.02111865
               0.98770227                7.96656266               73.07892740                1.00000000               -0.03439902               -0.03500642                0.11405232               -0.00161343               -0.00789009                0.00086793
               1.98735683                7.95840869               73.08292358                0.01000001               -0.24969918               -0.26433925                0.11941302                0.58078768               -0.00051380               -0.01965707
               2.98270829                7.95645746               73.08719824                0.01000001               -0.22398833               -0.59290102                0.13191030                1.09567622                0.04669115               -0.05328724
               3.98287706                7.95635682               73.09179410                0.01000001                0.03668485               -1.17214715                0.13266921                1.84185270                0.10852294               -0.07497462
               4.98344198                7.96822791               73.09680075                0.01000000               -0.06099121               -0.44417636                0.12770913                2.44418657                0.17114354                0.03733043
               5.98165724                7.98225285               73.10212666                0.01000000               -0.13394928               -0.20566521                0.12566105                2.25045597                0.21322396                0.09384974
               6.98076300                7.99284764               73.10738065                0.01000001               -0.00886852               -0.18524876                0.12716579                1.93113496                0.24119147                0.15354740
               7.98147987                7.99905180               73.11267794                0.01000001                0.05096967               -0.13819808                0.13157248                1.64644865                0.22811476                0.24514885
               8.98178239                7.99896992               73.11721057                0.01000001               -0.08491692                0.16571011                0.14304788                1.20491456                0.14500235                0.44372050
               9.97978153                7.98882657               73.12075339                0.01000002               -0.20008645                0.71585584                0.16041550                0.73242697                0.08350142                0.34823303
              -0.00376375                8.97442916               73.07608181                1.00000000               -0.03419967               -0.03295724                0.11041150                0.00087979                0.00008168                0.02100954
               0.99589425                8.96622853               73.08007330                0.99999999               -0.03556168               -0.03494268                0.11794582                0.00034581                0.00039374                0.00260676
               1.99552501                8.95803188               73.08406096                0.99999998               -0.03806152               -0.03810457                0.12532971               -0.00110528               -0.00568877               -0.00923437
               2.99513302                8.94983807               73.08789913                0.89325894               -0.03927010               -0.35056319                0.12983206                0.21197640               -0.01059447               -0.03615559
               3.99473961                8.94165862               73.09177565                0.01000000               -0.15726951               -0.75451322                0.13223551                1.75246784                0.14256128               -0.08130886
               4.99198763                8.96485352               73.09869666                0.01000002               -0.33187515               -0.14871278                0.13581785                2.07632688                0.28786821                0.00343219
               5.98810211                8.98082359               73.10467263                0.01000000               -0.20025150               -0.10536383                0.13319116                1.37582995                0.27552995                0.04349896
               6.98798260                8.99104150               73.11052466                0.01000004                0.19009167               -0.19891165                0.13404214                1.06808765                0.31563616                0.08228252
               7.99190394                8.99723138               73.11653709                0.01000000                0.53612342               -0.28067366                0.13789503                1.00605626                0.45134003                0.15410602
               8.99870507                9.00083848               73.12427003                1.00000000                0.31627073                0.07057425                0.14015095                1.03193212                0.28794704                0.28507371
               9.99822936                8.99929757               73.12617482                1.00000000               -0.04757119                0.49442688                0.17829302                0.84621617               -0.00238102                0.19757037
               0.00446367                9.97409355               73.07722805                0.99999999               -0.03572010               -0.03356154                0.11560818               -0.00023161                0.01668524                0.01662542
               1.00410647                9.96586381               73.08122808                0.99999999               -0.03692456               -0.03647206                0.12325355               -0.00112561                0.02074136                0.00195443
               2.00372518                9.95764660               73.08530255                0.99999998               -0.03926976               -0.03852818                0.13121011               -0.00086431                0.02353481               -0.00472092
               3.00332107                9.94944619               73.08933599                0.99999996               -0.04071070               -0.03918793                0.13604840               -0.00019668                0.01871582               -0.00101645
               4.00291097                9.94126656               73.09330351                0.02123834               -0.87587609               -0.03920633                0.13854812                1.60750839                0.17241514               -0.00746676
               4.98580355                9.96525365               73.10044165                0.01000000               -0.99625552                0.04001302                0.14522591                1.32554306                0.32944423               -0.02129182
               5.98298585                9.98014558               73.10685248                0.01000001               -0.00432954               -0.06780152                0.14478665                0.66916244                0.31145311                0.01199970
               6.98571696                9.98886941               73.11291602                0.01000000                0.44090781               -0.21720931                0.14737333                0.43807369                0.34480497                0.03206625
               7.99180401                9.99343833               73.11932823                0.01000002                0.73189439               -0.37930533                0.15266687                0.56560631                0.39616889                0.08588106
               9.00035485               10.00038140               73.12568827                1.00000000                0.39918387               -0.04570843                0.16868748                0.42881722                0.22639073                0.00354473
               9.99978769                9.99871511               73.12759373                0.99999991               -0.05671610               -0.05824547                0.20683617               -0.01079577                0.00311775               -0.00349718
              -0.10088696               -0.01901075               74.05773815                1.00000000               -0.02364759               -0.02577019                0.08141958                0.00048109               -0.00767475                0.00701615
               0.89887656               -0.02376687               74.06108416                0.99011249               -0.02289022               -0.02408038                0.07638193               -0.00081698               -0.00859293               -0.00150112
               1.89865523               -0.02849826               74.06441783                0.01000000                0.16610829               -0.02267560                0.07134502                0.29594412               -0.00641036               -0.00355908
               2.90219873               -0.02726700               74.06781193                0.01000000                0.23709137               -0.05054080                0.07391325                0.23814807               -0.02335506                0.01716865
               3.90339706               -0.02409068               74.07100748                0.01000000                0.01891273               -0.00842443                0.08078114                0.23847093               -0.08110955                0.03291322
               4.90257698               -0.01778535               74.07369065                0.01000001               -0.27691037                0.06055349                0.11123563                0.47121149               -0.14525325                0.07507292
               5.89785885               -0.00537052               74.07697562                0.01880769               -0.38779909               -0.07435191                0.09352314                0.56052973               -0.60844624                0.27811181
               6.89482100                0.00220430               74.07555207                1.00000000               -0.16793686               -0.03468774                0.11009196                0.25767937               -0.21964959               -0.00269800
               7.89450012                0.00463751               74.07849998                1.00000000               -0.03135623               -0.03323782                0.10538903               -0.00083720               -0.00309419               -0.00171606
               8.89419388                0.00710238               74.08143466                1.00000000               -0.02987117               -0.03181298                0.10033505               -0.00055993               -0.00356010               -0.00032981
               9.89390269                0.00959455               74.08438677                0.99999999               -0.02911834               -0.03066498                0.09506008               -0.00192675               -0.00268170               -0.00087604
              -0.09612603                0.98073155               74.05968156                0.99999999               -0.02618202               -0.02705915                0.08986870                0.00123012                0.00133902                0.00771069
               0.90361215                0.97599233               74.06303181                0.01000000               -0.02546125               -0.02522605                0.08480842               -0.00040228                0.00422517               -0.00408371
               1.90336474                0.97127499               74.06643898                0.01000000               -0.06178644                0.04916028                0.07979649                0.24641474                0.01329030                0.02530968
               2.90237642                0.97222759               74.06996337                0.01000000               -0.11619002               -0.01412072                0.07925918                0.41571031               -0.02961324                0.05289404
               3.90104094                0.97582508               74.07299194                0.01000002               -0.22236988                0.00607615                0.09270586                0.54141268               -0.10592901                0.08347367
               4.89792902                0.98282019               74.07560755                0.01000000               -0.37858061                0.03089973                0.10922183                0.77908943               -0.23667203                0.15631690
               5.89346933                0.99388596               74.07751276                0.01000001               -0.27676221               -0.18816813                0.20450536                0.85726533               -0.35752117                0.33386744
               6.89239378                1.00185742               74.07900343                0.74279269               -0.07133121               -0.03635174                0.12054217                0.27720580               -0.07349008               -0.00584328
               7.89204270                1.00430513               74.08196279                0.99999999               -0.03420097               -0.03470164                0.11487317               -0.00003458               -0.00074892               -0.00395407
               8.89170976                1.00678425               74.08491793                1.00000000               -0.03257278               -0.03312982                0.10955863                0.00047993               -0.00088715                0.00070952
               9.89139125                1.00928790               74.08787866                1.00000000               -0.03185074               -0.03225418                0.10494180               -0.00085555               -0.00061411                0.00272083
              -0.09138392                1.98044807               74.06164196                0.21009876               -0.02910009               -0.02492743                0.09876046                0.00079091                0.00295513                0.05478510
               0.90832508                1.97572861               74.06492617                0.01000000               -0.06339067               -0.02188269                0.09349807                0.06957003                0.04427592                0.04089566
               1.90734827                1.97248495               74.06903641                0.01000001               -0.11811190                0.03585969                0.07753242                0.35679987                0.04995627                0.09245511
               2.90596284                1.97245058               74.07258227                0.01000000               -0.18577765               -0.00876757                0.08014687                0.71029353               -0.00958276                0.11388004
               3.90363271                1.97603084               74.07576498                0.01000000               -0.29324746               -0.00513129                0.09085132                1.00674107               -0.06563307                0.15106943
               4.90009789                1.98283265               74.07854864                0.01000001               -0.38328923               -0.03622398                0.11111710                1.20652782               -0.12231327                0.21331882
               5.89596693                1.99086611               74.08078416                0.01000000               -0.50759764               -0.18169576                0.11227485                1.36659315               -0.11461694                0.22048300
               6.88994594                2.00147726               74.08241825                0.01000000               -0.31971653               -0.22497938                0.13168266                0.85842047               -0.06591364                0.07458576
               7.88957260                2.00394348               74.08538497                0.61486030               -0.03626164               -0.03674219                0.12232771                0.00136508                0.00355390               -0.00998208
               8.88922071                2.00643978               74.08840729                1.00000000               -0.03471642               -0.03581519                0.11798405                0.00182458                0.00472502                0.00250039
               9.88887827                2.00894947               74.09141203                0.99999994               -0.03424361               -0.03532734                0.11515174               -0.00076011                0.00339486                0.00681001
              -0.08667130                2.98023300               74.06452773                0.01000000               -0.03620294                0.15676637                0.10448848                0.34123828                0.00003333                0.15531523
               0.91296667                2.97555467               74.06776296                0.01000000                0.02250350               -0.07793965                0.09511433                0.38717979                0.05197996                0.16948338
               1.91377877                2.97199218               74.07204685                0.01000000                0.00348613               -0.11509207                0.07241273                0.68442210                0.05825104                0.15885272
               2.91303639                2.97205224               74.07564444                0.01000000               -0.14925354               -0.09539782                0.07735527                1.08054521                0.00886673                0.16176286
               3.91079370                2.97572245               74.07898784                0.01000004               -0.29060408               -0.07596987                0.08934237                1.41279305               -0.01597512                0.18100495
               4.90722431                2.98209571               74.08205307                0.01000000               -0.43185589               -0.08194515                0.10190064                1.64715535               -0.02635036                0.19883539
               5.90215658                2.99025204               74.08483095                0.01000001               -0.53697446               -0.08604418                0.11257452                1.66104827               -0.02508928                0.19867491
               6.89648482                2.99735783               74.08748568                0.01000000               -0.75245441               -0.22425980                0.11473446                1.54388704               -0.09351247                0.18479966
               7.88710749                3.00357029               74.08871749                0.01000000               -0.48722800               -0.10111222                0.11431834                0.93192752               -0.07353758                0.11428444
               8.88674026                3.00606794               74.09186814                0.60259031               -0.03754098               -0.03811624                0.12724295                0.00167082                0.01291448                0.00083657
               9.88635667                3.00858135               74.09487984                0.99999994               -0.03835890               -0.03775075                0.12598767               -0.00113033               -0.00061557                0.00299820
              -0.07520250                3.98358340               74.06856641                0.01000000               -0.04880003                0.17844474                0.14139777                0.34950648                0.00555669                0.20761563
               0.92430950                3.97416982               74.07217629                0.01000001               -0.01291754               -0.16554896                0.07681017                0.63877858               -0.02921731                0.27471051
               1.92453915                3.97018311               74.07547439                0.01000000               -0.02330116               -0.21895240                0.06782976                1.06393936               -0.02939106                0.21350179
               2.92384347                3.97054263               74.07895515                0.01000004               -0.13470212               -0.19984304                0.07729825                1.44700807               -0.00514426                0.18923318
               3.92184510                3.97451145               74.08241561                0.01000000               -0.26660314               -0.17013764                0.08981497                1.78118353                0.01071014                0.18232600
               4.91851141                3.98119375               74.08578762                0.01000001               -0.39596654               -0.13573691                0.10171514                2.02793207                0.01765150                0.18808998
               5.91392577                3.98914523               74.08902445                0.01000001               -0.55029892               -0.11402252                0.11001106                2.15621102                0.00872343                0.19033908
               6.90750543                3.99699207               74.09191705                0.01000001               -0.72123663               -0.06497712                0.11466535                2.05495334               -0.01061902                0.18102296
               7.89950104                4.00192123               74.09460918                0.01000001               -1.16311869               -0.07749937                0.11283116                2.03234344               -0.11804357                0.22946408
               8.88424306                4.00567745               74.09524427                0.01000000               -0.78361005               -0.19069953                0.14388867                1.76579033               -0.10775992                0.19058484
               9.88382884                4.00819445               74.09822692                0.01000000               -0.04142191               -1.04811687                0.14029209                1.78469560               -0.01397889                0.19001343
              -0.06085402                4.98380189               74.07167350                0.01000001               -0.00034508               -0.08136930                0.17945253                0.37182890               -0.06727528                0.03993727
               0.93914253                4.97224370               74.07564035                0.01000000               -0.02306168               -0.24403596                0.08040789                0.73253751               -0.14773053                0.28651104
               1.93868475                4.96761313               74.07890179                0.01000001               -0.07471596               -0.28690716                0.06984366                1.29813690               -0.13551845                0.23151933
               2.93764821                4.96805538               74.08226630                0.01000000               -0.14592494               -0.28802724                0.08043735                1.67398994               -0.04184987                0.16732912
               3.93576625                4.97231970               74.08579343                0.01000001               -0.22495204               -0.28638544                0.09481832                2.02795077                0.01479094                0.16066868
               4.93314917                4.97938097               74.08944004                0.01000001               -0.31418844               -0.23862954                0.10460063                2.32874969                0.04224935                0.16659172
               5.92948248                4.98797159               74.09304224                0.01000001               -0.41706438               -0.16456597                0.11146174                2.49820021                0.04658185                0.17634040
               6.92480788                4.99605829               74.09647759                0.01000000               -0.52067533               -0.11834660                0.11621864                2.54687029                0.02684378                0.19447624
               7.91906897                5.00202030               74.09952148                0.01000000               -0.45125165               -0.11206145                0.12117368                2.43348664                0.00578944                0.21278310
               8.91578285                5.00225395               74.10252316                0.01000002               -0.10261926               -0.43596060                0.11862418                2.11905455               -0.01022805                0.32112325
               9.91701659                4.98761902               74.10546783                0.01000001                0.12337385               -1.29555341                0.12057048                1.40655702               -0.02968488                0.33255071
              -0.04464953                5.98195601               74.07166604                0.01000002               -0.02014629               -0.48703121                0.17726407                0.55623270               -0.32533612                0.34264391
               0.95514901                5.96928910               74.07788179                0.01000001               -0.03301356               -0.32262628                0.13654947                0.93006169               -0.41023675                0.23545939
               1.95469020                5.96444496               74.08187226                0.01000000               -0.12661532               -0.29631966                0.06428873                1.29929629               -0.18108360                0.07238507
               2.95261670                5.96478208               74.08510944                0.01000001               -0.18058390               -0.39648631                0.09415883                1.68308411               -0.06543517                0.09620335
               3.95107852                5.96878374               74.08883494                0.01000001               -0.15910955               -0.44205290                0.10349549                2.09032812                0.02436117                0.11139350
               4.94943451                5.97642116               74.09281159                0.01000001               -0.19330326               -0.37031469                0.10940300                2.47504150                0.06869431                0.13112983
               5.94721246                5.98585391               74.09685502                0.01000002               -0.25201934               -0.24794786                0.11398113                2.66244680                0.08486803                0.15615727
               6.94439413                5.99462513               74.10079830                0.01000000               -0.26186736               -0.16874831                0.11838258                2.60821191                0.07990655                0.18945351
               7.94197511                5.99968001               74.10454446                0.01000000               -0.16843461               -0.20913668                0.12280621                2.27092569                0.05733055                0.23325542
               8.94102543                5.99695824               74.10801785                0.01000001               -0.03726318               -0.34952317                0.12854189                1.41028717                0.02583349                0.26408466
               9.94122985                5.98228338               74.11131067                0.01000000                0.02044140               -0.25359578                0.13387840                0.69112953                0.00353473                0.27759176
              -0.02439555                6.97406127               74.07469816                0.90934705               -0.03496439               -0.41194633                0.10266163                0.59919951               -0.00507923                0.10946289
               0.97525481                6.96579117               74.07904680                0.01000002               -0.32133821               -0.18833206                0.11499691                0.80214082               -0.02150999               -0.01064190
               1.96917769                6.96168674               74.08307675                0.01000003               -0.41418469               -0.36951662                0.11860715                1.14065218               -0.04312368               -0.04111343
               2.96697112                6.96012565               74.08714824                0.01000000               -0.16219764               -0.49394614                0.11045065                1.39287970                0.00005402                0.00920678
               3.96593374                6.96347864               74.09131106                0.01000001               -0.06956438               -0.70171477                0.11339556                1.99373674                0.05749024                0.04543128
               4.96557983                6.97197468               74.09574484                0.01000000               -0.07031506               -0.49793734                0.11569876                2.50127412                0.10666197                0.07850380
               5.96452744                6.98301263               74.10031663                0.01000000               -0.12169021               -0.27633889                0.11752371                2.59676428                0.13571255                0.12404113
               6.96314602                6.99268332               74.10490179                0.01000000               -0.11865283               -0.18856107                0.12031031                2.41263346                0.14191331                0.17475209
               7.96215438                6.99783757               74.10928463                0.01000001               -0.08804053               -0.12832322                0.12548628                1.96758301                0.11839994                0.24425189
               8.96138521                6.99526349               74.11327946                0.01000004               -0.09827425                0.00705611                0.13374951                1.13836042                0.06407389                0.29353755
               9.96018889                6.98254710               74.11668492                0.01000001               -0.11963195                0.22200918                0.14545812                0.51488051                0.02395215                0.30085238
              -0.01612534                7.97371708               74.07591666                0.99999999               -0.03083057               -0.03186729                0.10713010                0.01027629               -0.00717764                0.02090186
               0.98356636                7.96552246               74.08007547                1.00000000               -0.03529503               -0.03572554                0.11486760               -0.00257365               -0.01305083               -0.00943889
               1.98316876                7.95705463               74.08411853                0.01000000               -0.24419822               -0.24838175                0.11890928                0.58668147               -0.00268261               -0.02424934
               2.97868239                7.95490316               74.08848565                0.01000000               -0.20322664               -0.58716671                0.12442547                1.09384876                0.04559652               -0.05690680
               3.97910423                7.95474944               74.09310602                0.01000001                0.06218042               -1.16982637                0.12393910                1.81829905                0.09915609               -0.07969234
               4.97992600                7.96646241               74.09805373                0.01000000               -0.03325665               -0.44860315                0.12409434                2.41736637                0.15791644                0.03238120
               5.97843910                7.98032713               74.10336938                0.01000000               -0.10520715               -0.21001727                0.12243289                2.23677086                0.20140143                0.08171190
               6.97782186                7.99085391               74.10863262                0.01000001                0.01537546               -0.18431990                0.12378593                1.93750433                0.22790306                0.13711164
               7.97874661                7.99711354               74.11397203                0.01000007                0.06306244               -0.12541066                0.12786149                1.67479684                0.21537588                0.22433183
               8.97908311                7.99709936               74.11861999                0.01000001               -0.08931883                0.20222928                0.13929869                1.23976251                0.13624524                0.41859323
               9.97696023                7.98672357               74.12233854                0.01000002               -0.21228779                0.75829212                0.15692791                0.75875106                0.07823199                0.34381567
              -0.00780077                8.97342393               74.07718602                1.00000000               -0.03334393               -0.03142496                0.11054915                0.00125593                0.00036362                0.01987074
               0.99186579                8.96507666               74.08125781                0.99999999               -0.03343053               -0.04127162                0.11818083               -0.00143277               -0.00006282               -0.00056336
               1.99153062                8.95671910               74.08531799                0.99999999               -0.03562555               -0.03653415                0.12423126                0.00090009               -0.00867257               -0.01040488
               2.99115328                8.94838232               74.08919288                0.80775171               -0.03950747               -0.34726473                0.13601940                0.20846309               -0.01651740               -0.03906904
               3.99074047                8.94008211               74.09305404                0.01000000               -0.14019053               -0.75672119                0.15130487                1.72808214                0.13894865               -0.08620595
               4.98834947                8.96300262               74.10006679                0.01000002               -0.29345602               -0.16097599                0.13187766                2.05352769                0.27905028                0.00142559
               5.98487135                8.97881229               74.10598211                0.01000001               -0.16198830               -0.11577219                0.12972996                1.36760045                0.25966684                0.03605916
               6.98510970                8.98899693               74.11184844                0.01000001                0.22667586               -0.20703876                0.13090516                1.07637273                0.29862602                0.07266624
               7.98940486                8.99532935               74.11789903                0.01000000                0.57303678               -0.28518321                0.13510336                1.04034556                0.42584413                0.14134523
               8.99657044                8.99930807               74.12565629                1.00000000                0.33553216                0.08785168                0.13826128                1.07982769                0.26746770                0.27119152
               9.99611551                8.99771294               74.12795960                1.00000000               -0.04549287                0.51958095                0.17842807                0.87852705               -0.00509213                0.19010549
               0.00059432                9.97308858               74.07838794                0.99999999               -0.03517895               -0.03353417                0.11622389                0.00035296                0.01622792                0.01636597
               1.00024253                9.96469703               74.08245896                1.00000000               -0.03566035               -0.03796334                0.12292936               -0.00055810                0.02093406                0.00043393
               1.99988111                9.95632395               74.08662244                1.00000000               -0.03769400               -0.03951558                0.12976051               -0.00190896                0.02228973               -0.00492215
               2.99948865                9.94795786               74.09069042                0.99999995               -0.04177661               -0.04244522                0.14240334               -0.00190957                0.01305674               -0.00191932
               3.99904558                9.93961502               74.09464431                0.14141748               -0.86111314               -0.04670942                0.15785602                1.59476201                0.17175100               -0.00936363
               4.98226638                9.96324289               74.10191152                0.01000000               -0.96243897                0.02402737                0.14210699                1.31152500                0.32551474               -0.02159419
               5.97979680                9.97801169               74.10827677                0.01000001                0.02829323               -0.08005999                0.14091720                0.66605737                0.29883078                0.00913708
               6.98283225                9.98671314               74.11437422                0.01000000                0.47227873               -0.22837877                0.14435193                0.44216408                0.33027127                0.02847785
               7.98924237                9.99140988               74.12084203                0.01000002                0.77319132               -0.39194783                0.15057653                0.59091360                0.37942465                0.08190567
               8.99829607                9.99885640               74.12737340                1.00000000                0.42393302               -0.04516758                0.16856286                0.45782922                0.21673984                0.00533676
               9.99772103                9.99711519               74.12967670                1.00000000               -0.05750424               -0.05977572                0.20866266               -0.01356876                0.00519792               -0.00519781
              -0.10428325               -0.02092811               75.05855731                1.00000000               -0.02398545               -0.02586733                0.08253396               -0.00000843               -0.00713916                0.00648441
               0.89547689               -0.02577351               75.06185062                0.98990866               -0.02319785               -0.02393599                0.07710010               -0.00115629               -0.00802461               -0.00183962
               1.89525279               -0.03059985               75.06513244                0.01100916                0.15793828               -0.02260072                0.07200107                0.29981822                0.00076193               -0.00361435
               2.89863566               -0.02938936               75.06860563                0.01000001                0.22216554               -0.03657095                0.05618923                0.25424162               -0.01322436               -0.00043711
               3.89969610               -0.02585092               75.07182978                0.01000002               -0.01433729                0.00279973                0.09079005                0.27251280               -0.03171375                0.02681277
               4.89834891               -0.01898219               75.07502869                0.01000002               -0.42803528                0.07277859                0.13119202                0.62001210               -0.12070136                0.02997392
               5.89113540               -0.00350487               75.07721237                0.09288758               -0.32315739               -0.08711872                0.04336552                0.64427630               -0.38674736                0.26456487
               6.89188576               -0.00132342               75.07667783                1.00000000                0.02082066               -0.03611225                0.11623267               -0.01217887               -0.17351181               -0.00212190
               7.89155181                0.00111188               75.07956805                0.99999998               -0.03222328               -0.03362237                0.10809531               -0.00018957               -0.00416543               -0.00205138
               8.89124130                0.00357506               75.08243848                1.00000000               -0.02995669               -0.03094240                0.10002995               -0.00023372               -0.00401121               -0.00020843
               9.89095268                0.00605813               75.08532831                1.00000000               -0.02886243               -0.02856753                0.09271031               -0.00219110               -0.00254626                0.00000322
              -0.09943794                0.97881321               75.06058187                0.99999999               -0.02608625               -0.02709019                0.08996018                0.00080211                0.00118178                0.00794936
               0.90030120                0.97398713               75.06387810                0.01000000               -0.02515792               -0.02478060                0.08397357               -0.00107401                0.00415526               -0.00424831
               1.90005890                0.96917415               75.06723223                0.01000000               -0.07487920                0.05618234                0.07804280                0.25331314                0.01643392                0.01893610
               2.89880361                0.97024493               75.07076247                0.01000000               -0.14206292                0.00155462                0.08269293                0.44694622               -0.00573159                0.03060503
               3.89721764                0.97417708               75.07403649                0.01000006               -0.27138018                0.01415954                0.10312979                0.59263740               -0.06816716                0.06131714
               4.89337601                0.98174560               75.07681898                0.01000000               -0.42344348                0.03037137                0.13834369                0.97511975               -0.06011548                0.09213195
               5.88874877                0.99562394               75.08072206                0.01000001               -0.19602026               -0.35137695                0.20708459                0.91396957               -0.19654951                0.15869668
               6.88945560                0.99831546               75.08022318                0.73772239                0.01759513               -0.03721220                0.12345383                0.01351327               -0.17144198               -0.00609353
               7.88910067                1.00077565               75.08311683                0.99999999               -0.03448838               -0.03485152                0.11580975                0.00153903               -0.00189883               -0.00529759
               8.88876584                1.00326564               75.08600807                1.00000000               -0.03264903               -0.03148501                0.10848854                0.00154667               -0.00132073               -0.00002767
               9.88844769                1.00577246               75.08891032                1.00000000               -0.03181411               -0.02901528                0.10148549               -0.00063049               -0.00046881                0.00281140
              -0.09461505                1.97853008               75.06263031                0.26929855               -0.02904750               -0.02643951                0.09893301               -0.00279663                0.00270367                0.05663048
               0.90509448                1.97373088               75.06585597                0.01000000               -0.06618478               -0.01949397                0.09172333                0.07171218                0.03771649                0.03713129
               1.90406126                1.97052380               75.06977840                0.01000001               -0.12614127                0.05112142                0.07067554                0.36944883                0.05383928                0.06388908
               2.90257165                1.97064173               75.07338081                0.01000000               -0.20065394                0.00557013                0.07976633                0.74362445                0.01721544                0.08214624
               3.90004818                1.97443227               75.07672343                0.01000000               -0.30836057               -0.00347863                0.09614892                1.06371306               -0.01935169                0.11507059
               4.89640444                1.98162524               75.07981971                0.01000001               -0.36016282               -0.06771332                0.12620971                1.28672461               -0.07670762                0.15107860
               5.89284492                1.98946759               75.08202703                0.01000000               -0.47000606               -0.37863973                0.15015247                1.33889231               -0.11384615                0.07715420
               6.88700432                1.99793234               75.08373376                0.01000002               -0.31062540               -0.19594672                0.12849354                0.75519646               -0.06182473                0.06228448
               7.88663241                2.00041485               75.08661193                0.55021174               -0.03644448               -0.03551109                0.12209341                0.00429984                0.00152188               -0.02268015
               8.88627543                2.00294536               75.08957141                1.00000000               -0.03529931               -0.03293930                0.11726691                0.00453720                0.00447385                0.00630402
               9.88592643                2.00547782               75.09251965                0.99999999               -0.03490025               -0.03105981                0.11068395               -0.00084134                0.00369786                0.01144678
              -0.08989547                2.97828442               75.06561677                0.01000000               -0.03628120                0.17816238                0.11463346                0.32923927               -0.00455279                0.18612270
               0.90974172                2.97359725               75.06869549                0.01000000                0.02162473               -0.04509257                0.08418835                0.38035841                0.04103754                0.13527411
               1.91053703                2.97019658               75.07265783                0.01000000                0.00129554               -0.09638598                0.05598647                0.69037862                0.08696089                0.10004536
               2.90976763                2.97035633               75.07636572                0.01000000               -0.15143172               -0.08355753                0.07167162                1.09311155                0.05472810                0.12339180
               3.90750839                2.97410750               75.07988386                0.01000000               -0.28462258               -0.07921575                0.09082034                1.43087615                0.02241205                0.14962949
               4.90407518                2.98039133               75.08312237                0.01000000               -0.41444379               -0.11606835                0.11071570                1.64840364               -0.00216370                0.16171810
               5.89921952                2.98805115               75.08601969                0.01000001               -0.52314514               -0.12995654                0.12063033                1.60634131               -0.01577862                0.16917780
               6.89361228                2.99439653               75.08864448                0.01000000               -0.75229329               -0.18470345                0.11514469                1.48129703               -0.09978870                0.16163250
               7.88417365                3.00006543               75.08980956                0.01000006               -0.49093381               -0.08151346                0.10642475                0.90893169               -0.06229368                0.09832821
               8.88379360                3.00260685               75.09324975                0.73821034               -0.04038562               -0.03621644                0.13638626                0.00519044                0.02902967                0.03149125
               9.88336594                3.00515126               75.09623927                0.99999994               -0.04276623               -0.03483136                0.12982923               -0.00383507                0.00629644                0.03040346
              -0.07865592                3.98209333               75.07021622                0.01000002               -0.05545876                0.19124374                0.19829335                0.30087939               -0.08059293                0.23383935
               0.92078949                3.97282903               75.07264033                0.01000003               -0.01171642               -0.10724993                0.00255329                0.55741361               -0.03313750                0.10131952
               1.92110975                3.96859608               75.07594896                0.01000000               -0.01332692               -0.19953067                0.04782865                1.01601905                0.06700114                0.13259734
               2.92052295                3.96897058               75.07961852                0.01000000               -0.12395261               -0.18942976                0.06520575                1.42501534                0.06710113                0.15007350
               3.91863070                3.97284796               75.08327556                0.01000000               -0.25470425               -0.17350347                0.08814695                1.76233696                0.05318707                0.16075334
               4.91542887                3.97930387               75.08680684                0.01000001               -0.38320742               -0.14663160                0.10477353                1.99632007                0.04095458                0.16680864
               5.91096655                3.98686846               75.09012620                0.01000001               -0.54064461               -0.11577489                0.11312334                2.10771819                0.01844484                0.16822408
               6.90461598                3.99423827               75.09305800                0.01000001               -0.71829137               -0.04573034                0.11398764                2.00665180               -0.01204175                0.16571050
               7.89660072                3.99878458               75.09567856                0.01000001               -1.16612830               -0.04753403                0.11558388                1.99509361               -0.08212820                0.22856540
               8.88129341                4.00222103               75.09730836                0.01000000               -0.79199072               -0.17539446                0.17120897                1.74533864               -0.06968106                0.16531948
               9.88076091                4.00478120               75.10020429                0.01001988               -0.05325017               -1.03488896                0.16085744                1.77629288               -0.00427215                0.16840882
              -0.06534927                4.98210930               75.07375019                0.01000000               -0.02634843               -0.09806189                0.31179659                0.38945484                0.01021282                0.21732183
               0.93438724                4.97145225               75.07627060                0.01000000                0.00325663               -0.24969806                0.04448690                0.69974842                0.01508614                0.04369241
               1.93471586                4.96620596               75.07926829                0.01000001               -0.01855885               -0.27085389                0.03719375                1.20337796                0.02209437                0.13486264
               2.93401606                4.96656773               75.08290821                0.01000000               -0.11470098               -0.28796015                0.06329317                1.62803734                0.05028257                0.14966819
               3.93242184                4.97063743               75.08667647                0.01000001               -0.20174938               -0.28822852                0.08985150                1.98954550                0.05875733                0.14872069
               4.92998108                4.97745870               75.09046875                0.01000000               -0.29911785               -0.24004923                0.10426665                2.28963964                0.06239048                0.15190668
               5.92643948                4.98573565               75.09415031                0.01000001               -0.40759399               -0.15897707                0.11208516                2.45565911                0.05470758                0.15943235
               6.92182920                4.99348192               75.09762525                0.01000002               -0.51733592               -0.10139220                0.11613122                2.50439608                0.03082270                0.17933714
               7.91609276                4.99911475               75.10074597                0.01000000               -0.45627215               -0.08719751                0.12228884                2.39615350                0.00393932                0.20647404
               8.91270375                4.99909896               75.10367844                0.01000002               -0.11606494               -0.40369608                0.12400724                2.09576609               -0.01159023                0.28030724
               9.91377146                4.98445348               75.10666329                0.01000001                0.10677107               -1.26869296                0.12693963                1.39511951               -0.02536738                0.30416006
              -0.04955273                5.98013209               75.07516786                0.01000002                0.02405303               -0.45609191                0.32260340                0.59271806                0.06125315               -0.10399240
               0.95068780                5.96783507               75.07872505                0.01000001               -0.01927180               -0.34650581                0.11890320                0.97166968                0.02471226                0.02589466
               1.95006183                5.96317900               75.08221008                0.01000001               -0.10177839               -0.29779179                0.04362827                1.27502967               -0.01818646                0.09207192
               2.94865223                5.96321137               75.08588747                0.01000001               -0.12655924               -0.40318601                0.07698930                1.64113619                0.01800324                0.10295438
               3.94753065                5.96708339               75.08980309                0.01000001               -0.12643909               -0.44491663                0.09668882                2.05479468                0.05646264                0.10960910
               4.94612345                5.97450289               75.09388113                0.01000001               -0.17370666               -0.36968553                0.10715480                2.43760276                0.08090550                0.12016863
               5.94405651                5.98368892               75.09798160                0.01000006               -0.23993239               -0.24161472                0.11308395                2.62690426                0.08809982                0.14029408
               6.94132480                5.99221043               75.10197008                0.01000000               -0.25748796               -0.15373583                0.11733641                2.57758111                0.07903346                0.17183083
               7.93890675                5.99704063               75.10575184                0.01000000               -0.17273974               -0.18309673                0.12102295                2.24657451                0.05558770                0.21590021
               8.93787000                5.99414711               75.10928218                0.01000003               -0.04762449               -0.31530373                0.12532815                1.39628496                0.02487375                0.25839801
               9.93795426                5.97940734               75.11261764                0.01000000                0.00842590               -0.22419261                0.12943012                0.68556212                0.00421485                0.28228857
              -0.02890086                6.97298746               75.07573032                0.92521563               -0.03254152               -0.37246112                0.10321502                0.61028577               -0.00823590               -0.01761532
               0.97077372                6.96452214               75.08020556                0.01000000               -0.31294977               -0.18360918                0.11514087                0.79071245               -0.02943421               -0.00613714
               1.96484014                6.96025013               75.08423254                0.01000000               -0.39196584               -0.37482653                0.11399385                1.14065184               -0.01676122                0.00384592
               2.96293441                6.95850401               75.08816576                0.01000000               -0.13069616               -0.49683444                0.10090575                1.37347363                0.01833343                0.02774946
               3.96222622                6.96173910               75.09240176                0.01000001               -0.04034042               -0.70316984                0.10770353                1.96612200                0.07001855                0.04511282
               4.96212760                6.97006499               75.09687304                0.01000000               -0.04780966               -0.49746505                0.11241271                2.46888828                0.10859181                0.07157160
               5.96127003                6.98090336               75.10147745                0.01000000               -0.10492435               -0.27336556                0.11564430                2.56960371                0.13181376                0.10942309
               6.96002911                6.99040720               75.10609000                0.01000000               -0.10912281               -0.17836023                0.11841002                2.39715361                0.13510388                0.15600318
               7.95908757                6.99545282               75.11052097                0.01000009               -0.08831848               -0.10582920                0.12284507                1.96394703                0.11185461                0.22467880
               8.95826274                6.99279289               75.11459133                0.01000001               -0.10626604                0.04089161                0.13015249                1.13937954                0.06069197                0.27897735
               9.95696225                6.97996963               75.11811119                0.01000003               -0.13004919                0.25104335                0.14114479                0.51541464                0.02344998                0.29986705
              -0.02041637                7.97268287               75.07699145                0.99999999               -0.03442485               -0.03160811                0.10768091               -0.00195819               -0.00985194                0.02050665
               0.97923938                7.96416288               75.08122475                1.00000000               -0.03453185               -0.03441796                0.11389261               -0.00065446               -0.01836608               -0.02156872
               1.97889299                7.95568247               75.08530177                0.01000000               -0.23033266               -0.24651264                0.11566305                0.58440766               -0.00721305               -0.02650582
               2.97463273                7.95327469               75.08968675                0.01000002               -0.18004395               -0.58260445                0.11874840                1.07348614                0.04379755               -0.04395859
               3.97529211                7.95301999               75.09427288                0.01000001                0.08521167               -1.16714444                0.11800099                1.78486781                0.09841299               -0.06010532
               4.97633696                7.96455359               75.09928264                0.01000000               -0.00928702               -0.45203735                0.12087699                2.38572966                0.15357906                0.02546531
               5.97510637                7.97822161               75.10457532                0.01000000               -0.08092737               -0.21329853                0.11988061                2.21667008                0.19003156                0.07003316
               6.97471841                7.98864322               75.10985637                0.01000000                0.03468199               -0.18269866                0.12163369                1.93557643                0.21436421                0.12083614
               7.97580001                7.99492404               75.11523517                0.01000002                0.07111862               -0.11322666                0.12564496                1.69235615                0.20150337                0.20456416
               8.97614078                7.99496494               75.11999654                0.01000086               -0.09454678                0.23580103                0.13666831                1.26176353                0.12662930                0.39603695
               9.97390907                7.98442821               75.12389195                0.01000002               -0.22317089                0.78959425                0.15428833                0.77425889                0.07281669                0.34279485
              -0.01190005                8.97235530               75.07829279                1.00000000               -0.03389177               -0.03329182                0.11112013                0.00097636                0.00064799                0.01867221
               0.98776103                8.96383378               75.08243691                0.99999999               -0.03417275               -0.03463460                0.11674097                0.00079223               -0.00169205               -0.00416952
               1.98741649                8.95531987               75.08654559                0.99999876               -0.03472085               -0.03716150                0.12189537                0.00323325               -0.00641133               -0.01279661
               2.98706661                8.94685192               75.09061951                0.90359437               -0.03859086               -0.34309844                0.13531779                0.20019765               -0.00228097               -0.03320769
               3.98664468                8.93839621               75.09480175                0.01000000               -0.12130209               -0.75606194                0.15322178                1.70025459                0.12394775               -0.06580281
               4.98464057                8.96102424               75.10133422                0.01000002               -0.25654422               -0.17106416                0.12716068                2.02928037                0.25110420               -0.00307438
               5.98151379                8.97663739               75.10726723                0.01000000               -0.13011835               -0.12413018                0.12715222                1.35611956                0.24833915                0.02923694
               6.98203820                8.98675323               75.11314276                0.01000000                0.25495911               -0.21279041                0.12871881                1.07948058                0.28152567                0.06316519
               7.98661297                8.99318828               75.11923916                0.01000001                0.59778225               -0.28668023                0.13358154                1.06744949                0.40080480                0.12925477
               8.99399385                8.99750891               75.12703526                1.00000000                0.34539634                0.10444901                0.13869146                1.11437096                0.24739807                0.25817350
               9.99352090                8.99576151               75.12974338                1.00000000               -0.04729490                0.53743741                0.17809482                0.89405900               -0.00780315                0.18376331
              -0.00335381                9.97201703               75.07955253                1.00000000               -0.03555468               -0.03382639                0.11729705               -0.00005967                0.01557137                0.01602758
               0.99629065                9.96347019               75.08368667                1.00000000               -0.03533428               -0.03635868                0.12279403               -0.00092783                0.01854761               -0.00076919
               1.99593951                9.95493924               75.08789776                1.00000000               -0.03651543               -0.03806303                0.12724464               -0.00057216                0.02465004               -0.00584687
               2.99556034                9.94641272               75.09218406                0.99999999               -0.04073107               -0.04392076                0.14151984               -0.00265216                0.02789814                0.00183411
               3.99512489                9.93789875               75.09646063                0.17612545               -0.84394720               -0.04974638                0.15824310                1.58400040                0.15899645               -0.00211460
               4.97868139                9.96113230               75.10328379                0.01000001               -0.93125569                0.01080617                0.13711626                1.29609501                0.30214645               -0.02093452
               5.97649977                9.97573900               75.10967083                0.01000000                0.05378658               -0.08983813                0.13792668                0.66135375                0.29104252                0.00672649
               6.97975713                9.98438741               75.11580306                0.01000000                0.49467753               -0.23658161                0.14212624                0.44446385                0.31659067                0.02507366
               7.98639332                9.98919044               75.12233976                0.01000002                0.80489239               -0.39978446                0.14949887                0.61136041                0.36394595                0.07832653
               8.99585497                9.99705392               75.12905953                1.00000000                0.44458606               -0.04549850                0.16888754                0.48543820                0.20762735                0.00712893
               9.99528504                9.99517695               75.13176698                1.00000000               -0.05699289               -0.05845589                0.20829752               -0.01128242                0.00727812               -0.00689847
              -0.10761638               -0.02293019               76.05938882                1.00000000               -0.02426818               -0.02522737                0.08412488               -0.00069046               -0.00537760                0.00483062
               0.89214094               -0.02785861               76.06262616                0.99464311               -0.02340776               -0.02393707                0.07837767               -0.00160233               -0.00569467               -0.00250210
               1.89191546               -0.03277014               76.06585785                0.01000000                0.15479814               -0.02221204                0.07378070                0.30281893               -0.01336635               -0.00290273
               2.89523690               -0.03158942               76.06893572                0.01000000                0.22121308               -0.03460756                0.06898227                0.26217667               -0.01407881               -0.02321150
               3.89633973               -0.02796785               76.07282328                0.01000004               -0.02282691                0.01256247                0.08807058                0.26928482               -0.01151828                0.01930924
               4.89478036               -0.02076644               76.07631449                0.01000002               -0.39324825                0.06382533                0.14390825                0.56954053               -0.09207997                0.04109876
               5.88847476               -0.00709861               76.07784293                0.23526639               -0.28926398               -0.06561624                0.06080632                0.55781858               -0.17272001                0.00622702
               6.88899508               -0.00492883               76.07787672                1.00000000                0.00907012               -0.03915483                0.12509404               -0.01261534               -0.14495675               -0.00340719
               7.88865616               -0.00250108               76.08066189                0.99999999               -0.03208440               -0.03436170                0.10985810                0.00076001               -0.00760259               -0.00305971
               8.88835339               -0.00004097               76.08343526                0.99999999               -0.02920279               -0.03082629                0.09920479                0.00022829               -0.00539501               -0.00061006
               9.88807211                0.00243058               76.08624098                1.00000000               -0.02812870               -0.02777979                0.09028575               -0.00231942               -0.00311985               -0.00099853
              -0.10269486                0.97681754               76.06148076                1.00000000               -0.02602524               -0.02620156                0.08920495                0.00020778               -0.00019416                0.00857603
               0.89704489                0.97190202               76.06471128                0.01000000               -0.02480432               -0.02437703                0.08212952               -0.00097103                0.00265891               -0.00498954
               1.89680905                0.96700774               76.06799984                0.01000000               -0.07936811                0.05536345                0.07390794                0.25736204                0.02239159                0.01323099
               2.89545753                0.96806451               76.07161723                0.01000000               -0.15939837                0.00398331                0.08607763                0.46376259               -0.00933001               -0.00614963
               3.89362109                0.97215777               76.07505453                0.01000001               -0.27081910                0.02263720                0.07690824                0.61371816                0.00186187                0.03940208
               4.89004114                0.97987181               76.07837443                0.01000000               -0.37434740                0.01586372                0.14578009                0.92836180                0.01467515                0.03172815
               5.88613414                0.99224523               76.08165445                0.01000001               -0.17354898               -0.28949116                0.09091009                0.80545040               -0.10092632               -0.05794894
               6.88657016                0.99467963               76.08147251                0.72955778                0.00428491               -0.03847620                0.12779305                0.00197700               -0.15354191               -0.01149015
               7.88621984                0.99715531               76.08427898                0.99999999               -0.03401578               -0.03508881                0.11606867                0.00401813               -0.00312853               -0.00704774
               8.88588985                0.99965076               76.08708770                1.00000000               -0.03212388               -0.03174264                0.10781351                0.00232694               -0.00136032               -0.00012010
               9.88557736                1.00215278               76.08990837                0.99999999               -0.03124891               -0.02905642                0.09907621               -0.00061686               -0.00012383                0.00178611
              -0.09778118                1.97654578               76.06362062                0.35259514               -0.02875091               -0.02240003                0.09823713               -0.00044111                0.00224551                0.06741319
               0.90193131                1.97165385               76.06676064                0.01000000               -0.06593047               -0.02131094                0.08846229                0.07464102                0.03058307                0.02391353
               1.90090021                1.96833713               76.07044992                0.01000001               -0.12845934                0.04073929                0.06446278                0.39375528                0.06328698                0.02753085
               2.89936213                1.96849025               76.07417759                0.01000000               -0.20467128                0.01089287                0.07743912                0.77975766                0.04829941                0.04121104
               3.89680679                1.97248489               76.07768796                0.01000000               -0.30509933                0.00025683                0.09242705                1.09623958                0.00629410                0.08755745
               4.89326014                1.97955083               76.08107283                0.01000001               -0.35154154               -0.07644357                0.11186911                1.28153722               -0.01310778                0.07981185
               5.88977596                1.98711157               76.08378721                0.01000001               -0.45677955               -0.33544036                0.15509653                1.24677856               -0.10708038                0.00442802
               6.88412455                1.99430165               76.08498812                0.01000001               -0.30052834               -0.17066949                0.11524120                0.69072922               -0.08099890                0.04935922
               7.88376539                1.99679715               76.08782684                0.45408069               -0.03610455               -0.03425431                0.12050213                0.00295146                0.00707434               -0.03658382
               8.88340246                1.99932417               76.09075263                0.99999998               -0.03548277               -0.03449738                0.11854694                0.00267976                0.00793336                0.00888538
               9.88305573                2.00184945               76.09362571                0.99999999               -0.03467237               -0.03239982                0.10934797               -0.00116236                0.00574670                0.01021044
              -0.09291981                2.97636954               76.06682040                0.02818586               -0.03338329                0.17904896                0.11894112                0.31655573               -0.00740869                0.25885775
               0.90674636                2.97147580               76.06944672                0.01000000                0.03837825               -0.15163728                0.06679661                0.37178442                0.05057015                0.04920623
               1.90784775                2.96782253               76.07316657                0.01000000                0.00792828               -0.10562693                0.05986985                0.74036690                0.13395240                0.04002222
               2.90690492                2.96828237               76.07707787                0.01000000               -0.16812292               -0.07443191                0.07584005                1.14185732                0.10570519                0.08750824
               3.90448530                2.97216291               76.08080425                0.01000027               -0.29298567               -0.07754939                0.09582819                1.44871578                0.06570199                0.12176607
               4.90104521                2.97834294               76.08426738                0.01000000               -0.40832016               -0.11836488                0.11763593                1.62966197                0.02616461                0.12030473
               5.89631889                2.98553642               76.08724356                0.01000001               -0.51730183               -0.13662424                0.12562292                1.55954221               -0.01146702                0.10710328
               6.89069917                2.99126624               76.08978857                0.01000000               -0.75312751               -0.14880726                0.11445548                1.42607440               -0.11284049                0.13986528
               7.88125634                2.99647022               76.09084598                0.01000000               -0.49040169               -0.06205063                0.08727310                0.87686579               -0.05342613                0.09399888
               8.88089114                2.99896082               76.09459586                0.78025818               -0.03763935               -0.03845089                0.13530282               -0.00220914                0.04850150                0.02797754
               9.88050356                3.00150479               76.09747643                0.99999999               -0.03875824               -0.03554203                0.12101079               -0.00081322                0.00784974                0.02195206
              -0.08166258                3.98012676               76.07253228                0.02234166               -0.04234090                0.34135796                0.11813751                0.21089502               -0.23413232                0.34299049
               0.91791401                3.96862110               76.07222735                0.01000001                0.02817812               -0.22214849                0.03300824                0.66388159                0.05539708               -0.08855666
               1.91890098                3.96622459               76.07643097                0.01000000               -0.00275576               -0.18866308                0.06603250                1.15108933                0.22909555                0.05450485
               2.91785889                3.96700161               76.08025927                0.01000002               -0.15902264               -0.17512875                0.07882503                1.45250316                0.13962673                0.11523194
               3.91572053                3.97093390               76.08417855                0.01000000               -0.26895159               -0.16981632                0.09798713                1.75387402                0.09834270                0.13661505
               4.91247986                3.97718354               76.08788310                0.01000001               -0.38385117               -0.14990633                0.11286143                1.96615568                0.06481815                0.13785267
               5.90804350                3.98437909               76.09128692                0.01000000               -0.53838112               -0.11157928                0.11961078                2.06216029                0.02528123                0.14045950
               6.90171224                3.99132551               76.09419680                0.01000001               -0.72176899               -0.02666422                0.11692801                1.96532780               -0.00811709                0.15024806
               7.89360812                3.99555613               76.09692085                0.01000000               -1.16942661               -0.01968594                0.12298153                1.95339386               -0.06838593                0.22692285
               8.87832371                3.99855516               76.09866845                0.01000000               -0.78282977               -0.15372735                0.13880435                1.71625299               -0.05776438                0.15199640
               9.87795153                4.00113861               76.10144406                0.01000000               -0.03721785               -1.01079584                0.12382875                1.76014460                0.00087672                0.15812211
              -0.06569059                4.98319670               76.07790943                0.01000006               -0.03832562               -0.11153622                0.04976212               -0.06020029                0.05221213               -0.15229183
               0.93392615                4.96703283               76.07653009                0.01000000               -0.09101910               -0.13745323                0.22453175                0.57697993                0.31965385               -0.13471895
               1.93248903                4.96404927               76.07964567                0.01000001               -0.13402385               -0.24512215                0.06216780                1.30050181                0.21618599                0.08600857
               2.93124568                4.96477979               76.08353216                0.01000000               -0.15540873               -0.27089968                0.08383986                1.61210854                0.13826732                0.13172006
               3.92938085                4.96876658               76.08759046                0.01000001               -0.21612689               -0.28416342                0.09820810                1.95293070                0.10425879                0.13285899
               4.92692314                4.97534481               76.09152537                0.01000000               -0.29803622               -0.23816472                0.10996564                2.24662555                0.08211871                0.13126896
               5.92342013                4.98330484               76.09528394                0.01000001               -0.40472300               -0.15232177                0.11633002                2.41150672                0.06266047                0.13696929
               6.91882868                4.99073295               76.09880021                0.01000000               -0.51627802               -0.08642533                0.11989307                2.46319900                0.03453614                0.16155672
               7.91309457                4.99607650               76.10196726                0.01000000               -0.45974794               -0.06665634                0.12410906                2.36599810                0.01089003                0.18921639
               8.90963372                4.99588627               76.10500330                0.01000002               -0.12775159               -0.36709246                0.12892661                2.07728872               -0.00328497                0.26197482
               9.91053954                4.98128887               76.10800662                0.01000001                0.09058167               -1.23286791                0.12931927                1.37484531               -0.01851830                0.29952259
              -0.05053885                5.97789604               76.07811811                0.01000000               -0.08601153               -0.56556603                0.09211794                0.40659172                0.25664411               -0.47332451
               0.94860104                5.96587203               76.08025985                0.01000001               -0.11485500               -0.19320508                0.18946239                0.78319327                0.26185695               -0.09438243
               1.94716405                5.96132215               76.08274483                0.01000001               -0.16086426               -0.26886506                0.08164546                1.20524113                0.08442634                0.12492116
               2.94538375                5.96158362               76.08664923                0.01000001               -0.14749668               -0.39492149                0.09062350                1.59256847                0.09174626                0.11184029
               3.94421412                5.96525063               76.09076871                0.01000000               -0.12548178               -0.44277357                0.10176927                2.00412999                0.09014389                0.10347737
               4.94287412                5.97242024               76.09495468                0.01000001               -0.16643089               -0.36701065                0.11005187                2.39174235                0.09385598                0.10588908
               5.94088550                5.98133265               76.09911669                0.01000004               -0.23347797               -0.23487301                0.11510743                2.58516859                0.09121262                0.12101022
               6.93820456                5.98959700               76.10314503                0.01000000               -0.25553661               -0.14079239                0.11862780                2.54331317                0.07787686                0.15105225
               7.93577477                5.99422301               76.10696492                0.01000000               -0.17737217               -0.16143421                0.12188962                2.22059395                0.05312862                0.19652928
               8.93465711                5.99121331               76.11052441                0.01000001               -0.05657671               -0.28787976                0.12512044                1.38166777                0.02333334                0.24270155
               9.93464323                5.97648125               76.11389927                0.01000000               -0.00138786               -0.20093692                0.12852012                0.68072670                0.00448606                0.27818707
              -0.03351075                6.97188538               76.07676246                0.96090411               -0.03253420               -0.31656463                0.10179354                0.41582808               -0.00833824               -0.11323161
               0.96616390                6.96316873               76.08134962                0.01000000               -0.28034896               -0.15061524                0.11028474                0.65371357               -0.03656953               -0.03610229
               1.96088227                6.95867197               76.08535663                0.01000001               -0.34976701               -0.35553430                0.11051892                1.05555450                0.00036364                0.03318547
               2.95916856                6.95688136               76.08916636                0.01000000               -0.11277178               -0.50066930                0.10434807                1.32213110                0.03735145                0.04688898
               3.95862683                6.95991111               76.09346513                0.01000001               -0.02462965               -0.70516425                0.10885721                1.91928626                0.08381409                0.04694706
               4.95867597                6.96800460               76.09799309                0.01000001               -0.03400437               -0.49548531                0.11313218                2.42586506                0.11168964                0.06242917
               5.95794674                6.97860738               76.10262951                0.01000000               -0.09356928               -0.26973145                0.11571497                2.53465017                0.12770302                0.09320240
               6.95680458                6.98791710               76.10726999                0.01000002               -0.10283022               -0.16895594                0.11824982                2.37425893                0.12759294                0.13593792
               7.95589014                6.99284782               76.11174153                0.01000001               -0.08978776               -0.08681885                0.12206094                1.95366515                0.10437996                0.20420618
               8.95500883                6.99012867               76.11588251                0.01000000               -0.11359805                0.06814361                0.12865384                1.13620589                0.05646350                0.26523785
               9.95361818                6.97727013               76.11950781                0.01000003               -0.13906515                0.27330086                0.13887360                0.51327171                0.02246679                0.30012575
              -0.02478899                7.97156474               76.07807027                0.99999999               -0.03222974               -0.03245440                0.10597799                0.00123324               -0.01069401                0.01940731
               0.97488872                7.96285973               76.08235332                1.00000000               -0.03242546               -0.03186879                0.11018911                0.00309843               -0.01841399               -0.02253084
               1.97456251                7.95421147               76.08643179                0.01000000               -0.21507435               -0.24023927                0.11012949                0.55240141               -0.00835285               -0.02973102
               2.97058723                7.95157023               76.09086062                0.01000006               -0.15429511               -0.58302530                0.11650086                1.03094095                0.04778426               -0.03429161
               3.97147660                7.95114735               76.09546604                0.01000000                0.10539590               -1.16663990                0.11976073                1.74090963                0.09788699               -0.05466971
               4.97269515                7.96251054               76.10047127                0.01000000                0.00946987               -0.45323134                0.11801122                2.35103863                0.14710832                0.02053364
               5.97166600                7.97593802               76.10576699                0.01000000               -0.06229264               -0.21529309                0.11897465                2.18950941                0.17955535                0.05775664
               6.97144930                7.98621788               76.11106529                0.01000001                0.04852501               -0.18017848                0.12074009                1.92561518                0.20054820                0.10440387
               7.97263650                7.99248663               76.11648492                0.01000005                0.07548100               -0.10189785                0.12485738                1.69983113                0.18740218                0.18544670
               8.97295892                7.99257618               76.12135336                0.01000001               -0.10053737                0.26399414                0.13547108                1.27329929                0.11727343                0.37591655
               9.97062575                7.98194727               76.12542430                0.01000002               -0.23331618                0.81215230                0.15263830                0.78335975                0.06806644                0.34348553
              -0.01607606                8.97123629               76.07940842                0.99999999               -0.03447862               -0.03375427                0.11213634                0.00082822               -0.00051381                0.01817909
               0.98357915                8.96253135               76.08359263                0.99999999               -0.03520722               -0.03388004                0.11522170                0.00052127               -0.00185693               -0.00500012
               1.98321979                8.95386718               76.08775589                0.99999998               -0.03638258               -0.03543975                0.11959352                0.00018615               -0.00463734               -0.01168276
               2.98285150                8.94522086               76.09189923                0.99999995               -0.03575351               -0.33523871                0.12023679                0.18038185               -0.00187052               -0.03075281
               3.98250472                8.93657831               76.09611848                0.01000000               -0.09727136               -0.74461927                0.11685351                1.66841438                0.11979161               -0.06107502
               4.98090607                8.95893997               76.10261000                0.01000002               -0.22375671               -0.17927442                0.12616121                2.00635839                0.24011277               -0.00450110
               5.97802959                8.97430152               76.10852515                0.01000009               -0.10688963               -0.12995045                0.12519407                1.34029679                0.23527809                0.02230869
               6.97876828                8.98431353               76.11442282                0.01000000                0.27494375               -0.21619376                0.12766299                1.07770904                0.26529351                0.05387176
               7.98352846                8.99080986               76.12057066                0.01000001                0.61229482               -0.28557076                0.13319933                1.08616733                0.37784370                0.11765333
               8.99101418                8.99540856               76.12843012                1.00000000                0.35073640                0.11871283                0.14010373                1.13829011                0.23095773                0.24514827
               9.99054319                8.99351318               76.13152150                1.00000000               -0.04709849                0.54913787                0.17749943                0.90175893               -0.00743270                0.18133778
              -0.00736254                9.97088966               76.08073388                1.00000000               -0.03692065               -0.03466304                0.11988685                0.00059912                0.01532402                0.01606214
               0.99226825                9.96218213               76.08491484                1.00000000               -0.03803667               -0.03492202                0.12329945               -0.00043945                0.01770438               -0.00009552
               1.99187672                9.95350267               76.08916733                0.99999998               -0.03922563               -0.03645109                0.12690139               -0.00014044                0.02385788               -0.00579151
               2.99148374                9.94486546               76.09352082                0.99999999               -0.03754754               -0.03553964                0.12540716                0.00083849                0.02482513                0.00316575
               3.99112577                9.93625496               76.09780917                0.04601903               -0.81923127               -0.03233477                0.12003762                1.56508442                0.15321643               -0.00064505
               4.97509911                9.95892505               76.10465385                0.01000000               -0.90136979               -0.00149276                0.13439449                1.27350640                0.29683153               -0.01983695
               5.97309838                9.97333901               76.11103530                0.01000000                0.06980105               -0.09625041                0.13572771                0.65532678                0.28195236                0.00421664
               6.97649513                9.98189400               76.11721674                0.01000000                0.50832244               -0.24195299                0.14089234                0.44449552                0.30436335                0.02180825
               7.98326482                9.98677522               76.12383200                0.01000002                0.82631337               -0.40346445                0.14927628                0.62645782                0.35045104                0.07463344
               8.99302140                9.99495044               76.13075115                1.00000000                0.45934331               -0.04581212                0.16949381                0.50846309                0.19844969                0.00704270
               9.99245169                9.99293003               76.13384265                1.00000000               -0.05697087               -0.05831494                0.20692241               -0.01119071                0.00714392               -0.00721678
              -0.11086547               -0.02501537               77.06023980                1.00000000               -0.02405530               -0.02316881                0.08651151               -0.00158305               -0.00152280                0.00044575
               0.88889397               -0.02999380               77.06341818                1.00000000               -0.02293094               -0.02533365                0.08044179               -0.00219254                0.00023347               -0.00300521
               1.88867591               -0.03494187               77.06660805                0.01393283                0.12473410               -0.02114342                0.07733048                0.23134704                0.01178249                0.00018675
               2.89138866               -0.03521662               77.06998528                0.01000001                0.17055285                0.00966765                0.20077688                0.26809724               -0.08970655               -0.19890467
               3.89208696               -0.02992725               77.07359119                0.01000006                0.00495031                0.00276884                0.06653809                0.48789813                0.05487458               -0.01030258
               4.89148766               -0.02228009               77.07790686                0.01000003               -0.29841014               -0.00980921                0.01056132                0.50438738               -0.24765660                0.22693906
               5.88611876               -0.01100337               77.07842850                0.41804260               -0.26599942               -0.04759484                0.06389948                0.43618862               -0.16734712                0.00226651
               6.88616767               -0.00858313               77.07917972                1.00000000               -0.01387729               -0.04426057                0.13214827                0.00024916               -0.10591953               -0.01212974
               7.88584122               -0.00618351               77.08176521                0.99999999               -0.03066815               -0.03467464                0.10901989                0.00022611               -0.01134206               -0.00383661
               8.88555431               -0.00374201               77.08442257                1.00000000               -0.02811826               -0.03121247                0.09865711               -0.00016276               -0.00550893                0.00013963
               9.88527885               -0.00129662               77.08713402                1.00000000               -0.02754594               -0.02799362                0.08960242               -0.00295936               -0.00299080               -0.00159715
              -0.10590287                0.97475294               77.06236597                1.00000000               -0.02618280               -0.02229624                0.08786929                0.00075706               -0.00352997                0.00791068
               0.89383530                0.96975286               77.06552069                0.01000000               -0.02481690               -0.02662440                0.07963745                0.00383080               -0.00244049               -0.00540746
               1.89360079                0.96484669               77.06871039                0.01000000               -0.11364914                0.04247759                0.06718614                0.21806637                0.02822210                0.01407742
               2.89156231                0.96488005               77.07248402                0.01000000               -0.15515529                0.06109657                0.02853931                0.50823516                0.05891414               -0.18933997
               3.89049768                0.97010044               77.07557466                0.01000000               -0.22463595                0.01804763                0.06519031                0.69668090               -0.27453126                0.10464485
               4.88706960                0.97762181               77.07973458                0.01000000               -0.34327577               -0.01956938                0.17766855                0.84878056               -0.13655832                0.23112409
               5.88363217                0.98852068               77.08254026                0.01000001               -0.16546812               -0.25147937                0.08694930                0.70108595               -0.10290348               -0.05392431
               6.88376023                0.99097426               77.08277904                0.66568375               -0.01046257               -0.04067045                0.13655594                0.00630536               -0.13161490               -0.03094452
               7.88342291                0.99346975               77.08543820                1.00000000               -0.03254958               -0.03501621                0.11555295                0.00698885               -0.00459603               -0.00788101
               8.88310924                0.99594587               77.08816434                0.99999999               -0.03095208               -0.03215464                0.10746847                0.00173015                0.00054864                0.00155388
               9.88280387                0.99842344               77.09089185                0.99999999               -0.03053684               -0.02947014                0.09823810               -0.00142561                0.00126017                0.00058963
              -0.10085018                1.97453870               77.06459505                0.45748962               -0.02729893               -0.01015106                0.09276663                0.02383025               -0.00158191                0.08073417
               0.89887683                1.96947371               77.06762522                0.01000000               -0.06198914               -0.03191006                0.08539635                0.09703160                0.02174580                0.00106272
               1.89791004                1.96590768               77.07106766                0.01000001               -0.12886122                0.00846420                0.05556146                0.42578718                0.08362320                0.00306491
               2.89629961                1.96600531               77.07492959                0.01000000               -0.23156091                0.05723822                0.06862149                0.86038872                0.02671762                0.03718992
               3.89327882                1.97043371               77.07857197                0.01000000               -0.31282898               -0.00241065                0.09753647                1.12292224                0.01778193                0.13318781
               4.89004303                1.97732852               77.08205709                0.01000001               -0.32453958               -0.08173257                0.10720531                1.23114531                0.01750229                0.07033404
               5.88678803                1.98396704               77.08512896                0.01000001               -0.43491574               -0.29135886                0.12738527                1.15558823               -0.09230707               -0.02215182
               6.88134472                1.99060346               77.08603858                0.01000001               -0.28893215               -0.14945578                0.08765551                0.65709677               -0.07870010                0.04035365
               7.88100939                1.99311617               77.08902197                0.28029188               -0.03547471               -0.03091785                0.12101208               -0.00568199                0.02519581               -0.06515350
               8.88063522                1.99561490               77.09194234                0.99999997               -0.03570971               -0.03476426                0.11901019                0.00108721                0.01431188                0.01441562
               9.88029519                1.99811397               77.09470661                0.99999998               -0.03400275               -0.03257454                0.10694751               -0.00219602                0.00758821                0.00931790
              -0.09529628                2.97454992               77.06799559                0.12236883               -0.02967641                0.16627061                0.09271183                0.36254707               -0.00189308                0.25180690
               0.90440695                2.96911466               77.07003143                0.01000000                0.04406073               -0.27495889                0.07024634                0.47939864                0.09932842               -0.00753609
               1.90558493                2.96501598               77.07385523                0.01000000               -0.00814447               -0.13502974                0.07623884                0.83299335                0.15360834                0.05898456
               2.90424406                2.96602482               77.07788253                0.01000000               -0.19760068               -0.05921915                0.08740912                1.21522725                0.12473082                0.09504345
               3.90163292                2.97005223               77.08180042                0.01000001               -0.30424499               -0.08198295                0.10985111                1.48286247                0.08488777                0.11360961
               4.89815916                2.97598716               77.08547508                0.01000000               -0.40819640               -0.12627912                0.12720390                1.61075571                0.04630792                0.10185345
               5.89346899                2.98269351               77.08853214                0.01000000               -0.52030601               -0.11648889                0.13070263                1.51842120               -0.00741218                0.07124323
               6.88775304                2.98798515               77.09093359                0.01000000               -0.75855771               -0.11859332                0.12287299                1.38164342               -0.13671939                0.13192671
               7.87829784                2.99285139               77.09155502                0.01000118               -0.48099300               -0.04572068                0.05659125                0.85087031               -0.04689740                0.09636721
               8.87813318                2.99525058               77.09595581                0.84890244               -0.02680149               -0.03806896                0.13465528               -0.00498745                0.08888844                0.03199898
               9.87776181                2.99777195               77.09865949                0.99999998               -0.03713775               -0.03502637                0.11535864               -0.00126243                0.00528358                0.01954012
              -0.08272872                3.97786411               77.07257897                0.09451426                0.07274656               -0.05361432               -0.02185386                0.29853837               -0.05417220                0.10741925
               0.91799875                3.96397453               77.07330050                0.01000002                0.01942334               -0.41946404                0.13184278                0.99900481                0.15646897                0.18950140
               1.91765975                3.96320708               77.07726961                0.01000000               -0.12154217               -0.17018519                0.10441415                1.36494850                0.21045542                0.07446124
               2.91556790                3.96482093               77.08119502                0.01000001               -0.23430099               -0.16063199                0.10667729                1.50897606                0.14823620                0.11849392
               3.91297373                3.96879405               77.08523530                0.01000000               -0.29755185               -0.16738869                0.11256184                1.74314463                0.11293378                0.12020571
               4.90961687                3.97480294               77.08906407                0.01000000               -0.39076292               -0.14873355                0.12206988                1.93070124                0.07672162                0.10782265
               5.90515847                3.98163727               77.09251842                0.01000000               -0.53985838               -0.10241234                0.12729039                2.01887607                0.03117776                0.10839712
               6.89881970                3.98823159               77.09539656                0.01000001               -0.71985555               -0.01101602                0.12431756                1.93240238               -0.00218818                0.13177744
               7.89076136                3.99220176               77.09813819                0.01000007               -1.16023924                0.00018110                0.12661882                1.92157807               -0.04232352                0.23794690
               8.87561491                3.99485352               77.10008444                0.01000000               -0.77670737               -0.13840424                0.13680398                1.68385977               -0.03378660                0.14054768
               9.87522721                3.99741345               77.10268086                0.01000000               -0.03877026               -0.98916121                0.11955023                1.73762528               -0.00154175                0.15080460
              -0.06154635                4.97347763               77.07474543                0.24423654                0.05904283               -0.30257724               -0.14194213                0.42604387                0.50790785               -0.26415843
               0.93904408                4.96072538               77.08076124                0.01000000               -0.32080719               -0.14233241                0.17035985                1.07170564                0.24121833                0.09487054
               1.93203751                4.96161227               77.08051164                0.01000001               -0.51037281               -0.16203104                0.14438664                1.48940166                0.03454165                0.09603872
               2.92883662                4.96281218               77.08458501                0.01000000               -0.27618528               -0.25034718                0.11359863                1.59937728                0.14716586                0.12537805
               3.92651380                4.96670445               77.08864063                0.01000000               -0.24533271               -0.27578925                0.11314377                1.91273254                0.11258029                0.11473659
               4.92392997                4.97301249               77.09266806                0.01000000               -0.30479734               -0.23249936                0.11777709                2.19882609                0.09165634                0.10550242
               5.92041785                4.98064526               77.09647691                0.01000000               -0.40466834               -0.14368583                0.12157777                2.36421414                0.06798258                0.10870017
               6.91583660                4.98776483               77.10002311                0.01000001               -0.51551919               -0.07349492                0.12440567                2.42120826                0.03995820                0.13683897
               7.91010747                4.99285501               77.10322815                0.01000000               -0.46189557               -0.05024098                0.12736324                2.32731290                0.01550787                0.16783041
               8.90659869                4.99248250               77.10625697                0.01000002               -0.13565047               -0.33657904                0.12482111                2.04605588                0.00132129                0.23814265
               9.90739446                4.97798873               77.10924968                0.01000000                0.07957707               -1.19717789                0.12251245                1.35397510               -0.01115965                0.29267367
              -0.04870334                5.97181257               77.07701022                0.39806896                0.00015533               -0.13534858               -0.02262757                0.09675142                0.37693170               -0.18903599
               0.95129822                5.96112788               77.08251430                0.01000001               -0.29678415                0.04906196                0.10649994                0.52789889                0.21940989               -0.22415533
               1.94536098                5.95996646               77.08384299                0.01000001               -0.44174747               -0.21927028                0.13258050                1.18396369                0.00574264                0.12568525
               2.94246327                5.95981398               77.08769994                0.01000000               -0.21664570               -0.37908915                0.11230902                1.50240574                0.09246631                0.10062978
               3.94102807                5.96327826               77.09183848                0.01000000               -0.14053421               -0.43618714                0.11193340                1.94504657                0.09646348                0.09101625
               4.93965258                5.97015295               77.09608217                0.01000000               -0.16688249               -0.36077517                0.11500664                2.33761628                0.09788651                0.08650485
               5.93769042                5.97876355               77.10028375                0.01000001               -0.23092365               -0.22640752                0.11792200                2.53690424                0.09124060                0.09717302
               6.93503411                5.98676170               77.10434264                0.01000000               -0.25502355               -0.12795643                0.12045544                2.50328674                0.07568646                0.12575479
               7.93258995                5.99119694               77.10818963                0.01000002               -0.18158954               -0.14190387                0.12245808                2.19077130                0.05099660                0.17301415
               8.93140232                5.98812194               77.11178459                0.01000001               -0.06478435               -0.26069015                0.12521509                1.36499957                0.02239203                0.22740275
               9.93129426                5.97346989               77.11518804                0.01000000               -0.01080609               -0.17708076                0.12767599                0.67312013                0.00439092                0.27591956
              -0.03824195                6.97077066               77.07776619                0.99929930               -0.03098895               -0.06937588                0.09970376                0.06894518               -0.01170074               -0.00224878
               0.96144816                6.96170662               77.08241126                0.01000001               -0.23636852                0.01706887                0.09724010                0.28337857               -0.03764163               -0.10776981
               1.95703068                6.95722687               77.08644292                0.01000001               -0.29376113               -0.36389366                0.10177375                0.91907148               -0.00203524                0.02190383
               2.95557294                6.95523040               77.09025272                0.01000000               -0.09774573               -0.49790027                0.11027384                1.24223679                0.03910991                0.04255034
               3.95507577                6.95798071               77.09457890                0.01000001               -0.01879668               -0.70025103                0.11310431                1.85888666                0.08553313                0.04205803
               4.95519700                6.96579699               77.09913568                0.01000001               -0.02642868               -0.49027989                0.11504375                2.37309962                0.10905241                0.04914564
               5.95454719                6.97611711               77.10379175                0.01000000               -0.08640281               -0.26412252                0.11663441                2.49108715                0.12128782                0.07449921
               6.95346895                6.98520570               77.10845500                0.01000002               -0.09922705               -0.15916127                0.11861485                2.34385781                0.11914668                0.11407179
               7.95256265                6.99001694               77.11296219                0.01000001               -0.09216094               -0.06965419                0.12207111                1.93665197                0.09635261                0.18258825
               8.95162573                6.98726869               77.11716441                0.01000000               -0.12008426                0.09068583                0.12812605                1.12873631                0.05186159                0.25000067
               9.95016097                6.97444711               77.12088866                0.01000003               -0.14647641                0.29071731                0.13772487                0.50955411                0.02125005                0.29894883
              -0.02919635                7.97042505               77.07911101                0.99999999               -0.02940708               -0.03576929                0.10317372                0.00258159               -0.00707278                0.02011778
               0.97050958                7.96146926               77.08342853                0.99999999               -0.02925093               -0.02671787                0.10355497                0.00958999               -0.01653143               -0.02686333
               1.97021863                7.95268859               77.08750436                0.01000000               -0.19777101               -0.24380962                0.10470173                0.51865881               -0.00398760               -0.03168951
               2.96655416                7.94985598               77.09201677                0.01000003               -0.12897121               -0.58268619                0.11305725                0.98391636                0.05402464               -0.03644892
               3.96763921                7.94927324               77.09666810                0.01000007                0.12120094               -1.15745654                0.11749148                1.68726743                0.09448018               -0.06252112
               4.96897818                7.96034735               77.10164286                0.01000000                0.02321208               -0.45226748                0.11715857                2.30235032                0.13793163                0.01349421
               5.96810345                7.97348110               77.10695481                0.01000002               -0.04833691               -0.21509301                0.11849317                2.15452310                0.16866672                0.04456655
               6.96801144                7.98357847               77.11227117                0.01000001                0.05782696               -0.17632412                0.12056173                1.90761881                0.18661884                0.08756829
               7.96925999                7.98980385               77.11773232                0.01000009                0.07677158               -0.09113333                0.12481323                1.69785393                0.17372683                0.16669213
               8.96954687                7.98993566               77.12270596                0.01000001               -0.10657391                0.28726932                0.13518803                1.27584077                0.10843081                0.35725096
               9.96712851                7.97928423               77.12694471                0.01000002               -0.24183613                0.82614060                0.15160243                0.78628437                0.06399969                0.34484270
              -0.02027873                8.97005527               77.08053552                0.99999999               -0.03448433               -0.03688440                0.11333552                0.00105408                0.00022599                0.01748820
               0.97937642                8.96117226               77.08474135                0.99999999               -0.03520629               -0.03227003                0.11423310               -0.00014499                0.00020530               -0.00464066
               1.97901714                8.95235068               77.08893746                0.99966298               -0.03549035               -0.03440314                0.11584410               -0.00017688               -0.00500657               -0.00885393
               2.97866662                8.94357667               77.09302425                0.95947534               -0.03436996               -0.33115585                0.11517342                0.16708730               -0.00665870               -0.03231660
               3.97832974                8.93483158               77.09713882                0.01000000               -0.08152311               -0.73843911                0.11130641                1.62959729                0.12443263               -0.06549428
               4.97703615                8.95675164               77.10385744                0.01000002               -0.19616025               -0.18497394                0.12178421                1.96986945                0.23974892               -0.00731572
               5.97440654                8.97181525               77.10977111                0.01000001               -0.08687909               -0.13390272                0.12395858                1.32000251                0.22246369                0.01540532
               6.97529857                8.98167922               77.11569602                0.01000003                0.28780037               -0.21713707                0.12716331                1.07076334                0.24986017                0.04455711
               7.98016254                8.98819427               77.12190315                0.01000001                0.61817965               -0.28217210                0.13342637                1.09714066                0.35700589                0.10648471
               8.98766216                8.99301408               77.12983733                1.00000000                0.35134772                0.13085320                0.14137011                1.15210509                0.21654725                0.23334253
               9.98718950                8.99096992               77.13329337                1.00000000               -0.04726672                0.55530376                0.17687402                0.90140458               -0.00749300                0.17934281
              -0.01140924                9.96968736               77.08195026                1.00000000               -0.03794807               -0.03679097                0.12321708                0.00059898                0.01431963                0.01495597
               0.98821128                9.96082386               77.08615266                0.99999999               -0.03900380               -0.03484007                0.12438990               -0.00085613                0.01775151                0.00024411
               1.98781068                9.95200053               77.09043578                0.99999994               -0.03981390               -0.03501476                0.12507019               -0.00019559                0.02070302               -0.00450466
               2.98741500                9.94323286               77.09469220                0.99999999               -0.03772477               -0.03438119                0.12008010                0.00003510                0.01535972               -0.00001970
               3.98705619                9.93450446               77.09886138                0.01394058               -0.80115503               -0.03271221                0.11492333                1.54339536                0.15682199               -0.00592487
               4.97139190                9.95664787               77.10597168                0.01000000               -0.87401327               -0.01037661                0.12842598                1.25050402                0.30186522               -0.02000022
               5.96957592                9.97080305               77.11238538                0.01000001                0.08278938               -0.10122036                0.13389160                0.64633154                0.27411456                0.00142707
               6.97304769                9.97923573               77.11862091                0.01000000                0.51460072               -0.24434876                0.14005650                0.44277994                0.29329649                0.01851439
               7.97986794                9.98416041               77.12532528                0.01000000                0.83828169               -0.40338575                0.14942126                0.63638905                0.33896195                0.07092929
               8.98981332                9.99255272               77.13244940                1.00000000                0.46884921               -0.04613607                0.17013627                0.52661060                0.19045699                0.00705749
               9.98924492                9.99039031               77.13590543                1.00000000               -0.05684001               -0.05796123                0.20563363               -0.01069867                0.00716960               -0.00715518
              -0.11400358               -0.02717360               78.06111905                1.00000000               -0.02190579               -0.02058879                0.08997453               -0.00214629                0.00410110               -0.00519626
               0.88577736               -0.03212375               78.06423499                1.00000000               -0.02062010               -0.02894270                0.08186686               -0.00244423                0.01002356               -0.00401251
               1.88558402               -0.03697108               78.06740446                0.22865014                0.03411366               -0.01992325                0.07959684                0.06055296                0.14097174                0.00500114
               2.88645963               -0.04056499               78.07295125                0.07636278                0.19658119               -0.01016143                0.12414924                0.57270299                0.00299615               -0.31442339
               3.88951564               -0.03214084               78.07415404                0.08636749               -0.07348545                0.14107315                0.05621879                0.17052064               -0.12224916               -0.01154140
               4.88498992               -0.01988311               78.07652571                0.21502888               -0.28303403                0.02271680               -0.04308001                0.37864690               -0.13009405                0.38831059
               5.88385496               -0.01527681               78.07912092                0.66915625               -0.07249740               -0.02569118                0.06782458                0.09331734               -0.01330133               -0.00570901
               6.88353998               -0.01237007               78.08051969                1.00000000               -0.03342474               -0.04280649                0.12715370                0.01764548               -0.06060433               -0.02106276
               7.88318646               -0.00992379               78.08284228                0.99999999               -0.03327844               -0.03352773                0.10698676               -0.00196689               -0.01202914               -0.00368825
               8.88287441               -0.00752171               78.08540840                0.99999998               -0.02985347               -0.03162200                0.09925640               -0.00238402               -0.00297663                0.00078416
               9.88258939               -0.00511701               78.08803302                1.00000000               -0.02850123               -0.02909997                0.09163311               -0.00371579               -0.00198347               -0.00247476
              -0.10907490                0.97262051               78.06323815                1.00000000               -0.02734414               -0.01477762                0.08756354                0.00315314               -0.00776058                0.00301673
               0.89065166                0.96758683               78.06630403                0.01000000               -0.02574642               -0.03559438                0.07809488                0.01627182               -0.01162379               -0.00281645
               1.89041017                0.96282969               78.06934356                0.01000000               -0.04400563                0.01123391                0.06170820                0.07154237               -0.03194214                0.02159908
               2.88977154                0.95933339               78.07218802                0.01000000               -0.47651334                0.22002690                0.01789948                0.61863684               -0.02363629               -0.10145549
               3.88087990                0.96926989               78.07635834                0.01000000               -0.47135844                0.05318617                0.05353026                1.07649804               -0.03898055                0.07201079
               4.88034437                0.98034406               78.08192780                0.01000000                0.00758544               -0.24499416                0.07936677                0.86298313               -0.09451527                0.20872894
               5.88103161                0.98446628               78.08339344                0.01000001                0.03477744               -0.20232714                0.06468717                0.34755858               -0.14260902               -0.05149801
               6.88103992                0.98720187               78.08420363                0.48021124               -0.01444971               -0.03378806                0.13932408                0.01961048               -0.10505040               -0.07113845
               7.88074262                0.98974093               78.08659004                1.00000000               -0.02963728               -0.03494739                0.11552582                0.00696397               -0.00895914               -0.00621493
               8.88044718                0.99216207               78.08923707                0.99999999               -0.02975373               -0.03286376                0.10742330               -0.00096504                0.00383513                0.00411670
               9.88014754                0.99459199               78.09187313                1.00000000               -0.02996356               -0.03074083                0.09952997               -0.00253016                0.00330333               -0.00120196
              -0.10387316                1.97253084               78.06547595                0.54867265               -0.02332261                0.04006215                0.08259669                0.06563013               -0.00488300                0.06744787
               0.89589362                1.96716437               78.06846857                0.01000000               -0.04292730               -0.09685157                0.08411830                0.14721928                0.00486618               -0.00141380
               1.89526830                1.96325360               78.07156115                0.01000001               -0.17507254               -0.00147088                0.02996061                0.46649155                0.02307900                0.05258101
               2.89239217                1.96383554               78.07555002                0.01000000               -0.26166837                0.22922089                0.05294695                0.86760410                0.06597510                0.12886206
               3.89003493                1.96892288               78.07963868                0.01000000               -0.26694869               -0.07490625                0.13431481                1.45460281                0.01961597                0.12239302
               4.88705319                1.97521701               78.08321694                0.01000001               -0.30433049               -0.34855141                0.14720167                1.33245209                0.00773781               -0.00889545
               5.88394832                1.98067665               78.08633492                0.01000001               -0.41978285               -0.24472258                0.11177969                1.07088494               -0.11798878               -0.02143108
               6.87865754                1.98695417               78.08674123                0.01000000               -0.27913896               -0.13275405                0.05613880                0.63012967               -0.07468443                0.04421886
               7.87836554                1.98937726               78.09024708                0.05243609               -0.03267429               -0.02297939                0.12570113               -0.02897999                0.06136057               -0.10762224
               8.87800405                1.99182102               78.09313283                1.00000000               -0.03432900               -0.03516864                0.11730003                0.00040853                0.01964922                0.01934984
               9.87767896                1.99426817               78.09576466                1.00000000               -0.03250889               -0.03353244                0.10591784               -0.00256849                0.00823217                0.00566081
              -0.09702934                2.97342175               78.06867464                0.37932211               -0.00973678                0.14972294                0.03786162                0.20700839               -0.00402974                0.16765364
               0.90287329                2.96564979               78.07085165                0.01000000                0.00490829               -0.27415251                0.09359987                0.49188251                0.09804045                0.01226323
               1.90306882                2.96280027               78.07469135                0.01000000               -0.07094736               -0.10980975                0.09151605                0.91076401                0.11249469                0.14727390
               2.90145434                2.96391781               78.07882605                0.01000000               -0.22391647               -0.05832665                0.10291986                1.27186254                0.07633797                0.13260797
               3.89859049                2.96777176               78.08300127                0.01000000               -0.31073476               -0.12125372                0.11766475                1.47652249                0.06416782                0.10394304
               4.89523965                2.97337303               78.08681146                0.01000000               -0.39391736               -0.15349990                0.12875837                1.57390270                0.03661961                0.07085103
               5.89071215                2.97957183               78.08985761                0.01000000               -0.51488696               -0.10371950                0.12760754                1.47799987                0.00014211                0.04772137
               6.88494191                2.98454679               78.09224603                0.01000000               -0.77079856               -0.10413211                0.15273557                1.35503398               -0.13149044                0.13695299
               7.87529617                2.98928134               78.09197781                0.01000001               -0.46887342               -0.03676573                0.07829884                0.83100714               -0.00271772                0.08383116
               8.87556444                2.99145870               78.09728897                0.89276260               -0.00471544               -0.03780343                0.12961572               -0.01293777                0.14088115                0.03045752
               9.87520187                2.99392134               78.09978360                0.99999997               -0.03625734               -0.03518256                0.11151916               -0.00129170                0.00245999                0.01283798
              -0.08418908                3.97552530               78.07209520                0.36666845                0.05418264                0.00302666               -0.03176488                0.08886626                0.03137136                0.05166753
               0.91635275                3.96168132               78.07486421                0.01000000               -0.02976800               -0.29666789                0.12169439                0.78215599                0.06599411                0.21427118
               1.91521556                3.96105740               78.07851925                0.01000000               -0.17474139               -0.17018011                0.11893374                1.36374832                0.08597008                0.19773474
               2.91285792                3.96266901               78.08239282                0.01000000               -0.25527035               -0.15676880                0.11960476                1.50230335                0.10203437                0.14006918
               3.91011016                3.96649781               78.08642979                0.01000000               -0.30633709               -0.16568130                0.12250088                1.72184557                0.09844910                0.10039780
               4.90673118                3.97214701               78.09032449                0.01000000               -0.38877978               -0.14681348                0.12471364                1.88923983                0.07803389                0.07200057
               5.90233456                3.97860226               78.09383273                0.01000000               -0.53412388               -0.09291606                0.13023127                1.97185530                0.04152674                0.07139543
               6.89604870                3.98487153               78.09668315                0.01000000               -0.71303935               -0.00115669                0.13021360                1.89871921                0.01936347                0.09435022
               7.88807377                3.98864195               78.09945323                0.01000002               -1.14717014                0.00501617                0.14049800                1.90340540               -0.01663645                0.24264505
               8.87310530                3.99106495               78.10140453                0.01000000               -0.76729625               -0.12548618                0.12999290                1.64983763               -0.02401597                0.13036191
               9.87272785                3.99356452               78.10383507                0.01740791               -0.03774508               -0.96430844                0.11462000                1.70641057                0.00449309                0.14512626
              -0.06756404                4.97348228               78.07507059                0.49910411                0.05483532               -0.22153706                0.04594083                0.13245023               -0.03439606                0.16984084
               0.93298431                4.95971644               78.07993728                0.01000000               -0.15399312               -0.09712023               -0.04520342                0.78590482               -0.16033075                0.21098198
               1.92935609                4.95939667               78.08253340                0.01000001               -0.34621526               -0.15764089                0.13844611                1.39718464               -0.04888995                0.14339286
               2.92606000                4.96078243               78.08580413                0.01000000               -0.29033450               -0.23702553                0.12442680                1.57205658                0.05985206                0.11882007
               3.92354940                4.96445814               78.08985333                0.01000000               -0.25700077               -0.26825579                0.12039763                1.86526669                0.09744614                0.09537457
               4.92091999                4.97043676               78.09388091                0.01000000               -0.30623361               -0.22321451                0.12084237                2.14553825                0.08885349                0.07643774
               5.91742473                4.97771351               78.09771550                0.01000007               -0.40216910               -0.13204952                0.12243132                2.31010848                0.07149266                0.07438442
               6.91287661                4.98452366               78.10128832                0.01000001               -0.51269326               -0.05956621                0.12618953                2.37159281                0.04561391                0.10326404
               7.90717087                4.98938167               78.10451452                0.01000000               -0.46189938               -0.03463470                0.12565770                2.28521476                0.01713398                0.13920576
               8.90363862                4.98894898               78.10749973                0.01000002               -0.14199653               -0.31055123                0.12272591                2.01273743                0.00355582                0.22151503
               9.90433094                4.97463517               78.11045687                0.01000002                0.06923165               -1.16019306                0.11897162                1.32843459               -0.00695138                0.29332507
              -0.05400838                5.97109456               78.07766556                0.70969413                0.01648417               -0.18713366                0.06442005                0.09089181               -0.00577480                0.05745733
               0.94615646                5.95973891               78.08238985                0.01000001               -0.19491808                0.01913277               -0.00834404                0.52800277               -0.09237107                0.01983291
               1.94209326                5.95790458               78.08539644                0.01000001               -0.34594407               -0.19739971                0.11391884                1.09167963               -0.04919904                0.04422776
               2.93923758                5.95792850               78.08889541                0.01000000               -0.21660499               -0.36834455                0.11663378                1.44914387                0.03817779                0.08042698
               3.93776116                5.96113269               78.09300738                0.01000000               -0.14255042               -0.42677425                0.11616282                1.88296763                0.08264348                0.07050796
               4.93638657                5.96768272               78.09725481                0.01000000               -0.16556613               -0.35049721                0.11682708                2.27763805                0.09230586                0.06357070
               5.93444984                5.97596127               78.10147513                0.01000000               -0.22870863               -0.21436041                0.11834473                2.48129676                0.08764272                0.07071370
               6.93181240                5.98368021               78.10555414                0.01000000               -0.25485444               -0.11268219                0.11986997                2.45642288                0.07173593                0.09811070
               7.92935275                5.98794925               78.10941408                0.01000002               -0.18529277               -0.12123832                0.12171187                2.15553147                0.04769891                0.14812079
               8.92810655                5.98485392               78.11302871                0.01000001               -0.07142980               -0.23708299                0.12407913                1.34461861                0.02051297                0.21194997
               9.92792415                5.97036066               78.11645279                0.01000000               -0.01823926               -0.15713670                0.12626772                0.66386032                0.00424033                0.27446483
              -0.04303491                6.96973961               78.07875654                0.99999999               -0.02307513               -0.09483958                0.09728859                0.05809214               -0.00998307                0.00197779
               0.95673434                6.96009909               78.08329442                0.01000001               -0.19824981                0.01267299                0.07657970                0.28586673               -0.02648158               -0.06117217
               1.95300010                6.95544867               78.08739211                0.01000001               -0.24597835               -0.34107250                0.08781283                0.85588543               -0.00228164               -0.02282261
               2.95181477                6.95341554               78.09137183                0.01000000               -0.07727811               -0.49293869                0.10774038                1.18701898                0.03424236                0.02128336
               3.95145453                6.95592265               78.09572721                0.01000000               -0.00853026               -0.68978386                0.11351510                1.79951131                0.07839692                0.02724622
               4.95164417                6.96342682               78.10029397                0.01000001               -0.02006772               -0.48120309                0.11530639                2.31420696                0.10147339                0.03266698
               5.95105318                6.97342630               78.10496220                0.01000000               -0.08135434               -0.25556370                0.11650722                2.44021911                0.11265397                0.05451764
               6.95001708                6.98227001               78.10964228                0.01000002               -0.09727004               -0.14759906                0.11826167                2.30611827                0.10993930                0.09202186
               7.94910778                6.98695690               78.11418296                0.01000001               -0.09487486               -0.05348696                0.12165628                1.91303986                0.08841747                0.16148752
               8.94811959                6.98420732               78.11844503                0.01000001               -0.12565530                0.10971772                0.12761321                1.11720607                0.04751735                0.23550437
               9.94659467                6.97149243               78.12226231                0.01000000               -0.15249120                0.30393790                0.13674542                0.50371660                0.02001119                0.29808639
              -0.03356550                7.96919777               78.08013375                1.00000000               -0.02697646               -0.04964088                0.10448103                0.00704493               -0.00397584                0.01099405
               0.96616474                7.95999237               78.08442442                1.00000000               -0.02699910               -0.01923411                0.09812932                0.01661685               -0.01146859               -0.02501831
               1.96589452                7.95108313               78.08852583                0.01000000               -0.18303778               -0.23449989                0.09953602                0.49570090                0.00556647               -0.03066438
               2.96250398                7.94806973               78.09312177                0.01000001               -0.10772046               -0.57582263                0.10840873                0.94780346                0.05948807               -0.04217417
               3.96374011                7.94733701               78.09781587                0.01000005                0.13315418               -1.14237555                0.11391750                1.63472912                0.09168518               -0.06904187
               4.96516707                7.95805866               78.10281444                0.01000000                0.03354586               -0.44809885                0.11661352                2.24687860                0.13023835                0.00209615
               5.96441103                7.97085000               78.10813685                0.01000002               -0.03814488               -0.21236251                0.11786905                2.11283339                0.15745517                0.03065171
               6.96440417                7.98072823               78.11347653                0.01000001                0.06326075               -0.17075372                0.12038961                1.88229373                0.17318674                0.07119611
               7.96567624                7.98687951               78.11898119                0.01000001                0.07554825               -0.08051570                0.12493471                1.68697691                0.16068438                0.14884435
               8.96591513                7.98704828               78.12405712                0.01000001               -0.11239981                0.30623260                0.13509776                1.26976062                0.10010654                0.33987582
               9.96342825                7.97643942               78.12845635                0.01000002               -0.24868864                0.83234427                0.15078564                0.78344250                0.06030228                0.34636477
              -0.02448321                8.96874679               78.08167513                0.99999998               -0.03354754               -0.04192452                0.11355450                0.00098944                0.00043071                0.01229278
               0.97518131                8.95971441               78.08587729                0.99999999               -0.03400152               -0.03139909                0.11258923               -0.00075485                0.00101308               -0.00395925
               1.97483676                8.95075867               78.09007277                0.99999998               -0.03321748               -0.03336057                0.11223588                0.00207002               -0.00165959               -0.00641036
               2.97451696                8.94189909               78.09420270                0.96558498               -0.03382879               -0.32702820                0.11793193                0.15889096               -0.00245665               -0.03133668
               3.97416018                8.93307514               78.09834461                0.01000000               -0.07241032               -0.73228377                0.12195366                1.59041862                0.12579117               -0.06424399
               4.97306876                8.95446484               78.10504568                0.01000002               -0.17599512               -0.18810500                0.11868350                1.92746280                0.23392072               -0.01312591
               5.97064028                8.96917905               78.11100433                0.01000001               -0.07176587               -0.13554972                0.12280860                1.29552531                0.21300157                0.00800213
               6.97163344                8.97885494               78.11696608                0.01000002                0.29434924               -0.21568569                0.12697923                1.05922645                0.23589669                0.03562139
               7.97652727                8.98534659               78.12323918                0.01000001                0.61607270               -0.27649904                0.13386062                1.10081778                0.33819942                0.09604723
               8.98395490                8.99033197               78.13125752                1.00000000                0.34769907                0.14095826                0.14265282                1.15639979                0.20347210                0.22257316
               9.98348125                8.98813932               78.13505898                1.00000000               -0.04736474                0.55617009                0.17624766                0.89347473               -0.00747533                0.17783709
              -0.01548094                9.96835928               78.08319822                1.00000000               -0.03812976               -0.03875139                0.12525608                0.00073766                0.01137227                0.01022357
               0.98413776                9.95936439               78.08740263                0.99999999               -0.03839077               -0.03500216                0.12490046               -0.00152333                0.01457468               -0.00019350
               1.98375124                9.95041592               78.09166874                0.99999999               -0.03862127               -0.03427518                0.12253706               -0.00031312                0.01771712               -0.00329794
               2.98336533                9.94152916               78.09592242                0.99999998               -0.03842552               -0.03699274                0.12307285               -0.00139232                0.01408774               -0.00007374
               3.98298273                9.93269134               78.10010764                0.01967259               -0.78764606               -0.03838039                0.12554976                1.52062461                0.15669637               -0.00410983
               4.96761241                9.95429656               78.10722237                0.01000000               -0.85256462               -0.01682821                0.12495461                1.22674865                0.30185023               -0.02105183
               5.96593144                9.96813900               78.11371313                0.01000001                0.09043744               -0.10400488                0.13188764                0.63501339                0.27038195               -0.00138498
               6.96942116                9.97641451               78.12001787                0.01000000                0.51420648               -0.24404246                0.13939986                0.43929857                0.28431661                0.01531285
               7.97621557                9.98134953               78.12682043                0.01000000                0.84146167               -0.39970544                0.14962954                0.64147674                0.32953069                0.06754139
               8.98625040                9.98986744               78.13415388                0.99999999                0.47337336               -0.04645245                0.17076041                0.54021428                0.18365549                0.00705501
               9.98568304                9.98756282               78.13795532                1.00000000               -0.05673595               -0.05765030                0.20435594               -0.01028375                0.00716102               -0.00716372
              -0.11701533               -0.02935748               79.06203930                1.00000000               -0.01756291               -0.01861425                0.09380435               -0.00291800                0.00772327               -0.00824663
               0.88280904               -0.03421213               79.06505551                1.00000000               -0.01027918               -0.03249079                0.08108300                0.00070860                0.01783798               -0.00266425
               1.88277908               -0.03872005               79.06819999                0.46559498                0.09449801               -0.01579702                0.06937349                0.14156368                0.09624732                0.00362897
               2.88469900               -0.03997862               79.07246826                0.37264596                0.16442183                0.02307878               -0.05025170                0.14524963                0.08716157                0.00431724
               3.88606752               -0.03456667               79.07471557                0.33867065               -0.03900489                0.06226878                0.02843452                0.12410491               -0.10390263               -0.05218765
               4.88391890               -0.02531805               79.07704526                0.49315582               -0.21043794                0.04232183                0.05686276                0.16773421                0.07019513               -0.03838079
               5.88185876               -0.01966258               79.07978499                0.92762650               -0.13423398               -0.00606933                0.06500423                0.11182902                0.01118051               -0.00842690
               6.88123422               -0.01637226               79.08172279                1.00000000               -0.05734237               -0.02977818                0.11099622                0.01832990               -0.03033575               -0.01308313
               7.88071191               -0.01375278               79.08390495                1.00000000               -0.04650917               -0.03065636                0.10731101               -0.00073131               -0.01412472               -0.00224259
               8.88030404               -0.01138365               79.08640770                0.99999999               -0.03609866               -0.03125811                0.10082798               -0.00379584               -0.00312397                0.00059307
               9.87998994               -0.00902633               79.08896668                1.00000000               -0.03140962               -0.03059085                0.09610830               -0.00348154               -0.00304021               -0.00414485
              -0.11218986                0.97045638               79.06411724                1.00000000               -0.03127300               -0.00956771                0.08923055                0.00477182               -0.00871522               -0.00448530
               0.88749741                0.96546296               79.06708259                0.01000000               -0.03660875               -0.04450268                0.07818933                0.03727616               -0.01794148                0.00549480
               1.88707796                0.96112198               79.06994456                0.01000000               -0.17112997                0.01657774                0.06349591                0.16501448               -0.04075021                0.00745906
               2.88407481                0.96025217               79.07284201                0.01000000               -0.35498374                0.09615648                0.08418563                0.48883065               -0.10269950                0.15870908
               3.87997829                0.96605601               79.07664526                0.01000000               -0.29653067                0.04026557                0.05592781                0.73948505                0.26217102                0.03693255
               4.87814420                0.97510517               79.08132191                0.01000000               -0.07370648               -0.12075016               -0.03216999                0.69016845                0.12202978               -0.06079013
               5.87850416                0.98027673               79.08383400                0.01000001                0.01592128               -0.16315854                0.03544084                0.36349966               -0.03802327               -0.02556558
               6.87846262                0.98332995               79.08556552                0.21185695               -0.01469332               -0.00911521                0.11530120                0.01842857               -0.05784577               -0.11533773
               7.87821029                0.98594066               79.08774872                0.99999999               -0.02798833               -0.03356297                0.11426943                0.00534488               -0.01278810               -0.00197756
               8.87790285                0.98830377               79.09031280                0.99999999               -0.03062408               -0.03331813                0.10746238               -0.00331559                0.00514457                0.00478422
               9.87759781                0.99066776               79.09288245                0.99999999               -0.03050436               -0.03284758                0.10274064               -0.00328946                0.00440135               -0.00395840
              -0.10693306                1.97045117               79.06624698                0.58038351               -0.01779794                0.04136819                0.07714843                0.06761304               -0.00224741                0.02067392
               0.89288896                1.96489782               79.06930758                0.01000000               -0.08883868               -0.12493410                0.08101761                0.20069919               -0.03371590                0.02740153
               1.89129016                1.96161151               79.07166687                0.01000001               -0.16736876               -0.00593113                0.06062137                0.49145807               -0.14659398                0.13191504
               2.88954158                1.96194451               79.07598853                0.01000000               -0.26429670                0.07910073                0.11545086                0.90066125               -0.36104105                0.16276910
               3.88600423                1.96623864               79.08125826                0.01000000               -0.30200128               -0.03580139                0.04535142                1.26375027               -0.22008965                0.09241552
               4.88350156                1.97226695               79.08500112                0.01000001               -0.25501299               -0.24042688                0.11930512                1.23633171               -0.06875718                0.00285952
               5.88090397                1.97707425               79.08736455                0.01000001               -0.37813456               -0.20633018                0.09442135                1.03557952               -0.16984667               -0.00342848
               6.87593886                1.98344543               79.08716136                0.01000001               -0.25294876               -0.12738363                0.05400077                0.65210634               -0.05732511                0.05912088
               7.87584499                1.98557596               79.09153599                0.01000001               -0.02141218               -0.03093969                0.12568903               -0.02525952                0.11002210               -0.11302088
               8.87551062                1.98794999               79.09428835                0.99999997               -0.03244085               -0.03578673                0.11463662               -0.00085428                0.01954003                0.02263567
               9.87519618                1.99031672               79.09682497                1.00000000               -0.03144445               -0.03547289                0.10793861               -0.00213070                0.00912876                0.00246064
              -0.09973090                2.97128374               79.06875282                0.38152362                0.00819512                0.10251772                0.01732962                0.13274160               -0.00071837                0.05402507
               0.90035105                2.96296428               79.07190342                0.01000000               -0.02043367               -0.28617466                0.09448624                0.48626224                0.03746137                0.10755145
               1.89986042                2.96100336               79.07568555                0.01000000               -0.14450726               -0.11458886                0.11822529                0.97151456                0.03387572                0.25429188
               2.89746090                2.96183419               79.07994092                0.01000000               -0.24647809               -0.06501424                0.10617933                1.22465479                0.06167142                0.18548230
               3.89493086                2.96533999               79.08415372                0.01000000               -0.27128440               -0.11443482                0.11098955                1.47346235                0.03977460                0.02956488
               4.89203522                2.97029663               79.08805025                0.01000000               -0.34468002               -0.15467251                0.10444523                1.55415954                0.01607716               -0.00589436
               5.88803726                2.97615012               79.09108430                0.01000000               -0.45160894               -0.09334802                0.10948941                1.46060147                0.03463809                0.03107416
               6.88300304                2.98078228               79.09398830                0.01000000               -0.74183605               -0.11845630                0.14269314                1.34096686               -0.05320780                0.16160815
               7.87320054                2.98532186               79.09312100                0.01000000               -0.49290135               -0.05290098                0.21301590                0.83340097                0.31454649               -0.07324313
               8.87314501                2.98758804               79.09854812                1.00000000               -0.01893992               -0.03499943                0.11833876               -0.00607109                0.15281141                0.03130022
               9.87282174                2.98995830               79.10088987                0.99999997               -0.03232672               -0.03370088                0.10677879                0.00001726               -0.00040731                0.00912181
              -0.08763931                3.97250152               79.07194367                0.32894121                0.05338913                0.00101763               -0.01249547                0.05544188               -0.01219245                0.07554875
               0.91289458                3.95917432               79.07573438                0.01000009               -0.02550727               -0.27724496                0.07682278                0.74209041               -0.00704093                0.19320074
               1.91185054                3.95931973               79.07964828                0.01000000               -0.15982651               -0.17002077                0.10750205                1.34011713                0.03997054                0.20432469
               2.90969805                3.96064423               79.08358712                0.01000001               -0.24197559               -0.15740988                0.11918358                1.49415189                0.07113214                0.14592739
               3.90701103                3.96394994               79.08768532                0.01000000               -0.29617219               -0.16528149                0.11710916                1.69921710                0.08661965                0.08087281
               4.90377461                3.96917349               79.09155834                0.01000000               -0.36903438               -0.13428522                0.11361852                1.85335038                0.07569139                0.04040558
               5.89963035                3.97520729               79.09512304                0.01000000               -0.50940721               -0.08297922                0.11753689                1.91529227                0.05522753                0.04254542
               6.89358646                3.98107631               79.09800084                0.01000000               -0.69615452                0.00884207                0.12782536                1.81287325                0.06713391                0.01710003
               7.88570725                3.98451794               79.10094815                0.01000001               -1.14168532                0.01782081                0.13019358                1.86059512               -0.02946939                0.20843704
               8.87075276                3.98725000               79.10268430                0.01000002               -0.76256321               -0.11497112                0.11468781                1.63536034               -0.02474739                0.12116366
               9.87045599                3.98964270               79.10497326                0.01000000               -0.02967662               -0.93603995                0.10345514                1.66523968                0.00411649                0.13933293
              -0.07196767                4.97130409               79.07566425                0.38997312                0.03423164               -0.16128766                0.04601471                0.08012333               -0.00539499                0.11929319
               0.92837465                4.95741938               79.07985717                0.01000000               -0.14197355               -0.05034598               -0.00620867                0.75620931               -0.05279639                0.11641474
               1.92519286                4.95760294               79.08328057                0.01000001               -0.28304577               -0.16637079                0.07309166                1.36437539               -0.04176901                0.13644969
               2.92271373                4.95868599               79.08707354                0.01000000               -0.24034600               -0.23947047                0.11366902                1.51746198                0.04138947                0.10665733
               3.92038594                4.96203436               79.09104859                0.01000000               -0.24344286               -0.25677002                0.11503657                1.81177151                0.07618101                0.07321077
               4.91784487                4.96761092               79.09508491                0.01000000               -0.29728211               -0.20810925                0.11466918                2.08562613                0.08288552                0.05217505
               5.91444030                4.97449054               79.09892554                0.01000003               -0.39475117               -0.11380854                0.11575973                2.24309002                0.07492885                0.04310871
               6.90994985                4.98095912               79.10254690                0.01000007               -0.51007756               -0.03531784                0.11918735                2.30655789                0.04481588                0.07252229
               7.90423875                4.98567828               79.10574130                0.01000000               -0.46111971               -0.00135100                0.12004289                2.23457955                0.02097904                0.10696793
               8.90072746                4.98528862               79.10871149                0.01000001               -0.14488027               -0.29171819                0.12214290                1.97901699                0.00407852                0.20309567
               9.90134114                4.97123750               79.11162911                0.01000000                0.06136841               -1.12444780                0.11934671                1.29863454               -0.00423972                0.29210925
              -0.05826742                5.96927577               79.07829862                0.75840962               -0.00126666               -0.14810353                0.06776174                0.11167772                0.01347663               -0.00107235
               0.94171992                5.95816740               79.08234742                0.01000001               -0.19305702                0.05146107                0.01325794                0.53124298               -0.01652453                0.04816901
               1.93787144                5.95599231               79.08612136                0.01000001               -0.30520184               -0.19809601                0.06716454                1.07010977               -0.02233086                0.04986691
               2.93561588                5.95585482               79.09003262                0.01000000               -0.17749573               -0.36281440                0.10412584                1.40155860                0.03285827                0.05432083
               3.93432153                5.95881454               79.09416174                0.01000000               -0.12924669               -0.41586060                0.11162582                1.82460598                0.06897046                0.05070746
               4.93303095                5.96501131               79.09841871                0.01000008               -0.15887901               -0.33601095                0.11330859                2.21315946                0.08404182                0.04286685
               5.93114395                5.97293112               79.10265064                0.01000004               -0.22505318               -0.19723977                0.11451463                2.41851479                0.08118106                0.04892488
               6.92852988                5.98036995               79.10674004                0.01000000               -0.25372979               -0.09176882                0.11617900                2.40284655                0.06778695                0.07437601
               7.92606935                5.98449092               79.11062387                0.01000002               -0.18780062               -0.09993495                0.11911126                2.11676012                0.04497756                0.12857232
               8.92477387                5.98141564               79.11426617                0.01000001               -0.07692241               -0.21691211                0.12242021                1.32160438                0.02015042                0.19950438
               9.92453090                5.96715374               79.11771339                0.01000000               -0.02429659               -0.14161143                0.12517851                0.65308438                0.00390199                0.27402834
              -0.04751739                6.96834202               79.07971196                0.99999999               -0.01996544               -0.07747159                0.09328526                0.03116816               -0.00558317               -0.02032202
               0.95228296                6.95844860               79.08394285                0.01000000               -0.17874879                0.01093134                0.06462997                0.27336074               -0.00449201               -0.01737684
               1.94890764                6.95364102               79.08819917                0.01000002               -0.21801403               -0.32988398                0.07957063                0.83711369                0.02054342               -0.01524688
               2.94792268                6.95142970               79.09240753                0.01000000               -0.05930337               -0.48365971                0.09991912                1.14570578                0.04275593                0.00469787
               3.94772157                6.95371714               79.09684920                0.01000000                0.00344036               -0.67697654                0.10983129                1.74598594                0.07452767                0.01254747
               4.94799149                6.96089071               79.10144181                0.01000007               -0.01348076               -0.46868764                0.11322365                2.25298103                0.09329981                0.01750971
               5.94745195                6.97054574               79.10612190                0.01000000               -0.07722526               -0.24395543                0.11473428                2.38397772                0.10335184                0.03732858
               6.94644698                6.97912375               79.11082023                0.01000002               -0.09618482               -0.13456780                0.11684097                2.26173959                0.10067971                0.07360286
               7.94552826                6.98367958               79.11539531                0.01000000               -0.09751299               -0.03832043                0.12066818                1.88251806                0.08107658                0.14318922
               8.94449672                6.98095037               79.11971667                0.01000001               -0.13008203                0.12525179                0.12693887                1.10128330                0.04360989                0.22243757
               9.94292662                6.96840528               79.12362357                0.01000000               -0.15701027                0.31305603                0.13573928                0.49574941                0.01932758                0.29755345
              -0.03785721                7.96772633               79.08120063                1.00000000               -0.02546590               -0.05526827                0.10513172                0.00811732               -0.00473421               -0.00842794
               0.96188813                7.95838603               79.08539112                1.00000000               -0.02550863               -0.01668694                0.09558197                0.01921920               -0.00827770               -0.01604790
               1.96163262                7.94939463               79.08949508                0.01000000               -0.17171269               -0.22807334                0.09590249                0.47732473                0.01757747               -0.02384729
               2.95845388                7.94618163               79.09418494                0.01000000               -0.09261865               -0.56402081                0.10546258                0.91516723                0.06851952               -0.04308406
               3.95978024                7.94527501               79.09894645                0.01000001                0.14040449               -1.12311053                0.11286241                1.58684709                0.09122811               -0.07335664
               4.96126197                7.95563756               79.10397513                0.01000000                0.04051095               -0.44047572                0.11541136                2.19201828                0.12322437               -0.00821506
               5.96059046                7.96805201               79.10931219                0.01000002               -0.03155633               -0.20733657                0.11726384                2.06676240                0.14679023                0.01831743
               6.96063084                7.97767859               79.11467896                0.01000000                0.06513118               -0.16367237                0.12015367                1.85035840                0.16060117                0.05695827
               7.96189309                7.98372451               79.12023101                0.01000001                0.07214999               -0.07018031                0.12508145                1.66744573                0.14857564                0.13312987
               8.96207384                7.98392067               79.12540792                0.01000007               -0.11784988                0.32092070                0.13508417                1.25527234                0.09244497                0.32447370
               9.95953609                7.97341487               79.12996043                0.01000002               -0.25377510                0.83112088                0.15006926                0.77494243                0.05703329                0.34855066
              -0.02867443                8.96723666               79.08280661                0.99999999               -0.03265276               -0.04403368                0.11182475                0.00114999                0.00016248                0.00000103
               0.97099904                8.95811486               79.08699313                0.99999999               -0.03335176               -0.03083658                0.11051711               -0.00064876                0.00106415               -0.00481416
               1.97065853                8.94907956               79.09118217                0.99999999               -0.03266971               -0.03259967                0.11036547                0.00235232                0.00218094               -0.00294271
               2.97034565                8.94014929               79.09538289                0.99999999               -0.03279772               -0.31948398                0.11606225                0.14896760                0.00278342               -0.02886007
               3.97000258                8.93125493               79.09957789                0.01000002               -0.06453990               -0.71894064                0.11924553                1.55209167                0.12626266               -0.06082170
               4.96905485                8.95208119               79.10623111                0.01000002               -0.16282066               -0.18820418                0.11919898                1.88527641                0.22743024               -0.01778994
               5.96674617                8.96639901               79.11222728                0.01000001               -0.06366021               -0.13471383                0.12245495                1.26833496                0.20475720                0.00126937
               6.96778165                8.97585030               79.11823560                0.01000001                0.29444615               -0.21200930                0.12720970                1.04364211                0.22358733                0.02781794
               7.97263509                8.98227597               79.12458036                0.01000002                0.60650839               -0.26878818                0.13452284                1.09739759                0.32131496                0.08678627
               8.97991181                8.98736879               79.13269039                1.00000000                0.34009975                0.14902218                0.14391280                1.15147096                0.19173793                0.21278071
               9.97943709                8.98502769               79.13681833                0.99999999               -0.04747283                0.55197384                0.17562344                0.87834845               -0.00747222                0.17671179
              -0.01959062                9.96684566               79.08445539                1.00000000               -0.03771231               -0.03909962                0.12427296                0.00074442                0.00594361                0.00285032
               0.98003225                9.95776930               79.08865067                1.00000000               -0.03820690               -0.03455649                0.12372255               -0.00182978                0.00871693               -0.00129643
               1.97964524                9.94874264               79.09288653                1.00000000               -0.03872010               -0.03369160                0.12138584               -0.00019708                0.01247907               -0.00155363
               2.97925785                9.93979195               79.09715366                0.99999998               -0.03775345               -0.03573389                0.12076528               -0.00110181                0.01167020                0.00078861
               3.97889017                9.93089620               79.10137238                0.05650650               -0.77172192               -0.03587363                0.12195957                1.49283536                0.15427560               -0.00099120
               4.96382341                9.95187347               79.10847077                0.01000000               -0.83510583               -0.02077178                0.12534115                1.19993322                0.30138048               -0.02104639
               5.96218805                9.96535773               79.11502314                0.01000003                0.09016536               -0.10412795                0.13097738                0.62243532                0.26795012               -0.00388948
               6.96562672                9.97343841               79.12140891                0.01000000                0.50672471               -0.24118921                0.13910669                0.43405829                0.27748591                0.01262113
               7.97232255                9.97834875               79.12831787                0.01000001                0.83624081               -0.39272246                0.14998367                0.64188139                0.32222259                0.06461480
               8.98235154                9.98690112               79.13586461                0.99999999                0.47313487               -0.04676694                0.17138572                0.54925207                0.17799526                0.00705556
               9.98178525                9.98445434               79.13999255                0.99999991               -0.05662920               -0.05733515                0.20309638               -0.00986162                0.00716001               -0.00715933
              -0.11988156               -0.03149443               80.06299514                1.00000000               -0.01450182               -0.01824572                0.09575889               -0.00351019                0.00810269               -0.00650000
               0.87997343               -0.03623118               80.06585665                1.00000000               -0.00111142               -0.03241653                0.07839920                0.00454804                0.01278549                0.00301711
               1.88009622               -0.04038764               80.06879193                0.52998140                0.08569313               -0.01003769                0.05327462                0.12420482                0.03269635                0.00362162
               2.88168729               -0.04122614               80.07194622                0.43246534                0.13821889                0.02134453               -0.03704082                0.10013810               -0.00739630                0.00767697
               3.88286059               -0.03704399               80.07472273                0.34258664               -0.01814422                0.05098322               -0.00585249                0.07938753               -0.03119956               -0.01656081
               4.88132440               -0.02920404               80.07766297                0.46589025               -0.17297793                0.03764329                0.05589847                0.10221321                0.02111018               -0.00607241
               5.87940103               -0.02354338               80.08042100                1.00000000               -0.12555516               -0.00812171                0.06884123                0.10699330               -0.01413164                0.00549980
               6.87881330               -0.02031719               80.08273961                1.00000000               -0.05909888               -0.02262648                0.09866928                0.00985857               -0.03148596               -0.00601851
               7.87821906               -0.01765619               80.08498850                1.00000000               -0.05315545               -0.02734742                0.10649223                0.00190816               -0.02485758               -0.00027870
               8.87775019               -0.01532005               80.08742496                0.99999999               -0.04042161               -0.03028357                0.10147377               -0.00214735               -0.01211696               -0.00021208
               9.87741062               -0.01303144               80.08995519                1.00000000               -0.03395664               -0.03140284                0.10042180               -0.00257300               -0.00857714               -0.00858991
              -0.11517990                0.96832312               80.06502276                1.00000000               -0.03545848               -0.00984162                0.09140459                0.00426626               -0.00475560               -0.00844750
               0.88446551                0.96344465               80.06786782                0.01000000               -0.04921750               -0.04386283                0.07796493                0.05074285               -0.01122264                0.01478979
               1.88383575                0.95951199               80.07061348                0.01000000               -0.17243320                0.02692716                0.06765616                0.05509498                0.00119181                0.02323839
               2.88101685                0.95898730               80.07387173                0.08269488               -0.30961641                0.06090785                0.09321739               -0.10767412                0.06778621                0.10820604
               3.87764342                0.96346584               80.07747690                0.01000001               -0.27103089                0.01533638                0.07860781                0.29725232                0.14430854               -0.00872021
               4.87559623                0.97117239               80.08128440                0.01000000               -0.08079382               -0.11250475                0.00361414                0.55784611                0.07229008                0.02798816
               5.87602754                0.97637540               80.08410225                0.01000001                0.01860314               -0.15494156                0.03521798                0.36371369                0.01125912                0.02214188
               6.87596829                0.97945655               80.08650965                0.02181703               -0.01439852                0.00154997                0.08533631                0.01106137               -0.01464809               -0.12558010
               7.87573957                0.98207034               80.08887543                0.99999999               -0.02759748               -0.02996228                0.10796273                0.00702526               -0.00678022                0.00203383
               8.87541634                0.98437711               80.09138631                0.99999999               -0.03216446               -0.03207690                0.10670961               -0.00300602                0.00222016                0.00455521
               9.87509628                0.98665453               80.09392794                1.00000000               -0.03200609               -0.03293026                0.10587641               -0.00337469                0.00298187               -0.00783558
              -0.11003931                1.96830874               80.06701892                0.57347133               -0.01612810                0.02412221                0.08127369                0.05003182                0.00106026               -0.01358073
               0.88979941                1.96289156               80.07008892                0.01000000               -0.21526122               -0.10353157                0.07397679                0.20332234               -0.01864188                0.05298551
               1.88565547                1.96015091               80.07277358                0.01000001               -0.71097299                0.01963528                0.21128960                0.44867710               -0.04350962                0.15988410
               2.87557995                1.95999201               80.07785904                0.01000000               -0.45174593                0.05207860                0.07567873                0.81572907               -0.46501826                0.08482339
               3.87662055                1.96326274               80.08054571                0.01000000                0.19959048               -0.07649181               -0.04610599                1.10935444               -0.24174237                0.11010269
               4.87957176                1.96854586               80.08560304                0.01000001                0.08853013               -0.22372313                0.00686917                1.15647196                0.05158460                0.02365201
               5.87839115                1.97335779               80.08822334                0.01000002               -0.31160825               -0.19702906                0.06857623                1.03036335               -0.11369919                0.03701799
               6.87333960                1.97971381               80.08782124                0.01000002               -0.24760778               -0.12585365                0.15487582                0.71297655                0.07293052               -0.01552724
               7.87343900                1.98174457               80.09276086                0.01000000               -0.01168614               -0.18330074                0.11656868                0.28061548                0.14028558               -0.01487233
               8.87310587                1.98403841               80.09542557                0.99817024               -0.03253538               -0.03441825                0.11145020                0.00004211                0.01879197                0.01962657
               9.87278829                1.98630996               80.09792344                1.00000000               -0.03175847               -0.03495277                0.10878266               -0.00214841                0.01007758               -0.00566721
              -0.10334491                2.96880556               80.06902123                0.30475984                0.00347036                0.09080555                0.04639267                0.15809439                0.00013744               -0.00355969
               0.89668979                2.96137402               80.07274138                0.01000000               -0.04731249               -0.26499892                0.06952668                0.49035215                0.02066788                0.17464100
               1.89570884                2.95990469               80.07705586                0.01000000               -0.12350962               -0.13010146                0.13346736                1.05808129                0.02870800                0.24421553
               2.89421960                2.96002887               80.08094964                0.01000000               -0.22160912               -0.07685366                0.12186908                1.63474444                0.09221360                0.12945751
               3.89127666                2.96193600               80.08522106                0.01000004               -0.27944929               -0.10211705                0.08464333                1.69599168                0.07135746                0.08730656
               4.88863061                2.96669793               80.08890037                0.01000000               -0.29048980               -0.13126988                0.06742182                1.58671729                0.04014401                0.00487939
               5.88546686                2.97243482               80.09204740                0.01000000               -0.33947824               -0.08729321                0.08403981                1.44235048                0.07170988                0.02313987
               6.88184105                2.97693947               80.09509989                0.01000000               -0.42197894               -0.15294406                0.08898931                1.20980882                0.03564127                0.16541236
               7.87702728                2.97840432               80.09623812                0.01000001               -0.54946280               -0.07770914                0.25183480                0.80555999                0.27643183               -0.05243446
               8.87085179                2.98368875               80.09965575                0.89245965               -0.32585305               -0.03567780                0.11823323                0.15152608                0.05768959                0.02211731
               9.87051022                2.98595548               80.10191918                0.99999999               -0.03415728               -0.03490076                0.11192659               -0.00112880               -0.00196575               -0.00557718
              -0.09201435                3.97012485               80.07184529                0.23477506                0.05216674                0.03538231                0.00063392                0.11102965               -0.00467062                0.12545348
               0.90850732                3.95759158               80.07640067                0.01000000                0.00882946               -0.29711610                0.05524076                0.75231497               -0.02289541                0.21489047
               1.90816224                3.95754888               80.08066929                0.01000000               -0.11318969               -0.21260546                0.10203110                1.32294294                0.04086220                0.15609413
               2.90624353                3.95845494               80.08477649                0.01000000               -0.21454581               -0.17793964                0.10977247                1.42858457                0.06185257                0.12619076
               3.90387133                3.96122039               80.08877197                0.01000000               -0.27181203               -0.12450324                0.09913194                1.66252635                0.07788485                0.06999217
               4.90080729                3.96592047               80.09259686                0.01000000               -0.34373558               -0.10390167                0.09345168                1.82308332                0.07779388                0.04174162
               5.89699662                3.97161193               80.09618346                0.01000000               -0.46205066               -0.06933710                0.09506450                1.83644606                0.06592725                0.04111689
               6.89156627                3.97665493               80.09923966                0.01000003               -0.70978468                0.01477116                0.11466689                1.68472837                0.06785731                0.01680083
               7.88280092                3.98019038               80.10205710                0.01000001               -1.14905181                0.17204914                0.10780174                1.55342515               -0.03054081                0.12624894
               8.86858524                3.98332485               80.10369828                0.01000002               -0.72843354               -0.11298659                0.12487669                1.62010754               -0.01884833                0.12170458
               9.86823225                3.98561194               80.10590417                0.01571305               -0.03529868               -0.91091272                0.11674268                1.62374296                0.00448473                0.13919382
              -0.07605779                4.96951321               80.07599088                0.26125187                0.03698496               -0.15497232                0.03045343                0.10074455               -0.02586511                0.18975973
               0.92431206                4.95543170               80.07981311                0.01000000               -0.13189366               -0.04874865                0.01124418                0.78176419               -0.00538995                0.11337255
               1.92130434                4.95565258               80.08399523                0.01000001               -0.25961458               -0.17827808                0.07319829                1.34187900                0.02650624                0.10134565
               2.91911977                4.95647008               80.08807751                0.01000000               -0.21213427               -0.23870045                0.09681682                1.47021017                0.04819280                0.08012152
               3.91706166                4.95944594               80.09215406                0.01000000               -0.22095127               -0.24370866                0.10371809                1.75164830                0.06904374                0.05979264
               4.91470075                4.96461989               80.09617430                0.01000000               -0.28001702               -0.18686526                0.10264403                2.01866783                0.07588437                0.04476444
               5.91146132                4.97104808               80.10003069                0.01000002               -0.38717938               -0.09342583                0.10488998                2.16852576                0.07232995                0.03719999
               6.90695716                4.97723490               80.10367207                0.01000002               -0.50177284                0.01197335                0.10730008                2.22129319                0.04651325                0.06120273
               7.90142586                4.98184530               80.10691538                0.01000000               -0.45623881                0.03381525                0.11486944                2.20596823                0.02810217                0.10319745
               8.89783238                4.98142902               80.10994258                0.01000008               -0.15074776               -0.27430146                0.11864311                1.93633566                0.01148104                0.20330800
               9.89841090                4.96773722               80.11284381                0.01000000                0.05785201               -1.08825910                0.11859280                1.27459585               -0.00011102                0.29965052
              -0.06183644                5.96702540               80.07902079                0.76948950               -0.01603275               -0.15410221                0.07458252                0.18159228                0.01908895                0.00215745
               0.93800323                5.95661661               80.08265501                0.01000001               -0.21010559                0.06380760                0.04982850                0.54015672                0.03116728                0.07916374
               1.93396144                5.95398332               80.08673973                0.01000002               -0.30744269               -0.19412812                0.06650058                1.03531321                0.03408451                0.04382616
               2.93185437                5.95368093               80.09097792                0.01000000               -0.16034829               -0.35564527                0.09226516                1.36314971                0.05079902                0.04156345
               3.93075448                5.95634622               80.09523990                0.01000000               -0.11379364               -0.40285242                0.10371737                1.76756917                0.06689101                0.03699589
               4.92957850                5.96218316               80.09952099                0.01000002               -0.15011749               -0.31996532                0.10694388                2.14669577                0.07651970                0.03273158
               5.92775213                5.96974341               80.10376543                0.01000000               -0.21917934               -0.17683784                0.10855694                2.34958565                0.07485061                0.03904998
               6.92519492                5.97689440               80.10787772                0.01000000               -0.25129805               -0.07158752                0.11178256                2.34616888                0.06417782                0.06398462
               7.92272617                5.98086669               80.11179631                0.01000001               -0.18874418               -0.08158796                0.11613709                2.06757189                0.04420385                0.11691738
               8.92142003                5.97783883               80.11547711                0.01000000               -0.08092079               -0.19573474                0.12137971                1.29556067                0.02095797                0.18881331
               9.92110775                5.96384676               80.11895636                0.01000000               -0.03122797               -0.12703764                0.12485776                0.63861984                0.00536738                0.27299111
              -0.05160835                6.96643116               80.08062224                1.00000000               -0.02343599               -0.05454204                0.08944402                0.01743279               -0.00223369               -0.04113938
               0.94815729                6.95670785               80.08458702                0.01000002               -0.17226805                0.00022592                0.07050005                0.25201817                0.01648629                0.00521136
               1.94494629                6.95177002               80.08898352                0.01000001               -0.20687133               -0.31800647                0.08114696                0.80700631                0.04967554               -0.00535500
               2.94401986                6.94935717               80.09337022                0.01000000               -0.05177387               -0.47241223                0.09586364                1.10937492                0.05823032                0.00170160
               3.94391081                6.95138889               80.09792384                0.01000000                0.01088066               -0.66025129                0.10598231                1.69417087                0.07586059                0.00513807
               4.94423747                6.95822059               80.10255844                0.01000002               -0.00845087               -0.45390520                0.11024495                2.19048695                0.08677219                0.00872225
               5.94374179                6.96751132               80.10725689                0.01000000               -0.07401073               -0.23162242                0.11249966                2.32367170                0.09460735                0.02715035
               6.94275726                6.97580315               80.11197910                0.01000008               -0.09544618               -0.12211881                0.11528868                2.21023400                0.09246920                0.06154936
               7.94183287                6.98021355               80.11659632                0.01000000               -0.09968677               -0.02548126                0.11994687                1.84519027                0.07502540                0.12985995
               8.94076352                6.97751432               80.12098380                0.01000001               -0.13327188                0.13626063                0.12674037                1.07987553                0.04077911                0.21259510
               9.93916743                6.96519647               80.12497710                0.01000000               -0.15960936                0.31844570                0.13533255                0.48602229                0.01900755                0.29859128
              -0.04204117                7.96593456               80.08223638                0.99999998               -0.02540969               -0.04695535                0.10020479                0.00642338               -0.00428354               -0.02621539
               0.95770473                7.95662113               80.08633606                0.99999999               -0.02532909               -0.01746370                0.09415245                0.01791816               -0.00416484               -0.00798178
               1.95745225                7.94762319               80.09044388                0.01000000               -0.16408654               -0.22308244                0.09551549                0.45779464                0.02975135               -0.01636821
               2.95442300                7.94423269               80.09523102                0.01000001               -0.08388834               -0.55020014                0.10469724                0.88375332                0.07922671               -0.03918853
               3.95577448                7.94314120               80.10007312                0.01000008                0.14214025               -1.09780563                0.11211771                1.53993884                0.09181417               -0.07494314
               4.95726581                7.95310506               80.10512266                0.01000000                0.04342613               -0.43035930                0.11479204                2.13501323                0.11634663               -0.01358497
               5.95664300                7.96511096               80.11048213                0.01000001               -0.02842164               -0.20089152                0.11710845                2.01680521                0.13690157                0.01007236
               6.95669737                7.97445202               80.11587960                0.01000000                0.06378973               -0.15608981                0.12038853                1.81204737                0.14889373                0.04645134
               7.95791880                7.98035706               80.12148282                0.01000001                0.06686208               -0.06090493                0.12561056                1.63889645                0.13742827                0.12028176
               8.95803462                7.98056404               80.12675880                0.01000002               -0.12274509                0.33082831                0.13543110                1.23233876                0.08544834                0.31109484
               9.95546390                7.97021567               80.13145774                0.01000002               -0.25707190                0.82224819                0.14973987                0.76058843                0.05433473                0.35137723
              -0.03285302                8.96549205               80.08391163                0.99999999               -0.03199558               -0.04079193                0.10796704                0.00107903               -0.00024344               -0.01253898
               0.96682703                8.95635858               80.08808763                0.99999999               -0.03281805               -0.02988705                0.10806487               -0.00037288                0.00137910               -0.00555768
               1.96649062                8.94730837               80.09228008                0.99999999               -0.03250552               -0.03235189                0.10934596                0.00200895                0.00541918                0.00134183
               2.96617692                8.93835317               80.09652395                1.00000000               -0.03267040               -0.31146454                0.11476444                0.14071460                0.00588839               -0.02604706
               3.96583722                8.92943278               80.10072952                0.01000002               -0.06044725               -0.70293271                0.11730890                1.51184384                0.12828020               -0.05813453
               4.96496797                8.94961340               80.10742966                0.01000002               -0.15531420               -0.18543759                0.12013459                1.83920853                0.22336753               -0.01949875
               5.96273093                8.96349349               80.11345342                0.01000000               -0.06079334               -0.13207311                0.12340315                1.23886261                0.19634011               -0.00320859
               6.96375211                8.97268135               80.11951028                0.01000001                0.28839244               -0.20658457                0.12820739                1.02403599                0.21232333                0.02187753
               7.96849878                8.97899545               80.12592964                0.01000002                0.58997908               -0.25951306                0.13562758                1.08675260                0.30603659                0.07902657
               8.97555169                8.98413089               80.13413578                1.00000000                0.32885735                0.15480344                0.14515703                1.13735002                0.18115927                0.20392396
               9.97507593                8.98164144               80.13857145                0.99999996               -0.04757608                0.54277586                0.17500102                0.85637833               -0.00746665                0.17592817
              -0.02375264                9.96511873               80.08568368                1.00000000               -0.03664044               -0.03733289                0.11971975                0.00050415                0.00017596               -0.00522320
               0.97588096                9.95602339               80.08987709                1.00000000               -0.03747643               -0.03351899                0.12050210               -0.00173585                0.00294572               -0.00252237
               1.97549783                9.94697615               80.09409646                0.99999999               -0.03840356               -0.03322229                0.11975651               -0.00027862                0.00635382                0.00066556
               2.97511289                9.93800339               80.09833773                0.99999997               -0.03733532               -0.03497771                0.11865794               -0.00108344                0.00642715                0.00006148
               3.97475113                9.92908254               80.10254683                0.05268205               -0.75618126               -0.03502371                0.11930709                1.46103672                0.15340486               -0.00058432
               4.95998926                9.94939630               80.10972919                0.01000000               -0.81994098               -0.02170982                0.12600135                1.17147679                0.30279881               -0.01984482
               5.95835231                9.96246950               80.11633268                0.01000001                0.08434398               -0.10239951                0.13156055                0.60833895                0.26511885               -0.00543312
               6.96167614                9.97032033               80.12280001                0.01000000                0.49260029               -0.23610214                0.13965356                0.42726866                0.27192136                0.01075643
               7.96820431                9.97516680               80.12982010                0.01000003                0.82297431               -0.38286457                0.15075780                0.63754228                0.31674567                0.06226689
               8.97813563                9.98366011               80.13758159                0.99999999                0.46830267               -0.04707807                0.17200900                0.55361352                0.17334684                0.00705585
               9.97757037                9.98107119               80.14201725                0.99999991               -0.05652604               -0.05702441                0.20185300               -0.00944747                0.00715760               -0.00715757
              -0.12257631               -0.03354271               81.06395447                1.00000000               -0.01557352               -0.01936401                0.09308596               -0.00302041                0.00521780               -0.00224892
               0.87726796               -0.03817412               81.06662350                0.97067145               -0.00401238               -0.02993862                0.07648032                0.00402753                0.00189871                0.00894999
               1.87734345               -0.04229071               81.06926548                0.45290564                0.06761565               -0.01041903                0.05356367                0.10034572               -0.01782294                0.00452432
               2.87862027               -0.04367609               81.07172744                0.32933760                0.11916664                0.01795645                0.00223036                0.08890854               -0.04356387                0.02065771
               3.87972678               -0.04040622               81.07459852                0.23258485                0.00112789                0.04648488               -0.00951892                0.12218764                0.01920105               -0.01692761
               4.87864283               -0.03268236               81.07816322                0.30871934               -0.16136465                0.04072157                0.04747959                0.10673821                0.06469349               -0.02266010
               5.87649949               -0.02691508               81.08116181                1.00000000               -0.13029146               -0.01676947                0.07885745                0.13294263               -0.02295110                0.01704766
               6.87603700               -0.02403271               81.08369618                1.00000000               -0.04850387               -0.02305678                0.09370930                0.00509198               -0.04367962               -0.00482619
               7.87552941               -0.02153220               81.08603479                0.99999998               -0.04709941               -0.02588201                0.10097862                0.00296778               -0.04049286                0.00212916
               8.87509501               -0.01931058               81.08843718                0.99999999               -0.03857318               -0.02951395                0.09943581               -0.00059855               -0.02551387               -0.00028099
               9.87475795               -0.01714363               81.09097512                1.00000000               -0.03370670               -0.03135632                0.10131582               -0.00168060               -0.01736133               -0.01421312
              -0.11797510                0.96626365               81.06594533                1.00000000               -0.03426646               -0.01381069                0.09111213                0.00250711                0.00028280               -0.00659249
               0.88168223                0.96152649               81.06864189                0.01000000               -0.04635036               -0.03709554                0.07670707                0.04174747                0.00126547                0.01787985
               1.88109789                0.95760510               81.07129768                0.01000000               -0.15575600                0.03287598                0.06767623                0.01416874                0.04794942                0.12925132
               2.87856711                0.95650347               81.07470636                0.01000000               -0.28230513                0.01195831                0.07320561               -0.18488313                0.13811760                0.00289187
               3.87545179                0.96005863               81.07821742                0.01000001               -0.28012367                0.05513742                0.06989365                0.24599932                0.12905708               -0.09492824
               4.87296464                0.96772486               81.08139420                0.01000000               -0.09738496               -0.10968122                0.02493311                0.55356934                0.04561059                0.00615220
               5.87350409                0.97291723               81.08453836                0.01000001                0.02159208               -0.16077281                0.05623343                0.39620803                0.04182356                0.05029086
               6.87339648                0.97573672               81.08727225                0.01000004               -0.01530328               -0.07113231                0.07799637                0.10573543                0.00950329               -0.03569038
               7.87319802                0.97820898               81.08990798                1.00000000               -0.02508697               -0.02759898                0.10037270                0.00872631                0.00084456                0.00708511
               8.87289474                0.98039428               81.09244700                0.99999999               -0.03119179               -0.03081623                0.10430176               -0.00186521               -0.00125651                0.00341521
               9.87257419                0.98254280               81.09499998                1.00000000               -0.03205549               -0.03221137                0.10650817               -0.00294515                0.00017290               -0.01499121
              -0.11305185                1.96618107               81.06787246                0.56219237               -0.01866877                0.00612633                0.08822404                0.03062251                0.00174130               -0.02276464
               0.88676146                1.96108397               81.07078712                0.01000000               -0.21491500               -0.06905718                0.06923397                0.16166414                0.10819064                0.05286846
               1.88264985                1.95836681               81.07589266                0.01000001               -0.71461871                0.01934306                0.19935830                0.33037674                0.17893529                0.13619791
               2.87246908                1.95656307               81.07750211                0.01000000               -0.46122324                0.05012107                0.08714633                0.74512876                0.52226401                0.12364732
               3.87342538                1.96069653               81.08033614                0.01000000                0.21932670               -0.05993846                0.06291179                1.07582193                0.45965940                0.06660344
               4.87685562                1.96512402               81.08513851                0.01000001                0.14932017               -0.21622308               -0.00386309                1.11100291                0.23141439                0.07275805
               5.87641178                1.96986946               81.08873608                0.01000002               -0.19978297               -0.21322130                0.04724456                0.95942345                0.04797259                0.07254484
               6.87285996                1.97454464               81.09025887                0.01000001               -0.26827016               -0.15323050                0.24104340                0.70875036                0.16902283               -0.04631558
               7.87104638                1.97791582               81.09386736                0.01000000               -0.10680375               -0.16160244                0.10747614                0.32518756                0.07346218                0.03015968
               8.87072388                1.98007309               81.09651735                0.99999999               -0.03221970               -0.03183047                0.10855015                0.00096634                0.01779541                0.02348805
               9.87040199                1.98221214               81.09900062                0.99999999               -0.03218964               -0.03383899                0.10870851               -0.00202624                0.00954786               -0.00947644
              -0.10716844                2.96638618               81.06968068                0.24425600               -0.01017774                0.09299335                0.08113668                0.18633675               -0.00141284               -0.03077854
               0.89272978                2.96014535               81.07329396                0.01000000               -0.03026181               -0.23417863                0.05324638                0.42285016                0.05894791                0.16904563
               1.89222632                2.95799196               81.07835489                0.01000000               -0.07949045               -0.14322868                0.11477902                0.95013319                0.14882274                0.05602979
               2.89113997                2.95750589               81.08237830                0.01000000               -0.19095199               -0.02614506                0.10688530                1.56156167                0.07680686                0.13808331
               3.88840728                2.95885986               81.08584659                0.01000002               -0.25641065               -0.11398726                0.06669331                1.66087380                0.10495021                0.19896487
               4.88601176                2.96340039               81.08939869                0.01000000               -0.25676751               -0.11948103                0.05668654                1.54281597                0.11547119                0.11044490
               5.88327193                2.96865280               81.09276509                0.01000000               -0.32433120               -0.09115652                0.07628125                1.35830127                0.09587065                0.05541374
               6.87952514                2.97267211               81.09576809                0.01000000               -0.45493033               -0.08522484                0.07978478                1.12670705                0.02109942                0.10849094
               7.87417333                2.97497693               81.09815769                0.01000001               -0.54536938               -0.07750781                0.16857562                0.83384950               -0.00032550                0.10524979
               8.86861775                2.97975767               81.10091279                0.99999999               -0.29588810               -0.03379172                0.11919535                0.13469665                0.02532618                0.03418069
               9.86825556                2.98186602               81.10312841                0.99999999               -0.03621838               -0.03550957                0.11539226               -0.00256808               -0.00080336               -0.00031825
              -0.09684347                3.96804094               81.07195635                0.17254816                0.04561457                0.07688067                0.03514792                0.18789584                0.01588089                0.11212519
               0.90361267                3.95640040               81.07683920                0.01000001                0.05677192               -0.33564306                0.03972902                0.74970030                0.00250140                0.22211856
               1.90429197                3.95550224               81.08168891                0.01000000               -0.03901272               -0.22162700                0.08949204                1.24360174                0.06126253                0.10160633
               2.90283242                3.95604017               81.08578257                0.01000002               -0.17718070               -0.17094539                0.09494250                1.36466650                0.06474899                0.08305315
               3.90074835                3.95841678               81.08966796                0.01000000               -0.24567136               -0.10487865                0.08511933                1.59784849                0.07275242                0.08648762
               4.89791899                3.96273440               81.09342737                0.01000000               -0.32211298               -0.09091521                0.08167872                1.75518648                0.08228337                0.08030486
               5.89430609                3.96804633               81.09702433                0.01000000               -0.44245116               -0.05001123                0.08391181                1.76114702                0.07213421                0.07047315
               6.88906997                3.97284015               81.10029417                0.01000002               -0.68341397                0.04365043                0.10134418                1.63948085                0.04799835                0.07737772
               7.88063781                3.97636566               81.10310418                0.01000004               -1.12706246                0.15130470                0.11458867                1.54570302                0.01085105                0.11755329
               8.86652872                3.97939726               81.10518183                0.01000001               -0.72519527               -0.10908605                0.13078306                1.57735952                0.00371421                0.11079257
               9.86613391                3.98150195               81.10730812                0.05416946               -0.03948118               -0.88438492                0.12516039                1.57451485                0.00749034                0.12834533
              -0.08012943                4.96792379               81.07627332                0.19109702                0.03919276               -0.16766935                0.03975003                0.13534010               -0.02934613                0.22423476
               0.92026249                4.95343249               81.08008205                0.01000000               -0.12059911               -0.07118157                0.03962917                0.83236421                0.01504638                0.12107032
               1.91745858                4.95355942               81.08474453                0.01000001               -0.23718677               -0.18108414                0.07590901                1.32963723                0.06411998                0.07315506
               2.91551876                4.95408698               81.08900988                0.01000000               -0.18942778               -0.23233928                0.08897757                1.42510666                0.05878891                0.06168789
               3.91367003                4.95676228               81.09312295                0.01000000               -0.20164111               -0.23160493                0.09296862                1.69315191                0.06663983                0.05931953
               4.91148594                4.96158209               81.09713779                0.01000000               -0.26404520               -0.17262983                0.09376427                1.95035536                0.07086939                0.05546566
               5.90838912                4.96765258               81.10102334                0.01000003               -0.37452555               -0.07802065                0.09770294                2.09705813                0.06756013                0.05515104
               6.90399543                4.97354512               81.10469290                0.01000002               -0.49294240                0.02512314                0.10352944                2.15315182                0.05213385                0.07035066
               7.89853028                4.97800302               81.10803869                0.01000000               -0.44833862                0.03913337                0.11261859                2.13735223                0.03234473                0.10945460
               8.89502865                4.97757595               81.11108435                0.01000002               -0.14968997               -0.26232850                0.11876869                1.88397782                0.01891304                0.18829347
               9.89553648                4.96417833               81.11400096                0.01000000                0.05078242               -1.05108366                0.11997078                1.23753050                0.00510954                0.28803837
              -0.06515407                5.96468755               81.07979027                0.81405907               -0.02216026               -0.18100728                0.07443938                0.26081150                0.01802864                0.02907791
               0.93462433                5.95497677               81.08334399                0.01000001               -0.23078559                0.07196428                0.07577521                0.55909556                0.04221144                0.08939117
               1.93023022                5.95188055               81.08745137                0.01000000               -0.32463181               -0.18648238                0.07689874                1.00379957                0.05545330                0.03965321
               2.92813169                5.95139339               81.09187792                0.01000000               -0.15569662               -0.34381733                0.09024827                1.32661672                0.06754077                0.03377899
               3.92711629                5.95378468               81.09623608                0.01000000               -0.10479408               -0.38878020                0.09796771                1.71344713                0.06826895                0.03410886
               4.92603581                5.95928180               81.10055759                0.01000003               -0.14160283               -0.30593086                0.10205172                2.08045926                0.07157314                0.03439706
               5.92428423                5.96648592               81.10482178                0.01000000               -0.21266249               -0.16402635                0.10504243                2.27975615                0.07030422                0.04094315
               6.92178256                5.97334261               81.10897569                0.01000000               -0.24650979               -0.05961343                0.10963272                2.28119573                0.06203180                0.06450740
               7.91935403                5.97714833               81.11294661                0.01000001               -0.18747922               -0.07063781                0.11579246                2.01509338                0.04613824                0.11214489
               8.91803297                5.97415069               81.11669377                0.01000000               -0.08371372               -0.18276784                0.12214421                1.26174086                0.02313655                0.18487289
               9.91767976                5.96048028               81.12021055                0.01000000               -0.03532166               -0.11513004                0.12634469                0.62214412                0.00801107                0.27627027
              -0.05549163                6.96430364               81.08150084                1.00000000               -0.02569683               -0.03874581                0.08591760                0.00740488               -0.00122001               -0.04645545
               0.94425141                6.95487177               81.08535285                0.01000002               -0.16952099               -0.01254898                0.08121511                0.22495714                0.02831080                0.00788891
               1.94111796                6.94982977               81.08982211                0.01000000               -0.20522214               -0.30549241                0.08772264                0.77206652                0.06720161               -0.00026969
               2.94014696                6.94721064               81.09432480                0.01000000               -0.05336989               -0.45746302                0.09686544                1.07171915                0.06999484                0.00297543
               3.94005056                6.94898668               81.09896885                0.01000002                0.01234592               -0.64071076                0.10451910                1.64307165                0.07777717                0.00537370
               4.94039388                6.95546347               81.10364671                0.01000043               -0.00635593               -0.43935824                0.10868214                2.12647249                0.08166838                0.00754343
               5.93992344                6.96437205               81.10837189                0.01000000               -0.07184753               -0.22145011                0.11160739                2.25883522                0.08709010                0.02418903
               6.93895693                6.97235285               81.11312601                0.01000189               -0.09496863               -0.11330814                0.11519876                2.15218422                0.08559256                0.05531271
               7.93802407                6.97659027               81.11779425                0.01000002               -0.10127036               -0.01757521                0.12055783                1.79880778                0.07006249                0.12066228
               8.93693152                6.97392059               81.12225148                0.01000001               -0.13519427                0.14199546                0.12779766                1.05301845                0.03876324                0.20428583
               9.93532018                6.96187572               81.12633022                0.01000000               -0.16113437                0.31838934                0.13635605                0.47277127                0.01902753                0.29969122
              -0.04614224                7.96391264               81.08320472                0.99999999               -0.02604234               -0.03825311                0.09426774                0.00433087               -0.00212464               -0.03542134
               0.95359734                7.95472579               81.08727417                1.00000000               -0.02625386               -0.02045452                0.09416871                0.01324146                0.00043439               -0.00431973
               1.95333269                7.94577070               81.09140539                0.01000002               -0.15940861               -0.21879788                0.09761242                0.43654937                0.03924778               -0.01117142
               2.95040917                7.94224413               81.09627889                0.01000001               -0.08039015               -0.53445002                0.10610242                0.85333898                0.08723774               -0.03310956
               3.95172488                7.94097047               81.10118880                0.01000000                0.13853616               -1.06840749                0.11251891                1.49312096                0.09199429               -0.07083642
               4.95317989                7.95049463               81.10627097                0.01000000                0.04233370               -0.41893909                0.11577494                2.07454329                0.11019241               -0.01436379
               5.95257156                7.96205692               81.11165436                0.01000001               -0.02859323               -0.19438788                0.11817495                1.96253642                0.12759506                0.00637949
               6.95260803                7.97107645               81.11708673                0.01000002                0.05954471               -0.14927033                0.12170332                1.76674353                0.13808481                0.03960350
               7.95376245                7.97679683               81.12274322                0.01000001                0.05999302               -0.05355240                0.12701752                1.60102014                0.12721839                0.11006520
               8.95380789                7.97699059               81.12811654                0.01000002               -0.12687697                0.33519455                0.13656938                1.20064535                0.07909166                0.29931533
               9.95122491                7.96684806               81.13295522                0.01000002               -0.25829751                0.80555096                0.15021693                0.74055877                0.05211087                0.35428694
              -0.03703130                8.96353858               81.08496595                0.99999999               -0.03105285               -0.03577723                0.10234247                0.00082660               -0.00016088               -0.02048838
               0.96265817                8.95446268               81.08915443                0.99999998               -0.03190474               -0.02929225                0.10518327               -0.00018550                0.00224746               -0.00550938
               1.96233060                8.94545382               81.09336909                0.99999997               -0.03220939               -0.03237475                0.10885068                0.00189714                0.00908794                0.00503885
               2.96201398                8.93652164               81.09767818                0.99999999               -0.03340680               -0.30392545                0.11652038                0.13457831                0.01005894               -0.02243587
               3.96166247                8.92761853               81.10192407                0.01000000               -0.06078429               -0.68602923                0.12196429                1.47024892                0.12889238               -0.05307613
               4.96079830                8.94708469               81.10863380                0.01000001               -0.15350555               -0.18085531                0.12198518                1.78897074                0.21760431               -0.01905221
               5.95859236                8.96048429               81.11469534                0.01000000               -0.06231999               -0.12831792                0.12560123                1.20654044                0.18827599               -0.00520282
               6.95955190                8.96936744               81.12079975                0.01000001                0.27689816               -0.20011843                0.13030374                1.00023135                0.20156957                0.01789879
               7.96413032                8.97551922               81.12729291                0.01000002                0.56706494               -0.24918318                0.13744126                1.06852321                0.29180427                0.07266140
               8.97089319                8.98062448               81.13559353                0.99999999                0.31430514                0.15800109                0.14638463                1.11404832                0.17142803                0.19564941
               9.97041642                8.97798674               81.14031835                0.99999999               -0.04767727                0.52857590                0.17438002                0.82783470               -0.00746183                0.17513119
              -0.02797391                9.96319709               81.08684978                0.99999999               -0.03476926               -0.03414865                0.11243400                0.00002354               -0.00437489               -0.01118485
               0.97167839                9.95413994               81.09106071                1.00000000               -0.03572056               -0.03227438                0.11551027               -0.00167173               -0.00177823               -0.00303254
               1.97131168                9.94512321               81.09528166                1.00000000               -0.03711878               -0.03306057                0.11726561               -0.00060900                0.00164759                0.00256746
               2.97093602                9.93616562               81.09952682                0.99999997               -0.03724347               -0.03560210                0.11944366               -0.00146268                0.00306485               -0.00049705
               3.97056681                9.92724988               81.10375852                0.05672081               -0.74212372               -0.03686479                0.12324199                1.42602947                0.15175541                0.00028982
               4.95609354                9.94687753               81.11099080                0.01000000               -0.80735966               -0.02071636                0.12771954                1.14155875                0.30224958               -0.01784823
               5.95441961                9.95949056               81.11765435                0.01000000                0.07420904               -0.09937303                0.13348249                0.59255309                0.26240304               -0.00581509
               6.95757772                9.96707408               81.12420198                0.01000000                0.47281330               -0.22933671                0.14145282                0.41871292                0.26700262                0.00975524
               7.96387588                9.97181316               81.13133303                0.01000004                0.80218011               -0.37060573                0.15226388                0.62838295                0.31245563                0.06042811
               8.97362133                9.98015062               81.13930479                1.00000000                0.45905982               -0.04738627                0.17263081                0.55313413                0.16940349                0.00705638
               9.97305708                9.97741958               81.14402961                0.99999995               -0.05642517               -0.05671643                0.20062624               -0.00903837                0.00715570               -0.00715554
              -0.12511525               -0.03552112               82.06485686                1.00000000               -0.01843568               -0.02055924                0.08528348               -0.00199428                0.00323945                0.00170205
               0.87470039               -0.04008896               82.06738626                0.93496673               -0.01244687               -0.02724100                0.07629362                0.00178704               -0.00139098                0.00891257
               1.87463581               -0.04436155               82.06986320                0.38499441                0.03912929               -0.01686211                0.06785190                0.07535271               -0.03305732                0.00378799
               2.87548298               -0.04677081               82.07199083                0.22768838                0.10865121                0.00412887                0.06253718                0.12470794               -0.07758201                0.02684552
               3.87680883               -0.04462035               82.07453235                0.15086198                0.02859998                0.04499984                0.02537533                0.20536961                0.03928658                0.00025101
               4.87605498               -0.03611919               82.07861256                0.19024432               -0.16998863                0.04393434                0.05188341                0.14649314                0.12780229               -0.04590321
               5.87340906               -0.02995553               82.08199815                0.99917933               -0.14941243               -0.02375148                0.08466821                0.18535696               -0.00767213                0.02085291
               6.87306673               -0.02756585               82.08461380                1.00000000               -0.03704323               -0.02541064                0.09011896                0.00197970               -0.04880649               -0.00438377
               7.87266820               -0.02535997               82.08700808                1.00000000               -0.03835708               -0.02605619                0.09451721                0.00237856               -0.05053527                0.00506097
               8.87229959               -0.02334531               82.08941368                1.00000000               -0.03403428               -0.02894454                0.09498826               -0.00030950               -0.03592303               -0.00019267
               9.87198751               -0.02136541               82.09198151                0.99999998               -0.03120743               -0.03053804                0.09759545               -0.00138347               -0.02500687               -0.01964796
              -0.12056736                0.96427328               82.06684500                0.99999999               -0.02941674               -0.01803858                0.08701733                0.00060690                0.00278496               -0.00127579
               0.87913847                0.95963863               82.06940196                0.01000000               -0.03511875               -0.03070888                0.07635509                0.02195879                0.00746564                0.01412407
               1.87873026                0.95546983               82.07196700                0.01000001               -0.11395069                0.00895983                0.06991248                0.07576090                0.06166859                0.13185801
               2.87685946                0.95327047               82.07533584                0.01000000               -0.25967733                0.07819130                0.06037347                0.32292934                0.18400560                0.05319175
               3.87353672                0.95582965               82.07887477                0.01000002               -0.33359815                0.07929954                0.06438958                0.62090925                0.14334863               -0.08024634
               4.87018750                0.96432015               82.08178306                0.01000000               -0.12753775               -0.09421385                0.05927069                0.68612251                0.03866889               -0.01483666
               5.87098596                0.96980696               82.08522692                0.01000001                0.03006252               -0.17312556                0.07837693                0.43405300                0.06025283                0.05142186
               6.87078875                0.97218004               82.08806958                0.01640773               -0.02021262               -0.10712436                0.08438669                0.15472740                0.02123631                0.04944002
               7.87058171                0.97437947               82.09088288                0.99999999               -0.02447675               -0.02709944                0.09682754                0.00833864                0.00664195                0.01233617
               8.87029921                0.97636525               82.09347235                0.99999999               -0.02939659               -0.03061555                0.10095464               -0.00106601               -0.00339388                0.00377568
               9.86999378                0.97832921               82.09605811                1.00000000               -0.03054319               -0.03212946                0.10378780               -0.00234431               -0.00207761               -0.02022885
              -0.11583381                1.96411810               82.06878340                0.55594033               -0.02231733               -0.00835958                0.09139116                0.01625734                0.00194463               -0.01330920
               0.88394302                1.95929686               82.07147360                0.01000001               -0.08235032               -0.04678882                0.07199390                0.08778019                0.12852105                0.03769846
               1.88251918                1.95581765               82.07676075                0.01000001               -0.11806342               -0.01203943                0.03585743                0.31834147                0.31397779                0.12812062
               2.88158175                1.95479301               82.07960197                0.01000000               -0.21709221                0.06198036                0.13495376                0.62762878                0.59027978                0.14319045
               3.87817734                1.95696564               82.08180395                0.01000000               -0.28908167                0.03769196                0.16134124                1.00110392                0.45005025                0.03615496
               4.87580012                1.96199653               82.08552578                0.01000001               -0.19735525               -0.18510974                0.08517471                1.17251783                0.22507675                0.08910505
               5.87423024                1.96658196               82.08916823                0.01000002               -0.21056751               -0.22760567                0.06352727                0.91620187                0.09936982                0.08235191
               6.87158877                1.97029166               82.09264211                0.01000004               -0.27902351               -0.15530234                0.24895236                0.67988835               -0.03553822                0.15820259
               7.86864977                1.97409804               82.09491038                0.01000000               -0.16301208               -0.15534845                0.10425710                0.35225390                0.00739215                0.05363807
               8.86832852                1.97604238               82.09759657                0.99999999               -0.03185328               -0.03286844                0.10713340               -0.00088231                0.01906465                0.02332724
               9.86801270                1.97799200               82.10009761                0.99999999               -0.03158247               -0.03437953                0.10847367               -0.00158111                0.01032142               -0.01703304
              -0.11059973                2.96410609               82.07064397                0.20637471               -0.02057385                0.08283047                0.10360396                0.17824562                0.00000745               -0.03193100
               0.88919453                2.95870285               82.07380630                0.01000000                0.01003383               -0.20255019                0.05912132                0.30023655                0.11026764                0.12884564
               1.88960095                2.95522904               82.07935144                0.01000000               -0.04652425               -0.13131415                0.07365950                0.68660857                0.19745001                0.03446214
               2.88826405                2.95451008               82.08308734                0.01000000               -0.16228351               -0.06542919                0.07506669                0.96660732                0.12242716                0.07738317
               3.88635528                2.95658349               82.08655493                0.01000001               -0.21212574               -0.06459273                0.07877659                1.28060531                0.14805421                0.17994944
               4.88402153                2.96061796               82.09003410                0.01000000               -0.26702005               -0.11045362                0.07916200                1.39839124                0.13533849                0.14780754
               5.88101487                2.96525484               82.09357302                0.01000000               -0.35755485               -0.09094085                0.09493408                1.28991493                0.08173288                0.12112256
               6.87687043                2.96907399               82.09669559                0.01000000               -0.45694030               -0.05069963                0.09798219                1.04376392                0.05571373                0.10211872
               7.87187607                2.97127250               82.09960964                0.01000000               -0.52414141               -0.07187942                0.13723007                0.80572003                0.03331375                0.09812282
               8.86638761                2.97570788               82.10203965                1.00000000               -0.29065753               -0.03366190                0.11294636                0.12480924                0.01001016                0.02999168
               9.86606292                2.97764162               82.10422702                0.99999997               -0.03246875               -0.03428550                0.11016322               -0.00078635               -0.00092235               -0.00954820
              -0.10146242                3.96577471               82.07254825                0.13143170                0.02872184                0.10289477                0.08984270                0.26399216                0.02945911                0.07045648
               0.89882480                3.95524586               82.07719525                0.01000001                0.09532753               -0.36772669                0.04121012                0.71819504                0.03855987                0.23036427
               1.90044413                3.95319137               82.08245913                0.01000000                0.03673286               -0.19379134                0.06821175                1.11482698                0.10274039                0.07758768
               2.89955945                3.95348443               82.08667534                0.01000001               -0.13812798               -0.14507986                0.07801965                1.30677532                0.07620148                0.08307510
               3.89768157                3.95567378               82.09047436                0.01000000               -0.22314355               -0.12596389                0.08126935                1.51071493                0.07597359                0.10239734
               4.89509658                3.95978746               82.09423044                0.01000001               -0.30545348               -0.10094820                0.08510800                1.66427872                0.08453293                0.11029336
               5.89157250                3.96476314               82.09786170                0.01000000               -0.43250965               -0.04505958                0.09055076                1.68663682                0.07694516                0.09934878
               6.88644639                3.96927767               82.10126654                0.01000003               -0.67211084                0.04431998                0.10478172                1.60056789                0.05874961                0.10209747
               7.87813028                3.97266045               82.10434888                0.01000000               -1.09954003                0.14597357                0.12265792                1.49483558                0.00905164                0.10537351
               8.86445559                3.97536914               82.10631395                0.01000000               -0.70003962               -0.10124620                0.11628442                1.52533020                0.00072839                0.10815891
               9.86412949                3.97730629               82.10840738                0.05299892               -0.03260988               -0.85230285                0.11256818                1.52456233                0.00860502                0.12652983
              -0.08426218                4.96616399               82.07678588                0.14368675                0.04039569               -0.16976359                0.06732350                0.16238896               -0.03240740                0.21579107
               0.91614178                4.95134832               82.08060569                0.01000000               -0.10394522               -0.10561109                0.06479290                0.87753924                0.02208878                0.14448351
               1.91365892                4.95135322               82.08551341                0.01000001               -0.21123215               -0.17462833                0.07550915                1.31763065                0.08632175                0.07008541
               2.91191713                4.95160848               82.08985706                0.01000000               -0.16961877               -0.22214204                0.08262639                1.37860091                0.06853952                0.05784854
               3.91026654                4.95406421               82.09401344                0.01000001               -0.18496944               -0.22456441                0.08786946                1.63745663                0.06938248                0.06781473
               4.90821775                4.95859899               82.09804958                0.01000000               -0.25045682               -0.17126379                0.09257677                1.88085628                0.07097894                0.07067277
               5.90525740                4.96435365               82.10198475                0.01000006               -0.36166312               -0.07747110                0.09888970                2.02645037                0.06918530                0.07240300
               6.90098448                4.96996039               82.10574266                0.01000009               -0.47880498                0.02368877                0.10752383                2.08513251                0.05712528                0.08167183
               7.89568130                4.97419197               82.10916775                0.01000000               -0.43680560                0.03467872                0.11626408                2.07615666                0.04246683                0.10422052
               8.89224837                4.97368295               82.11231796                0.01000001               -0.15007178               -0.24999947                0.12358964                1.82834142                0.02579522                0.18494732
               9.89267987                4.96059556               82.11524322                0.01000002                0.04314981               -1.01316913                0.12467385                1.19650677                0.00765010                0.28976939
              -0.06858331                5.96237944               82.08050958                0.86091575               -0.02303391               -0.20381943                0.07124740                0.32168973                0.01383813                0.04714470
               0.93118635                5.95313364               82.08417051                0.01000001               -0.24400563                0.07935640                0.08503404                0.57899062                0.03536225                0.08875040
               1.92653658                5.94969880               82.08827770                0.01000002               -0.33829352               -0.17713015                0.08651086                0.97837011                0.05964760                0.04198736
               2.92442048                5.94904159               82.09278289                0.01000000               -0.15481934               -0.32963838                0.09144531                1.29197899                0.07475953                0.03695828
               3.92344019                5.95118250               82.09719925                0.01000000               -0.09981082               -0.37602803                0.09670235                1.65992523                0.07018471                0.03988227
               4.92242426                5.95636218               82.10156202                0.01000006               -0.13500412               -0.29704626                0.10120095                2.01406417                0.06959548                0.04195400
               5.92074011                5.96321372               82.10586628                0.01000001               -0.20567709               -0.15955622                0.10590052                2.20680734                0.06799862                0.04677171
               6.91831072                5.96975144               82.11007037                0.01000000               -0.24046262               -0.05810165                0.11160823                2.21012855                0.06210067                0.06500683
               7.91593086                5.97335403               82.11411216                0.01000031               -0.18459484               -0.06808932                0.11852624                1.95225235                0.04803934                0.10763936
               8.91461883                5.97036915               82.11792000                0.01000002               -0.08482233               -0.17528440                0.12502112                1.22216632                0.02532462                0.17713296
               9.91423441                5.95704291               82.12148326                0.01000000               -0.03844164               -0.10749696                0.12979636                0.60290695                0.00998343                0.27470203
              -0.05933678                6.96208760               82.08234059                1.00000000               -0.02609930               -0.03092057                0.08246131                0.00282264               -0.00074702               -0.04349190
               0.94040223                6.95293545               82.08621133                0.01000001               -0.16724277               -0.02002408                0.08826831                0.20247106                0.03189525                0.00402837
               1.93731837                6.94781061               82.09073797                0.01000001               -0.20646063               -0.29230120                0.09479171                0.73880888                0.07222041                0.00098222
               2.93627302                6.94501572               82.09530752                0.01000000               -0.05869606               -0.44122341                0.10077356                1.03484476                0.07446885                0.00802949
               3.93614445                6.94654365               82.10001422                0.01000003                0.00973926               -0.62066226                0.10609495                1.59122212                0.07784367                0.01119304
               4.93646780                6.95265807               82.10473208                0.01000000               -0.00700767               -0.42657497                0.10985577                2.05993554                0.07717311                0.01174911
               5.93600429                6.96116253               82.10948903                0.01000000               -0.07105270               -0.21493116                0.11312106                2.18896646                0.08082099                0.02494794
               6.93504675                6.96879836               82.11428308                0.01000002               -0.09478262               -0.10905485                0.11723494                2.08635722                0.07970660                0.05154145
               7.93410864                6.97283018               82.11900748                0.01000002               -0.10219665               -0.01471606                0.12299285                1.74407033                0.06604454                0.11248430
               8.93300282                6.97017726               82.12353976                0.01000000               -0.13590709                0.14195726                0.13045608                1.02005298                0.03720384                0.19639906
               9.93139050                6.95844562               82.12770422                0.01000000               -0.16123169                0.31351911                0.13909315                0.45655263                0.01932833                0.29979204
              -0.05022256                7.96176103               82.08412174                0.99999999               -0.02646862               -0.03251851                0.08956609                0.00239126               -0.00021863               -0.03807726
               0.94951276                7.95273316               82.08821944                0.99999999               -0.02724779               -0.02367997                0.09477227                0.00791728                0.00356443               -0.00400879
               1.94923249                7.94385278               82.09239613                0.01000070               -0.15642071               -0.21388670                0.10075944                0.41571153                0.04518906               -0.00815525
               2.94638434                7.94021712               82.09735307                0.01000000               -0.08051035               -0.51795962                0.10959518                0.82332894                0.09151828               -0.02655029
               3.94762228                7.93876925               82.10232350                0.01000000                0.13098762               -1.03710540                0.11564359                1.44642789                0.09041566               -0.06309554
               4.94900410                7.94783069               82.10743816                0.01000000                0.03784336               -0.40727690                0.11873358                2.01134141                0.10366741               -0.01142394
               5.94837915                7.95891510               82.11284563                0.01000001               -0.03169417               -0.18865376                0.12094088                1.90329334                0.11846147                0.00585194
               6.94837021                7.96757035               82.11831367                0.01000002                0.05271054               -0.14371395                0.12437220                1.71418923                0.12785605                0.03489044
               7.94943336                7.97305970               82.12402317                0.01000000                0.05171175               -0.04856588                0.12951274                1.55351991                0.11767067                0.10120575
               8.94940445                7.97320830               82.12949019                0.01000000               -0.13023049                0.33391794                0.13866578                1.16027907                0.07320821                0.28760624
               9.94682875                7.96331329               82.13446208                0.01000002               -0.25756983                0.78120273                0.15168413                0.71482688                0.05008698                0.35572376
              -0.04123320                8.96143723               82.08595848                1.00000000               -0.02979683               -0.03168352                0.09615937                0.00049017                0.00029822               -0.02429290
               0.95846883                8.95246185               82.09019130                0.99999998               -0.03090814               -0.02914894                0.10227302               -0.00017928                0.00324606               -0.00529809
               1.95814864                8.94353288               82.09445710                0.99999999               -0.03228538               -0.03252008                0.10893754                0.00134343                0.01210360                0.00780635
               2.95782312                8.93465652               82.09885435                0.99999999               -0.03445986               -0.29604724                0.11887424                0.12908196                0.01359612               -0.01881411
               3.95745944                8.92580154               82.10316880                0.01000000               -0.06371691               -0.66749064                0.12711891                1.42779900                0.12746077               -0.04686288
               4.95654878                8.94451253               82.10986937                0.01000001               -0.15644688               -0.17526719                0.12608989                1.73611211                0.21012860               -0.01657136
               5.95433050                8.95738945               82.11596545                0.01000002               -0.06814285               -0.12399549                0.12931167                1.17107969                0.17985771               -0.00539389
               6.95518593                8.96592408               82.12211635                0.01000001                0.26052932               -0.19296817                0.13360620                0.97183562                0.19092881                0.01533692
               7.95954109                8.97185887               82.12867847                0.01000002                0.53844431               -0.23822884                0.14005985                1.04243982                0.27793152                0.06714333
               8.96595481                8.97685562               82.13706347                0.99999997                0.29679837                0.15852053                0.14759608                1.08167431                0.16211188                0.18748840
               9.96547705                8.97406968               82.14205905                0.99999999               -0.04777590                0.50961365                0.17376039                0.79316053               -0.00745721                0.17385458
              -0.03226200                9.96112736               82.08793236                1.00000000               -0.03244853               -0.03098682                0.10378235               -0.00059775               -0.00745052               -0.01452638
               0.96741352                9.95215018               82.09218729                0.99999997               -0.03366620               -0.03116723                0.10976098               -0.00178039               -0.00516018               -0.00303117
               1.96706468                9.94320237               82.09644177                1.00000000               -0.03580986               -0.03305052                0.11487415               -0.00109566               -0.00197469                0.00402519
               2.96669732                9.93429617               82.10072660                0.99999999               -0.03712141               -0.03603500                0.12048323               -0.00172689                0.00030601               -0.00072501
               3.96632225                9.92541944               82.10501167                0.06248562               -0.72794489               -0.03821013                0.12729604                1.38773975                0.14905334                0.00160077
               4.95213842                9.94432534               82.11228358                0.01000002               -0.79665302               -0.01871900                0.13185197                1.10975150                0.30027949               -0.01512469
               5.95038919                9.95643519               82.11900233                0.01000000                0.05995433               -0.09542638                0.13724354                0.57515110                0.25921423               -0.00535732
               6.95333751                9.96371098               82.12562906                0.01000000                0.44807099               -0.22130990                0.14479812                0.40815532                0.26223104                0.00936511
               7.95935061                9.96829513               82.13286538                0.01000001                0.77448053               -0.35637372                0.15469764                0.61433875                0.30844042                0.05881710
               8.96882712                9.97637871               82.14103421                0.99999999                0.44566209               -0.04769153                0.17325128                0.54775249                0.16571956                0.00705705
               9.96826385                9.97350556               82.14602978                0.99999998               -0.05632682               -0.05641142                0.19941562               -0.00863476                0.00715393               -0.00715380
              -0.12757032               -0.03748495               83.06566014                0.99632619               -0.01958853               -0.02034594                0.07509015               -0.00053305                0.00331406                0.00427722
               0.87223380               -0.04202727               83.06814937                0.90683798               -0.01759731               -0.02510909                0.07592083                0.00069471                0.00205457                0.00549223
               1.87207774               -0.04642255               83.07062252                0.37262638                0.00828437               -0.02327353                0.08179910                0.04186775               -0.01095511                0.00304736
               2.87239948               -0.04982921               83.07297819                0.17553325                0.09065206               -0.02146246                0.12320111                0.16082303               -0.06874162                0.01446345
               3.87389078               -0.04908604               83.07510602                0.10817757                0.06667953                0.02681396                0.12699168                0.29246588                0.01842827                0.03302611
               4.87373307               -0.03994142               83.07920089                0.12495489               -0.17729846                0.04563271                0.10310834                0.17180328                0.15937384               -0.04421046
               5.87034481               -0.03295556               83.08285518                0.99836904               -0.18410639               -0.02688617                0.08628888                0.25325600                0.01101560                0.01913229
               6.87005095               -0.03103195               83.08549855                1.00000000               -0.03129937               -0.02708455                0.08767586                0.00017810               -0.04727957               -0.00307984
               7.86971882               -0.02918059               83.08792514                0.99999999               -0.03239121               -0.02660106                0.08966368                0.00093573               -0.05398001                0.00745268
               8.86940312               -0.02743177               83.09033694                1.00000000               -0.02983324               -0.02813254                0.08944786               -0.00060800               -0.04145611                0.00052720
               9.86912216               -0.02568979               83.09292703                1.00000000               -0.02809672               -0.02880820                0.09029024               -0.00190527               -0.02955842               -0.02275188
              -0.12303333                0.96231159               83.06768568                1.00000000               -0.02571291               -0.01995641                0.08064373               -0.00014708                0.00249810                0.00453536
               0.87670954                0.95772164               83.07016899                0.01000000               -0.02846440               -0.02695672                0.07793961                0.00769302                0.00721788                0.00861910
               1.87639738                0.95334472               83.07269593                0.01000001               -0.06850423               -0.00163330                0.07895945                0.04789086                0.04976668                0.08956476
               2.87533946                0.94995616               83.07591383                0.01000000               -0.22629216                0.07522948                0.06833800                0.23346890                0.16491680                0.06149848
               3.87187154                0.95118210               83.07950521                0.01000002               -0.39767961                0.14127521                0.06062706                0.65852687                0.17204860               -0.01242123
               4.86738587                0.96051490               83.08257961                0.01000000               -0.17244558               -0.07017482                0.09714978                0.79266361                0.06454039               -0.00533304
               5.86842263                0.96677558               83.08610590                0.01000001                0.03896898               -0.19370213                0.09432359                0.45601728                0.06098035                0.04903158
               6.86816525                0.96869721               83.08895998                0.10353280               -0.02472692                0.00573140                0.09356227                0.00669561                0.02396886                0.13638567
               7.86792809                0.97055340               83.09184453                1.00000000               -0.02568023               -0.02787904                0.09664431                0.00553187                0.00947995                0.01646284
               8.86765164                0.97228690               83.09446609                0.99999999               -0.02834857               -0.02979475                0.09785615               -0.00082203               -0.00393835                0.00476899
               9.86736112                0.97402213               83.09707573                0.99999999               -0.02905219               -0.03038232                0.09867006               -0.00226816               -0.00309346               -0.02340291
              -0.11839335                1.96211592               83.06970028                0.55972791               -0.02521129               -0.01644434                0.09064054                0.00878525                0.00205811                0.00390445
               0.88135453                1.95743360               83.07222700                0.01000001               -0.04028080               -0.03605131                0.07966130                0.04734909                0.09273687                0.02330175
               1.88080103                1.95354479               83.07660981                0.01000001               -0.10615280               -0.01809488                0.01380047                0.23693400                0.19039503                0.13157000
               2.87923148                1.95167538               83.08020118                0.01000000               -0.21492279                0.10120117                0.05707090                0.56201244                0.11620903                0.10624574
               3.87650257                1.95373947               83.08356297                0.01000000               -0.26193050                0.13031667                0.12939761                0.97648876                0.12600046                0.07653791
               4.87399287                1.95865508               83.08684200                0.01000001               -0.26098620               -0.14315082                0.11920674                1.18727513                0.10637237                0.09148431
               5.87128285                1.96317040               83.09000662                0.01000005               -0.37929108               -0.21968985                0.11614105                1.01250349                0.13201279                0.10050476
               6.86640705                1.96908268               83.09523792                0.01000002               -0.25215426               -0.13035782                0.16078158                0.67644874               -0.07694494                0.19054700
               7.86623976                1.97026183               83.09595251                0.01000001               -0.02445468               -0.15262526                0.10579614                0.22285486               -0.06942806                0.06672081
               8.86591795                1.97197233               83.09866002                1.00000000               -0.03167126               -0.03233888                0.10611867               -0.00051702                0.02012102                0.02466818
               9.86560634                1.97370256               83.10117010                1.00000000               -0.03116120               -0.03284203                0.10561295               -0.00191395                0.01059945               -0.02098528
              -0.11349297                2.96198271               83.07175276                0.19208611               -0.02793696                0.05961166                0.11380529                0.14404447                0.00280653               -0.00409778
               0.88622766                2.95700061               83.07447638                0.01000000                0.01936254               -0.16126523                0.07724653                0.20592862                0.12795377                0.08997783
               1.88689428                2.95298282               83.07982808                0.01000000                0.00786820               -0.13263867                0.04454710                0.55226140                0.19672437                0.10202445
               2.88638503                2.95198019               83.08387964                0.01000000               -0.12363347               -0.03717120                0.06764756                0.89576810                0.14945411                0.10253941
               3.88442161                2.95378844               83.08742212                0.01000001               -0.23422961               -0.03666244                0.08696126                1.19409255                0.12725769                0.10983212
               4.88170044                2.95765189               83.09098193                0.01000000               -0.30882575               -0.08651517                0.10062988                1.34113967                0.11384889                0.11921233
               5.87824510                2.96238179               83.09466377                0.01000001               -0.35488192               -0.07744091                0.11131880                1.29821026                0.06742880                0.14036157
               6.87460280                2.96609005               83.09772773                0.01000000               -0.43747802               -0.16238282                0.12552744                1.12349232                0.06762196                0.04421949
               7.86949554                2.96750089               83.10090230                0.01000000               -0.52011157               -0.06734053                0.12409107                0.75408764                0.03576770                0.10312429
               8.86420057                2.97164012               83.10317172                1.00000000               -0.28165804               -0.03451012                0.11480339                0.12156143                0.00406357                0.03164679
               9.86386238                2.97336529               83.10533167                0.99999996               -0.03381875               -0.03431085                0.11116241               -0.00184363               -0.00238953               -0.01332577
              -0.10554828                3.96330816               83.07375321                0.10604814                0.00212727                0.11477878                0.15393079                0.34380134                0.02206362                0.04957002
               0.89447299                3.95420829               83.07766340                0.01000001                0.12074830               -0.38268597                0.05775030                0.66664639                0.06885671                0.23393897
               1.89686668                3.95089201               83.08305314                0.01000000                0.09341154               -0.19201304                0.05734012                0.98815142                0.14342812                0.09706156
               2.89634122                3.95093195               83.08734296                0.01000001               -0.10769802               -0.14218916                0.06646000                1.20593527                0.09954279                0.09000053
               3.89471272                3.95300622               83.09129335                0.01000000               -0.20594558               -0.11973745                0.08205354                1.42181833                0.09291702                0.10611310
               4.89222231                3.95692478               83.09512953                0.01000001               -0.29519163               -0.09939620                0.09372761                1.59245663                0.08809709                0.11145272
               5.88880889                3.96162158               83.09883535                0.01000000               -0.42322624               -0.06428629                0.10500874                1.63724517                0.08311419                0.10041445
               6.88375779                3.96583502               83.10238981                0.01000001               -0.65187231                0.01423378                0.11561108                1.53227815                0.06991075                0.10805187
               7.87577145                3.96891502               83.10555734                0.01000000               -1.06365004                0.14116312                0.12316950                1.43779399                0.01979523                0.09267661
               8.86248479                3.97128213               83.10750752                0.01000000               -0.68261525               -0.09856425                0.12309447                1.46849262                0.00515349                0.10680495
               9.86211914                3.97301635               83.10955948                0.06267940               -0.03656448               -0.82337241                0.11810630                1.47225039                0.00752534                0.12437838
              -0.08841721                4.96427828               83.07761979                0.11530963                0.03939450               -0.16162102                0.11725345                0.17431665               -0.01828218                0.17535717
               0.91197674                4.94934689               83.08137791                0.01000000               -0.08245701               -0.15310746                0.08988194                0.89773674                0.03305587                0.18014725
               1.90993365                4.94914256               83.08625471                0.01000001               -0.17936041               -0.16981346                0.07397899                1.28668085                0.10369802                0.08869451
               2.90838953                4.94913640               83.09066241                0.01000000               -0.15342462               -0.21249319                0.07991880                1.33076190                0.08436661                0.07423960
               3.90686516                4.95139369               83.09488034                0.01000001               -0.17276622               -0.22123380                0.08824999                1.57778412                0.07854601                0.07822468
               4.90493420                4.95566396               83.09898933                0.01000000               -0.23927014               -0.17431986                0.09707992                1.81203775                0.07711350                0.07847852
               5.90207975                4.96109606               83.10300113                0.01000000               -0.34896379               -0.08522568                0.10545759                1.95188603                0.07400768                0.07706861
               6.89795493                4.96637473               83.10684338                0.01000000               -0.46377201                0.01336505                0.11427450                2.01245002                0.06394818                0.07814539
               7.89280431                4.97032415               83.11036397                0.01000000               -0.42429195                0.02731886                0.12243522                1.99939296                0.04823459                0.09514977
               8.88946909                4.96966884               83.11355614                0.01000001               -0.14826815               -0.24052912                0.12626394                1.76286337                0.02898556                0.17728398
               9.88983895                4.95689784               83.11649444                0.01000002                0.03698635               -0.97515134                0.12760446                1.15458871                0.01004823                0.28840836
              -0.07219917                5.96007574               83.08121522                0.90696375               -0.02373767               -0.22283180                0.07057998                0.36549958                0.01055956                0.04629715
               0.92756345                5.95114614               83.08504467                0.01000001               -0.24950166                0.07782622                0.08866641                0.59676023                0.02553108                0.08310027
               1.92281079                5.94749574               83.08918159                0.01000002               -0.34290585               -0.17057828                0.09439007                0.95342305                0.06049644                0.05561192
               2.92070533                5.94668209               83.09370683                0.01000001               -0.15349729               -0.31676777                0.09481109                1.25281811                0.07821998                0.05003239
               3.91974085                5.94858154               83.09817013                0.01000000               -0.09723195               -0.36536976                0.09896804                1.60370021                0.07316724                0.05110019
               4.91876069                5.95343838               83.10258160                0.01000000               -0.13024988               -0.29208247                0.10424590                1.94319280                0.07025434                0.04927354
               5.91713585                5.95991707               83.10693979                0.01000000               -0.19910003               -0.16022024                0.10994416                2.12865271                0.06812776                0.04885795
               6.91477869                5.96610233               83.11120786                0.01000000               -0.23353281               -0.06171711                0.11632952                2.13110092                0.06290993                0.06116705
               7.91246519                5.96946139               83.11531714                0.01000001               -0.18051621               -0.06976065                0.12316681                1.88265925                0.05011494                0.09839895
               8.91116837                5.96647155               83.11919419                0.01000001               -0.08561395               -0.16952295                0.12990426                1.17808481                0.02723646                0.16822582
               9.91075291                5.95351332               83.12280648                0.01000000               -0.04154540               -0.10025469                0.13498136                0.58112086                0.01118569                0.27215741
              -0.06324803                6.95982165               83.08315007                1.00000000               -0.02600367               -0.02712644                0.07973235                0.00103584               -0.00045669               -0.03856213
               0.93649193                6.95090342               83.08711822                0.01000001               -0.16429029               -0.02402520                0.09167464                0.18700695                0.03139242               -0.00065881
               1.93346616                6.94573099               83.09171795                0.01000173               -0.20659211               -0.28036350                0.10131603                0.70948355                0.07062929                0.00290939
               2.93236009                6.94280105               83.09634027                0.01000000               -0.06416459               -0.42578999                0.10685339                0.99810629                0.07430400                0.01727459
               3.93218287                6.94408629               83.10109075                0.01000001                0.00512204               -0.60137847                0.11047161                1.53642597                0.07548986                0.02092722
               4.93246253                6.94982231               83.10584382                0.01000000               -0.00970044               -0.41547541                0.11337636                1.98878895                0.07263415                0.01806554
               5.93198886                6.95789166               83.11063431                0.01000000               -0.07149548               -0.21097630                0.11662539                2.11237507                0.07508361                0.02579536
               6.93103262                6.96514038               83.11547070                0.01000001               -0.09502922               -0.10806725                0.12078437                2.01231000                0.07443652                0.04644321
               7.93008828                6.96892894               83.12025411                0.01000000               -0.10268816               -0.01557216                0.12665982                1.68060715                0.06237195                0.10265456
               8.92897886                6.96627838               83.12486060                0.01000000               -0.13552275                0.13737287                0.13429923                0.98142887                0.03574152                0.18639383
               9.92737782                6.95489274               83.12911209                0.01000000               -0.16010349                0.30471954                0.14320824                0.43793466                0.01954599                0.29689258
              -0.05434200                7.95953321               83.08499604                0.99999999               -0.02637553               -0.02897725                0.08546380                0.00109594                0.00120186               -0.03795006
               0.94539424                7.95066564               83.08916961                1.00000000               -0.02775807               -0.02572759                0.09490466                0.00439020                0.00539616               -0.00526895
               1.94510283                7.94188847               83.09342058                0.01000000               -0.15410406               -0.20833463                0.10397909                0.39720524                0.04840773               -0.00633269
               2.94231216                7.93816629               83.09847079                0.01000000               -0.08273668               -0.50146125                0.11485847                0.79398027                0.09274667               -0.01970981
               3.94344810                7.93655397               83.10350167                0.01000000                0.12094749               -1.00465964                0.12095833                1.39881892                0.08659499               -0.05262022
               4.94473111                7.94512887               83.10864565                0.01000000                0.03085900               -0.39572331                0.12352186                1.94426314                0.09573579               -0.00614010
               5.94406528                7.95569754               83.11407318                0.01000001               -0.03717510               -0.18359712                0.12509526                1.83828857                0.10863788                0.00669037
               6.94398761                7.96394098               83.11957418                0.01000001                0.04370305               -0.13907988                0.12795766                1.65386197                0.11747977                0.03066798
               7.94493934                7.96914995               83.12533348                0.01000000                0.04227675               -0.04545338                0.13266029                1.49657868                0.10834150                0.09198343
               8.94483314                7.96921900               83.13088986                0.01000001               -0.13282325                0.32759261                0.14148226                1.11168769                0.06762988                0.27481773
               9.94228288                7.95960771               83.13598891                0.01000002               -0.25502652                0.75016962                0.15401907                0.68378599                0.04812173                0.35459076
              -0.04549097                8.95924210               83.08688913                1.00000000               -0.02845553               -0.02872028                0.09005249                0.00013764                0.00080021               -0.02593396
               0.95422447                8.95038887               83.09119989                0.99999998               -0.02997045               -0.02891555                0.09946844               -0.00031285                0.00400880               -0.00529120
               1.95390962                8.94156430               83.09554784                1.00000000               -0.03251370               -0.03270500                0.10921837                0.00064976                0.01433225                0.00965715
               2.95357420                8.93277182               83.10005566                1.00000000               -0.03564742               -0.28798326                0.12159450                0.12444368                0.01657013               -0.01532776
               3.95319667                8.92399310               83.10446645                0.01000000               -0.06849866               -0.64789055                0.13271626                1.38394086                0.12419546               -0.03956700
               4.95220422                8.94190785               83.11115560                0.01000001               -0.16270717               -0.16911303                0.13198278                1.68019910                0.20058229               -0.01255369
               5.94994253                8.95421971               83.11728158                0.01000001               -0.07733844               -0.11939448                0.13466805                1.13220360                0.17025152               -0.00438865
               6.95065745                8.96235879               83.12347188                0.01000000                0.23996518               -0.18525116                0.13791063                0.93859237                0.17968298                0.01340419
               7.95474183                8.96801987               83.13009411                0.01000002                0.50486989               -0.22671377                0.14321219                1.00858237                0.26377474                0.06173692
               8.96075485                8.97283023               83.13854545                0.99999998                0.27671511                0.15656439                0.14879181                1.04072227                0.15280399                0.17892037
               9.96027613                8.96989614               83.14379355                0.99999999               -0.04787213                0.48636675                0.17314193                0.75289746               -0.00745292                0.17156116
              -0.03663279                9.95895880               83.08892543                1.00000000               -0.03014320               -0.02832981                0.09498857               -0.00132859               -0.00940891               -0.01633657
               0.96306578                9.95008733               83.09325593                1.00000000               -0.03171708               -0.03015393                0.10413912               -0.00209024               -0.00755537               -0.00295555
               1.96273287                9.94123437               83.09757914                1.00000000               -0.03467745               -0.03299269                0.11264075               -0.00170957               -0.00477906                0.00499007
               2.96237223                9.93240662               83.10193648                1.00000000               -0.03709901               -0.03651983                0.12140635               -0.00210689               -0.00200772               -0.00103364
               3.96199089                9.92359616               83.10630444                0.09342731               -0.71318782               -0.03969373                0.13116336                1.34642170                0.14568474                0.00259841
               4.94810848                9.94174661               83.11362784                0.01000002               -0.78662397               -0.01612369                0.13806556                1.07609998                0.29721721               -0.01185122
               5.94625841                9.95330965               83.12039922                0.01000000                0.04254082               -0.09100586                0.14341494                0.55605613                0.25505285               -0.00441248
               6.94895929                9.96023596               83.12709794                0.01000000                0.41905654               -0.21228294                0.14986725                0.39548492                0.25664530                0.00927064
               7.95463954                9.96461567               83.13442698                0.01000001                0.74060147               -0.34041985                0.15802427                0.59548822                0.30359996                0.05712692
               8.96377132                9.97235029               83.14276982                0.99999999                0.42847351               -0.04799398                0.17387057                0.53761556                0.16179433                0.00705787
               9.96320901                9.96933504               83.14801792                1.00000000               -0.05623089               -0.05610923                0.19822070               -0.00823639                0.00715239               -0.00715224
              -0.13002743               -0.03948665               84.06635866                0.96900052               -0.01934660               -0.01894933                0.06773680                0.00117094                0.00464323                0.00622464
               0.86977911               -0.04401835               84.06890468                0.88662440               -0.01923402               -0.02482617                0.07629532                0.00130907                0.00783889                0.00249552
               1.86958789               -0.04844742               84.07149919                0.40628973               -0.00772318               -0.02787447                0.09165128                0.02256364                0.02739173                0.00224519
               2.86962464               -0.05235282               84.07445485                0.16850387                0.06834024               -0.03697302                0.14676961                0.15684769                0.01391665               -0.00054975
               3.87095470               -0.05275821               84.07707219                0.09658274                0.09343282               -0.01175177                0.23177519                0.36532024                0.03594773                0.01525604
               4.87149330               -0.04376084               84.08067473                0.10844673               -0.18114917                0.03332215                0.19438031                0.17262497                0.06217208                0.00753361
               5.86733171               -0.03607434               84.08372393                0.99925756               -0.22210612               -0.02895230                0.08783048                0.30987572               -0.01306861                0.01617142
               6.86705118               -0.03455030               84.08636731                1.00000000               -0.02907517               -0.02813128                0.08638078               -0.00093565               -0.04337116               -0.00150724
               7.86675021               -0.03304970               84.08880135                1.00000000               -0.02913024               -0.02689500                0.08583175               -0.00063874               -0.05349207                0.00929630
               8.86646857               -0.03159306               84.09120264                1.00000000               -0.02670198               -0.02693911                0.08354955               -0.00134118               -0.04325980                0.00116101
               9.86621617               -0.03011785               84.09378731                1.00000000               -0.02524018               -0.02640617                0.08141348               -0.00283419               -0.03141237               -0.02435745
              -0.12548402                0.96032385               84.06845787                1.00000000               -0.02434005               -0.01921154                0.07506281                0.00002048                0.00125687                0.00993452
               0.87427258                0.95573339               84.07096075                0.01000001               -0.02676090               -0.02630719                0.08078402                0.00295496                0.00571534                0.00432446
               1.87398076                0.95127384               84.07354619                0.01000002               -0.04620333               -0.01178432                0.09033667                0.01545350                0.03766454                0.07096113
               2.87334851                0.94727745               84.07670260                0.01000000               -0.18344283                0.06524681                0.08863595                0.15892839                0.10014369                0.08110020
               3.87031191                0.94712427               84.08008731                0.01000000               -0.42354507                0.16688494                0.06866060                0.61983872                0.15720507                0.05715762
               4.86487761                0.95657239               84.08372606                0.01000000               -0.22433518               -0.04076309                0.13807397                0.82512394                0.10797422                0.05563940
               5.86582520                0.96363614               84.08711339                0.01000000                0.03259442               -0.19457396                0.10557778                0.48694291                0.05014418                0.06363948
               6.86552950                0.96516839               84.08994082                0.21368352               -0.02800008               -0.00574251                0.10163286                0.00490096                0.02162608                0.11483569
               7.86526520                0.96668135               84.09281577                1.00000000               -0.02701308               -0.02878085                0.09772317                0.00290317                0.00918465                0.01905258
               8.86498924                0.96813755               84.09542947                0.99999998               -0.02762884               -0.02884122                0.09490485               -0.00092423               -0.00421445                0.00551333
               9.86471262                0.96961808               84.09803151                0.99999999               -0.02766147               -0.02828946                0.09245326               -0.00252858               -0.00342467               -0.02534445
              -0.12084608                1.96012912               84.07059621                0.58030495               -0.02656933               -0.01763233                0.08812178                0.00729693                0.00165724                0.02271231
               0.87888822                1.95545550               84.07306682                0.01000004               -0.04005088               -0.03336905                0.08680075                0.02967371                0.07549681                0.01464705
               1.87835290                1.95131689               84.07703676                0.01000001               -0.09677258               -0.02238169                0.05436174                0.18240137                0.13587549                0.11574151
               2.87695277                1.94895211               84.08074339                0.01000000               -0.21481828                0.10708228                0.05820851                0.47865894                0.12465509                0.13834149
               3.87405653                1.95057949               84.08439190                0.01000000               -0.27344309                0.19627378                0.07900151                0.89790103                0.10682640                0.13120831
               4.87148391                1.95542390               84.08790991                0.01000001               -0.27909818               -0.09288566                0.10424654                1.18169679                0.10345111                0.11855280
               5.86847457                1.96003419               84.09149106                0.01000001               -0.36899631               -0.22013959                0.13619665                0.98516968                0.13943486                0.11666779
               6.86410398                1.96533485               84.09585774                0.01000002               -0.23177306               -0.11809450                0.06711360                0.63976755                0.04687148                0.08168298
               7.86383911                1.96637469               84.09702630                0.01000000               -0.02953137               -0.14756030                0.10941406                0.21887524               -0.04510594                0.07030550
               8.86351336                1.96783012               84.09971894                0.99999999               -0.03172885               -0.03221220                0.10608763               -0.00040326                0.02052693                0.02559933
               9.86320453                1.96931636               84.10220987                1.00000000               -0.03088246               -0.03161839                0.10254628               -0.00224636                0.01074049               -0.02405590
              -0.11599086                2.95997121               84.07292007                0.20615800               -0.03308670                0.03849823                0.11761527                0.10970697                0.00463117                0.05240788
               0.88367828                2.95506601               84.07535123                0.01000000                0.00615178               -0.12161970                0.09499854                0.14343839                0.12386623                0.05884416
               1.88413218                2.95082620               84.08024238                0.01000000               -0.00095904               -0.13054631                0.05166315                0.48166625                0.18920882                0.11040641
               2.88365910                2.94941909               84.08444030                0.01000000               -0.11670200               -0.02252225                0.05986856                0.82904398                0.13218946                0.11784291
               3.88179814                2.95104975               84.08829415                0.01000001               -0.23011214               -0.01208325                0.08486261                1.14961901                0.11398406                0.12146741
               4.87905685                2.95471467               84.09204670                0.01000000               -0.30902450               -0.07073922                0.10570701                1.30081076                0.11121736                0.11992031
               5.87561765                2.95923335               84.09579940                0.01000001               -0.35362513               -0.08000559                0.11599877                1.27958814                0.10007011                0.10304449
               6.87198435                2.96280650               84.09920614                0.01000000               -0.42351059               -0.15058976                0.13533815                1.07577119                0.06345579                0.03500877
               7.86714744                2.96373015               84.10209146                0.01000000               -0.49724234               -0.06611899                0.11894220                0.71280871                0.02603157                0.10433186
               8.86203950                2.96749331               84.10433572                1.00000000               -0.27261093               -0.03546530                0.11819814                0.11493667                0.00461405                0.03268304
               9.86169522                2.96898572               84.10645027                0.99999993               -0.03442849               -0.03426357                0.11211158               -0.00218166               -0.00248556               -0.01657756
              -0.10884154                3.96089908               84.07562687                0.10156822               -0.02564633                0.11189573                0.19432295                0.40474229               -0.00407671                0.08786392
               0.89090200                3.95302311               84.07835025                0.01000000                0.12373376               -0.37480026                0.08189168                0.61482895                0.10612115                0.19729587
               1.89363313                3.94870597               84.08360593                0.01000000                0.12040534               -0.19137721                0.06115253                0.88973816                0.18479957                0.11921245
               2.89331010                3.94850167               84.08800454                0.01000001               -0.09398997               -0.13448426                0.06948765                1.14758032                0.12894913                0.11036864
               3.89175334                3.95033783               84.09211543                0.01000000               -0.19967894               -0.11489153                0.08594880                1.36099256                0.10981773                0.11001249
               4.88931652                3.95400912               84.09610499                0.01000000               -0.28894136               -0.09990897                0.10143940                1.53393084                0.10181025                0.10416713
               5.88597451                3.95843407               84.09996187                0.01000000               -0.40969573               -0.07213860                0.11538716                1.57898954                0.09194944                0.08872393
               6.88112261                3.96232305               84.10357877                0.01000000               -0.62830178               -0.00506217                0.12364394                1.47672445                0.07929457                0.08091079
               7.87340847                3.96505231               84.10681227                0.01000000               -1.02830446                0.13025117                0.12811570                1.37917764                0.02479137                0.08193691
               8.86055652                3.96712081               84.10877583                0.01000001               -0.66161967               -0.09756708                0.13024531                1.41184448                0.00894531                0.10370544
               9.86017608                3.96863109               84.11076951                0.20024566               -0.03804413               -0.79344915                0.12283369                1.41647849                0.00891953                0.12214803
              -0.09214407                4.96220912               84.07913095                0.11179680                0.03120378               -0.15619870                0.17169983                0.17661369                0.00625077                0.08291031
               0.90816797                4.94757000               84.08240333                0.01000000               -0.07037740               -0.19838868                0.12245049                0.88090683                0.06868740                0.20687609
               1.90644838                4.94699866               84.08699299                0.01000001               -0.15945620               -0.16790803                0.07787257                1.23053113                0.12329684                0.11548703
               2.90497884                4.94672941               84.09145544                0.01000000               -0.14689201               -0.20686508                0.08357617                1.27197497                0.10606620                0.09639250
               3.90351054                4.94875192               84.09577844                0.01000000               -0.16698112               -0.21718692                0.09350054                1.51312524                0.09400491                0.08898338
               4.90163922                4.95271649               84.09999118                0.01000000               -0.23135192               -0.17579794                0.10389450                1.73909110                0.08650757                0.07950165
               5.89888350                4.95779058               84.10409390                0.01000001               -0.33693078               -0.09381860                0.11317053                1.87453327                0.08130105                0.06910611
               6.89490061                4.96270525               84.10802815                0.01000000               -0.44751357                0.00122022                0.12157450                1.93067806                0.07002533                0.06642777
               7.88993323                4.96633517               84.11161646                0.01000000               -0.41014959                0.01897817                0.12845413                1.91875301                0.05333274                0.08109986
               8.88669761                4.96554197               84.11484324                0.01000003               -0.14644959               -0.23458011                0.13232748                1.69496289                0.03211755                0.16727212
               9.88700424                4.95311673               84.11779531                0.01000002                0.03066262               -0.93813376                0.13423817                1.11035034                0.01233358                0.28756633
              -0.07603102                5.95777511               84.08192118                0.95450526               -0.02383798               -0.23367975                0.07042652                0.37111582                0.00776609                0.01093947
               0.92373060                5.94905534               84.08594384                0.01000000               -0.24423144                0.06136624                0.09021162                0.59334656                0.01748888                0.06959315
               1.91908435                5.94534781               84.09016550                0.01000001               -0.33671281               -0.16844202                0.10519746                0.91847744                0.06437301                0.08156066
               2.91699634                5.94436437               84.09467911                0.01000001               -0.15277960               -0.30660825                0.10008459                1.20268652                0.08128894                0.06895278
               3.91602876                5.94599409               84.09917861                0.01000000               -0.09683269               -0.35606350                0.10419599                1.53844722                0.07693335                0.06316906
               4.91505969                5.95049316               84.10364694                0.01000001               -0.12761715               -0.28805763                0.10954475                1.86506595                0.07250108                0.05306002
               5.91347641                5.95655770               84.10806516                0.01000000               -0.19340546               -0.16227642                0.11531440                2.04249394                0.06869685                0.04502423
               6.91119158                5.96234746               84.11239696                0.01000000               -0.22647963               -0.06721747                0.12149351                2.04446228                0.06364380                0.05055572
               7.90894682                5.96543187               84.11657549                0.01000001               -0.17586812               -0.07341176                0.12839966                1.80573501                0.05139147                0.08466320
               8.90767422                5.96242921               84.12051808                0.01000001               -0.08566354               -0.16662452                0.13562503                1.12992974                0.02852334                0.15670469
               9.90723355                5.94986841               84.12418288                0.01000000               -0.04406659               -0.09578450                0.14179359                0.55763083                0.01215822                0.26790222
              -0.06728221                6.95753553               84.08393524                1.00000000               -0.02555883               -0.02560733                0.07727709                0.00044785               -0.00003627               -0.03319724
               0.93246220                6.94879732               84.08804482                0.01000001               -0.16044438               -0.02546172                0.09263898                0.17799207                0.03086080               -0.00459113
               1.92950890                6.94362982               84.09276429                0.01000001               -0.20379521               -0.27257917                0.11160262                0.68075188                0.06946077                0.00319267
               2.92838629                6.94059724               84.09744459                0.01000000               -0.06791021               -0.41284175                0.11578507                0.95813345                0.06934954                0.03034904
               3.92815070                6.94163065               84.10222365                0.01000000               -0.00046841               -0.58264684                0.11565991                1.47543322                0.07132787                0.03177301
               4.92837693                6.94695534               84.10699961                0.01000000               -0.01358062               -0.40485266                0.11820647                1.91010089                0.06715931                0.02396425
               5.92787908                6.95454505               84.11182154                0.01000000               -0.07306216               -0.20780307                0.12076239                2.02762622                0.06886048                0.02409444
               6.92691568                6.96136090               84.11669877                0.01000001               -0.09564508               -0.10824620                0.12447581                1.92949093                0.06882700                0.03809313
               7.92596618                6.96486694               84.12154067                0.01000001               -0.10280070               -0.01862493                0.13041653                1.60931291                0.05873995                0.08966978
               8.92485967                6.96220947               84.12622574                0.01000003               -0.13438628                0.12952980                0.13880684                0.93807527                0.03445303                0.17384873
               9.92327846                6.95120104               84.13056838                0.01000000               -0.15812133                0.29276126                0.14871681                0.41713347                0.01971182                0.29095272
              -0.05854566                7.95726296               84.08583101                1.00000000               -0.02581899               -0.02731811                0.08175879                0.00048932                0.00249868               -0.03691894
               0.94119615                7.94854610               84.09011753                1.00000000               -0.02774359               -0.02638080                0.09448874                0.00306806                0.00680387               -0.00672037
               1.94089947                7.93989622               84.09447571                0.01000001               -0.15189850               -0.20311789                0.10680597                0.38160210                0.05091708               -0.00567239
               2.93815818                7.93610753               84.09965024                0.01000001               -0.08600710               -0.48564835                0.12249994                0.76472779                0.09253441               -0.01309796
               3.93917932                7.93434115               84.10474267                0.01000000                0.10945630               -0.97116079                0.12776899                1.34906439                0.08029449               -0.04101630
               4.94034730                7.94239611               84.10990860                0.01000000                0.02220249               -0.38380385                0.12929528                1.87144320                0.08551173                0.00048557
               5.93962337                7.95240164               84.11534753                0.01000001               -0.04438969               -0.17847046                0.12956135                1.76633002                0.09720167                0.00730482
               6.93945951                7.96018253               84.12087282                0.01000001                0.03305668               -0.13462515                0.13132203                1.58545511                0.10637602                0.02520003
               7.94028451                7.96505937               84.12667637                0.01000003                0.03210514               -0.04334200                0.13551350                1.43070482                0.09913551                0.08129082
               8.94010161                7.96501981               84.13231983                0.01000000               -0.13457126                0.31722969                0.14436005                1.05580216                0.06245395                0.25999064
               9.93759308                7.95572364               84.13754246                0.01000002               -0.25085308                0.71354217                0.15690677                0.64804963                0.04623226                0.34989078
              -0.04983871                8.95698916               84.08775953                0.99999999               -0.02709931               -0.02674598                0.08409219               -0.00022146                0.00126684               -0.02695557
               0.94989030                8.94826971               84.09218067                0.99999998               -0.02908893               -0.02835582                0.09666474               -0.00045761                0.00459418               -0.00549206
               1.94957951                8.93956746               84.09664147                1.00000000               -0.03271860               -0.03283179                0.10948640                0.00018254                0.01614287                0.01092356
               2.94923592                8.93088428               84.10128624                0.99999999               -0.03680501               -0.27968358                0.12479156                0.12068315                0.01929716               -0.01247607
               3.94884341                8.92220743               84.10582313                0.01000001               -0.07453117               -0.62728647                0.13899624                1.33801252                0.11980094               -0.03146458
               4.94774530                8.93927926               84.11250902                0.01000003               -0.17120776               -0.16261350                0.13951132                1.62044459                0.18904675               -0.00712533
               5.94541926                8.95097564               84.11865881                0.01000001               -0.08891233               -0.11449925                0.14122003                1.08929559                0.15864063               -0.00276879
               6.94596705                8.95866840               84.12487456                0.01000003                0.21618758               -0.17691343                0.14248725                0.90037982                0.16708553                0.01136189
               7.94974301                8.96400010               84.13154271                0.01000000                0.46721972               -0.21437263                0.14615973                0.96759465                0.24895760                0.05586851
               8.95531145                8.96855407               84.14003931                0.99999999                0.25443909                0.15256630                0.14997242                0.99211251                0.14334492                0.16971558
               9.95483179                8.96547189               84.14552188                0.99999999               -0.04796599                0.45950771                0.17252447                0.70766264               -0.00744898                0.16790695
              -0.04111118                9.95672804               84.08983213                1.00000000               -0.02801193               -0.02611240                0.08653233               -0.00215231               -0.01093199               -0.01767928
               0.95860870                9.94797899               84.09427007                0.99999999               -0.03001358               -0.02907229                0.09881193               -0.00258210               -0.00956681               -0.00301530
               1.95828855                9.93923959               84.09869458                0.99999999               -0.03384169               -0.03278713                0.11042073               -0.00235237               -0.00739653                0.00559082
               2.95793187                9.93051386               84.10315473                0.99999998               -0.03719801               -0.03704156                0.12203289               -0.00261399               -0.00441736               -0.00139507
               3.95754459                9.92179542               84.10763494                0.19552376               -0.69719391               -0.04120123                0.13466267                1.30161656                0.14251573                0.00359592
               4.94398799                9.93914384               84.11504489                0.01000095               -0.77622200               -0.01354273                0.14719714                1.04008059                0.29480348               -0.00804368
               5.94202015                9.95011166               84.12187063                0.01000000                0.02273313               -0.08639852                0.15266987                0.53511085                0.24940130               -0.00317559
               6.94444265                9.95664427               84.12862641                0.01000000                0.38652920               -0.20241350                0.15668489                0.38057297                0.24901872                0.00915059
               7.94975073                9.96077192               84.13602587                0.01000002                0.70147105               -0.32281769                0.16185838                0.57211590                0.29668715                0.05517435
               8.95847207                9.96807113               84.14451162                0.99999995                0.40799835               -0.04829374                0.17448882                0.52315598                0.15721751                0.00705883
               9.95791070                9.96491379               84.14999419                0.99999999               -0.05613730               -0.05580971                0.19704089               -0.00784305                0.00715103               -0.00715090
              -0.13256948               -0.04155888               85.06701488                0.94656563               -0.01804657               -0.01683892                0.06386135                0.00248967                0.00439984                0.00468390
               0.86725005               -0.04608951               85.06967528                0.87043685               -0.01775589               -0.02645046                0.07715624                0.00290911                0.01254336               -0.00170480
               1.86707540               -0.05047166               85.07245555                0.46734428               -0.00726174               -0.03019756                0.09777700                0.02103290                0.05701335                0.00130485
               2.86710482               -0.05433571               85.07591358                0.19842016                0.06572262               -0.03746595                0.13561818                0.15266411                0.11416272               -0.00358114
               3.86838985               -0.05481117               85.07974153                0.11450085                0.06099768               -0.01832945                0.22257822                0.38234861                0.10883624               -0.02740486
               4.86832477               -0.04589341               85.08308850                0.14620103               -0.19995019                0.02859130                0.18890309                0.18945556               -0.12382261                0.05234089
               5.86439085               -0.03941105               85.08461179                1.00000000               -0.21093338               -0.03077013                0.09066335                0.26620486               -0.08181486                0.01250738
               6.86410610               -0.03820911               85.08722617                1.00000000               -0.02885967               -0.02873985                0.08551658               -0.00169374               -0.03856061                0.00087132
               7.86381366               -0.03702350               85.08964177                0.99999998               -0.02770688               -0.02670033                0.08217111               -0.00170767               -0.05099207                0.01074836
               8.86355197               -0.03586222               85.09200793                0.99999999               -0.02445477               -0.02569165                0.07754345               -0.00212659               -0.04295926                0.00150655
               9.86332456               -0.03466533               85.09455530                1.00000000               -0.02274060               -0.02419848                0.07258255               -0.00391158               -0.03166975               -0.02510175
              -0.12801395                0.95827273               85.06918694                0.97379914               -0.02505169               -0.01665762                0.07237208                0.00072741               -0.00049826                0.01249472
               0.87173553                0.95364598               85.07178467                0.01000001               -0.02886103               -0.02872160                0.08414185                0.00637533                0.00383872               -0.00046752
               1.87140883                0.94922637               85.07450266                0.01000000               -0.04671595               -0.01824584                0.09870206                0.02051104                0.02643880                0.05772653
               2.87080121                0.94528963               85.07768655                0.01000003               -0.17083210                0.05201119                0.10250678                0.15218931                0.04200118                0.09414838
               3.86799219                0.94500554               85.08087842                0.01000000               -0.41409725                0.14839787                0.10357574                0.60927982                0.09696683                0.14184795
               4.86251927                0.95439250               85.08534109                0.01000000               -0.23907201               -0.07005472                0.18788833                0.79568362                0.12983065                0.11549165
               5.86321075                0.96028125               85.08821746                0.01000000                0.01880614               -0.18855986                0.11443822                0.44219303                0.02110588                0.05595304
               6.86289539                0.96150349               85.09099264                0.33036187               -0.02938060               -0.01699339                0.10731316                0.00656839                0.01693557                0.09157037
               7.86262314                0.96270949               85.09379899                1.00000000               -0.02718888               -0.02921249                0.09835946                0.00200794                0.00701234                0.02041429
               8.86235161                0.96388086               85.09636419                0.99999998               -0.02672904               -0.02798553                0.09203773               -0.00119231               -0.00451982                0.00586101
               9.86208855                0.96509268               85.09892480                1.00000000               -0.02630598               -0.02659939                0.08662937               -0.00308072               -0.00344811               -0.02678759
              -0.12330143                1.95810797               85.07146271                0.61545866               -0.02746432               -0.01362631                0.08764416                0.01037254                0.00084004                0.04058942
               0.87642392                1.95333606               85.07396301                0.01000001               -0.04282960               -0.03759583                0.09328464                0.03513016                0.06172553                0.00888117
               1.87584198                1.94916343               85.07769705                0.01000001               -0.10272454               -0.03022994                0.07667853                0.17745130                0.11074878                0.10233986
               2.87436943                1.94670451               85.08136535                0.01000000               -0.21847010                0.08931326                0.07473500                0.45845965                0.10264184                0.16547883
               3.87147257                1.94815679               85.08514300                0.01000000               -0.27033493                0.17443581                0.08807288                0.85518464                0.11739693                0.20054193
               4.86896274                1.95270550               85.08892693                0.01000001               -0.26744268               -0.12686433                0.11079323                1.12806141                0.13141644                0.13277479
               5.86612372                1.95681775               85.09273056                0.01000000               -0.35767550               -0.21546961                0.12531453                0.93109189                0.15127664                0.11310096
               6.86180923                1.96145102               85.09658019                0.01000003               -0.23236375               -0.12171454                0.08107788                0.61294784                0.04141954                0.07960453
               7.86147645                1.96239225               85.09814079                0.01000000               -0.03321476               -0.14539636                0.11287007                0.21952486               -0.02314558                0.06881392
               8.86114493                1.96357807               85.10078177                1.00000000               -0.03185713               -0.03219857                0.10649321               -0.00035739                0.02043077                0.02628357
               9.86083930                1.96480268               85.10322102                0.99999998               -0.03056271               -0.03092948                0.09989339               -0.00278817                0.01073619               -0.02681019
              -0.11826267                2.95800021               85.07410506                0.24918248               -0.03546509                0.03732932                0.11649596                0.10062807                0.00554648                0.11082217
               0.88138268                2.95289407               85.07637635                0.01000003               -0.00739657               -0.11169731                0.10683522                0.14069921                0.11572131                0.03630047
               1.88158940                2.94862177               85.08086135                0.01000000               -0.02028180               -0.13188905                0.07469890                0.46241211                0.19046479                0.10246095
               2.88097704                2.94707589               85.08507701                0.01000000               -0.12472520               -0.02901652                0.07558733                0.79568801                0.14802885                0.14125795
               3.87909490                2.94849426               85.08911937                0.01000001               -0.22787536               -0.02173034                0.09124989                1.10576877                0.13226719                0.14692130
               4.87641954                2.95185522               85.09309607                0.01000000               -0.30039187               -0.08209325                0.11035840                1.24634676                0.13287112                0.12829407
               5.87308706                2.95597186               85.09698375                0.01000000               -0.34198418               -0.08580962                0.12014978                1.21321852                0.11793345                0.08916623
               6.86957985                2.95906920               85.10043449                0.01000000               -0.41002350               -0.14098976                0.12307827                1.02568862                0.07755978                0.03505595
               7.86488659                2.95980157               85.10328114                0.01000001               -0.48229100               -0.06817467                0.12171648                0.68807231                0.03216275                0.09876138
               8.85993403                2.96323689               85.10553568                0.99999998               -0.26515110               -0.03646739                0.12199033                0.11170247                0.00858103                0.03411719
               9.85958357                2.96447409               85.10757390                0.99999997               -0.03504672               -0.03442077                0.11232619               -0.00273539               -0.00284225               -0.01966081
              -0.11107659                3.95885456               85.07763967                0.12307134               -0.03070647                0.08209833                0.17490490                0.39604060               -0.01788131                0.14971239
               0.88861635                3.95110211               85.07930124                0.01000000                0.09924897               -0.35016194                0.10866658                0.58884235                0.15347261                0.14210632
               1.89090839                3.94652565               85.08427619                0.01000001                0.08971808               -0.18645202                0.08157276                0.83900764                0.21904891                0.12718794
               2.89041071                3.94612418               85.08873271                0.01000001               -0.10498829               -0.13431070                0.08376244                1.09724515                0.15352720                0.12650164
               3.88880863                3.94772218               85.09301232                0.01000000               -0.19993193               -0.11920413                0.09719841                1.30270337                0.12932875                0.12047051
               4.88641207                3.95106363               85.09715832                0.01000000               -0.28172600               -0.10715850                0.11070212                1.46543641                0.11736280                0.10112592
               5.88317411                3.95510156               85.10114309                0.01000001               -0.39593923               -0.07984790                0.12160127                1.50746737                0.10629790                0.07409173
               6.87849329                3.95863123               85.10486269                0.01000000               -0.60519512               -0.00920594                0.12977014                1.40901094                0.08759156                0.06267953
               7.87107020                3.96102875               85.10811966                0.01000000               -0.98934171                0.11906789                0.13378508                1.31933928                0.03168650                0.07139377
               8.85870645                3.96284872               85.11011243                0.01000000               -0.63800075               -0.09824301                0.13722201                1.35420317                0.01579752                0.09941377
               9.85831019                3.96411427               85.11201616                0.21863258               -0.03962635               -0.76191531                0.12579327                1.35644995                0.00989318                0.12038494
              -0.09483696                4.95964218               85.08105378                0.14622969                0.03254002               -0.16821612                0.15891117                0.17423593                0.03832477               -0.04708562
               0.90548844                4.94589083               85.08382692                0.01000000               -0.09077786               -0.21027948                0.16361597                0.81515547                0.09977346                0.20300605
               1.90334748                4.94489273               85.08781217                0.01000001               -0.18815142               -0.15849939                0.09317883                1.14767213                0.12562341                0.13663727
               2.90172541                4.94438968               85.09233393                0.01000000               -0.15689839               -0.20260949                0.09553680                1.20623682                0.12670305                0.11268482
               3.90020951                4.94611017               85.09675035                0.01000000               -0.16882600               -0.21612394                0.10425528                1.44127136                0.10814830                0.09556197
               4.89834889                4.94971205               85.10106721                0.01000020               -0.22703522               -0.17862402                0.11275987                1.65884104                0.09610401                0.07563684
               5.89566881                4.95437490               85.10526454                0.01000000               -0.32580063               -0.10058237                0.12074754                1.78793463                0.08727846                0.05603322
               6.89183288                4.95888508               85.10927487                0.01000001               -0.43064633               -0.00942029                0.12768711                1.84279884                0.07490602                0.04744215
               7.88705588                4.96218292               85.11293306                0.01000000               -0.39501460                0.01008436                0.13472194                1.83443225                0.05784766                0.06340451
               8.88393259                4.96127203               85.11620269                0.01000001               -0.14372035               -0.23127928                0.14046236                1.62389284                0.03621568                0.15431792
               9.88418148                4.94923579               85.11917920                0.01000001                0.02488900               -0.90079876                0.14514112                1.06419042                0.01574383                0.28801329
              -0.08008918                5.95549024               85.08262375                0.98576873               -0.02419218               -0.21971556                0.07205821                0.30908101                0.00529905               -0.04461955
               0.91966890                5.94689652               85.08684890                0.01000000               -0.22739208                0.03735393                0.09234734                0.53285410                0.01474592                0.03907429
               1.91536298                5.94335566               85.09128554                0.01000000               -0.31754499               -0.17040441                0.10703905                0.86417977                0.07703644                0.10154940
               2.91331800                5.94207199               85.09570852                0.01000000               -0.15256485               -0.29763891                0.11038805                1.13031781                0.08351798                0.08241064
               3.91231169                5.94339971               85.10025405                0.01000002               -0.09969179               -0.34762378                0.11169305                1.46320289                0.08238357                0.06994786
               4.91132417                5.94749115               85.10477250                0.01000000               -0.12759616               -0.28360549                0.11666756                1.77745731                0.07335324                0.05174430
               5.90975976                5.95308991               85.10924608                0.01000000               -0.18914657               -0.16418641                0.12104107                1.94748902                0.06746609                0.03470457
               6.90754124                5.95844282               85.11363773                0.01000000               -0.21939305               -0.07293475                0.12607646                1.94988421                0.06236871                0.03442286
               7.90537190                5.96123044               85.11788513                0.01000000               -0.17048951               -0.07807352                0.13291728                1.72302662                0.05165013                0.06653069
               8.90413144                5.95822314               85.12190669                0.01000000               -0.08527098               -0.16592141                0.14252636                1.07877361                0.02982117                0.14207826
               9.90366648                5.94609829               85.12564235                0.01000000               -0.04649632               -0.09417826                0.15266603                0.53278059                0.01301265                0.26141983
              -0.07146791                6.95524786               85.08469561                1.00000000               -0.02519912               -0.02598476                0.07560687                0.00021012                0.00081673               -0.02787913
               0.92828010                6.94663791               85.08897100                0.01000001               -0.15382414               -0.02505684                0.09271628                0.17267498                0.03602085               -0.00717116
               1.92545560                6.94148464               85.09395000                0.01000001               -0.19961884               -0.27289034                0.14121270                0.65122399                0.05620222                0.01610054
               2.92428772                6.93843690               85.09865597                0.01000000               -0.07005968               -0.40046565                0.11656349                0.91254710                0.06405800                0.03367883
               3.92405441                6.93915770               85.10340395                0.01000000               -0.00399453               -0.56327674                0.12174147                1.40434892                0.06660981                0.04256324
               4.92420783                6.94403994               85.10820795                0.01000001               -0.01937469               -0.39309908                0.12354121                1.82228905                0.06028313                0.02655132
               5.92366692                6.95109117               85.11304956                0.01000000               -0.07588987               -0.20417700                0.12437876                1.93358908                0.06060174                0.01731538
               6.92269003                6.95742639               85.11796022                0.01000000               -0.09654075               -0.10868206                0.12733594                1.83876682                0.06188854                0.02490626
               7.92173610                6.96062145               85.12286244                0.01000001               -0.10249118               -0.02283565                0.13324898                1.53151748                0.05437883                0.07331710
               8.92064021                6.95795360               85.12763674                0.01000001               -0.13246631                0.11910567                0.14305543                0.89077303                0.03302921                0.15818520
               9.91908678                6.94735222               85.13208642                0.01000000               -0.15534322                0.27768667                0.15594797                0.39465172                0.01990944                0.28074558
              -0.06286506                7.95497054               85.08663122                0.99999998               -0.02493158               -0.02729965                0.07832642                0.00048444                0.00393599               -0.03588907
               0.93688562                7.94639538               85.09105939                0.99999999               -0.02732364               -0.02557131                0.09371948                0.00408165                0.00839087               -0.00744331
               1.93658847                7.93789785               85.09555669                0.01000000               -0.14948678               -0.19603728                0.10930813                0.36692931                0.05529396               -0.00946283
               2.93389589                7.93406268               85.10092079                0.01000001               -0.08964199               -0.47095450                0.13287936                0.73635369                0.09360577               -0.01260564
               3.93479563                7.93213417               85.10605705                0.01000001                0.09702934               -0.93430819                0.13514469                1.29409942                0.07074405               -0.02718834
               4.93583648                7.93962917               85.11123155                0.01000000                0.01247326               -0.37054439                0.13460001                1.79069256                0.07225951                0.00676448
               5.93504509                7.94900637               85.11666441                0.01000000               -0.05250945               -0.17249635                0.13244493                1.68614454                0.08372567                0.00494118
               6.93478629                7.95626918               85.12220062                0.01000001                0.02149723               -0.12969761                0.13332312                1.50962949                0.09487275                0.01640807
               7.93547504                7.96077373               85.12804375                0.01000002                0.02149251               -0.04168516                0.13737979                1.35781007                0.09037308                0.06850345
               8.93521614                7.96060525               85.13377706                0.01000001               -0.13563810                0.30395788                0.14649540                0.99403319                0.05784643                0.24321886
               9.93276228                7.95165202               85.13912704                0.01000000               -0.24538614                0.67251606                0.15995759                0.60843876                0.04460949                0.34082014
              -0.05430791                8.95470187               85.08857098                0.99999999               -0.02576716               -0.02552656                0.07819247               -0.00065143                0.00175480               -0.02829488
               0.94543442                8.94612648               85.09313319                0.99999998               -0.02825966               -0.02735895                0.09382356               -0.00058020                0.00519676               -0.00579139
               1.94512690                8.93756390               85.09773757                0.99999995               -0.03279711               -0.03289490                0.10977787                0.00015766                0.01811420                0.01211241
               2.94477848                8.92901781               85.10255149                0.99999952               -0.03784936               -0.27104606                0.12861309                0.11776391                0.02243422               -0.01104768
               3.94436991                8.92047153               85.10724637                0.01000000               -0.08144982               -0.60448550                0.14608646                1.28833272                0.11507814               -0.02176144
               4.94314948                8.93662905               85.11394583                0.01000001               -0.18100562               -0.15575839                0.14848607                1.55510461                0.17561786                0.00019188
               5.94074980                8.94764124               85.12010598                0.01000000               -0.10171068               -0.10919332                0.14759891                1.04116078                0.14454371               -0.00172289
               6.94111527                8.95483244               85.12632162                0.01000001                0.19032204               -0.16769496                0.14576976                0.85723260                0.15327657                0.00761220
               7.94455624                8.95978775               85.13301730                0.01000005                0.42636558               -0.20104397                0.14805127                0.92066822                0.23423971                0.04911342
               8.94964258                8.96403276               85.14154490                0.99999999                0.23028819                0.14708014                0.15113864                0.93730033                0.13406767                0.16001331
               9.94916200                8.96080254               85.14724404                1.00000000               -0.04805759                0.42976961                0.17190781                0.65820913               -0.00744538                0.16266996
              -0.04572731                9.95446001               85.09065607                1.00000000               -0.02606963               -0.02418619                0.07832815               -0.00312014               -0.01252617               -0.01919043
               0.95401200                9.94584821               85.09523217                1.00000000               -0.02862012               -0.02782758                0.09366698               -0.00324495               -0.01171292               -0.00321721
               1.95370029                9.93723995               85.09978755                1.00000000               -0.03342329               -0.03239416                0.10813166               -0.00298301               -0.01049259                0.00604926
               2.95334353                9.92864176               85.10437714                0.99999997               -0.03746228               -0.03760541                0.12214473               -0.00326925               -0.00756903               -0.00188966
               3.95295104                9.92004446               85.10899769                0.23430437               -0.67873353               -0.04270728                0.13739944                1.25172572                0.14117581                0.00486179
               4.93976886                9.93651400               85.11657178                0.01000000               -0.76430609               -0.01150480                0.16258758                1.00084027                0.29590548               -0.00342212
               5.93766492                9.94682251               85.12345262                0.01000000                0.00077855               -0.08187365                0.16687977                0.51157659                0.24187229               -0.00211702
               6.93978443                9.95291528               85.13023164                0.01000000                0.35115781               -0.19171542                0.16482185                0.36343363                0.23720572                0.00844244
               7.94468808                9.95675285               85.13766415                0.01000001                0.65814601               -0.30349020                0.16507373                0.54476254                0.28709268                0.05291564
               8.95294735                9.96354685               85.14625959                1.00000000                0.38494060               -0.04859089                0.17510621                0.50520569                0.15187473                0.00705982
               9.95238689                9.96024742               85.15195874                1.00000000               -0.05604600               -0.05551282                0.19587548               -0.00745461                0.00714994               -0.00714969
              -0.13526023               -0.04373709               86.06763589                0.93079814               -0.01504637               -0.01369998                0.06144668                0.00366298                0.00389527                0.00208293
               0.86458931               -0.04827123               86.07044780                0.85535150               -0.01249574               -0.02924659                0.07695831                0.00550852                0.01698129               -0.00531721
               1.86448986               -0.05251556               86.07345473                0.53790198                0.00163046               -0.02975764                0.09913844                0.02682375                0.07187997               -0.00045955
               2.86462192               -0.05597037               86.07716721                0.25577415                0.07333236               -0.03209839                0.11463248                0.16585899                0.14914919               -0.00015598
               3.86595650               -0.05558010               86.08152375                0.16860024               -0.02376650                0.01398589                0.13160155                0.30157806                0.09714188               -0.01652258
               4.86414659               -0.04721920               86.08445279                0.25806858               -0.21993790                0.02629880                0.11044910                0.22608872               -0.19208388                0.11130972
               5.86155774               -0.04303553               86.08553720                0.99999999               -0.14483038               -0.03280353                0.09577719                0.16147254               -0.09445491                0.00801621
               6.86124998               -0.04206581               86.08807765                1.00000000               -0.03045702               -0.02884216                0.08470383               -0.00201140               -0.03436941                0.00421699
               7.86094860               -0.04114916               86.09044477                0.99999999               -0.02770596               -0.02602121                0.07833419               -0.00195184               -0.04792067                0.01194970
               8.86069586               -0.04027543               86.09275351                0.99999999               -0.02302804               -0.02436328                0.07176226               -0.00276849               -0.04174220                0.00154772
               9.86048804               -0.03935889               86.09523896                1.00000000               -0.02078157               -0.02245040                0.06496484               -0.00490577               -0.03131544               -0.02562598
              -0.13068946                0.95612591               86.06990532                0.93523279               -0.02769183               -0.01200665                0.07246151                0.00255646               -0.00259899                0.01406463
               0.86903363                0.95143630               86.07264359                0.01000000               -0.03514410               -0.03436617                0.08728009                0.01800248                0.00110112               -0.00387400
               1.86860766                0.94718687               86.07552023                0.01000000               -0.06104250               -0.02397180                0.10308746                0.04740097                0.01279013                0.05051020
               2.86781278                0.94370864               86.07875274                0.01000000               -0.20054829                0.04208006                0.11002975                0.21553159                0.01787953                0.10117409
               3.86459670                0.94455976               86.08215883                0.01000000               -0.38387937                0.09647414                0.14267280                0.61107682                0.08608032                0.18295242
               4.86013519                0.95304379               86.08748382                0.01000000               -0.20004619               -0.12281893                0.18061208                0.72273849                0.12668773                0.08454911
               5.86059577                0.95663643               86.08940216                0.01000001                0.00757456               -0.17172765                0.12081472                0.34455394               -0.03044591                0.04298091
               6.86028668                0.95764577               86.09208709                0.44712903               -0.02809378               -0.02245540                0.10939944                0.01131774                0.01135248                0.07382254
               7.86003390                0.95859062               86.09478296                1.00000000               -0.02568230               -0.02910102                0.09760424                0.00305906                0.00426665                0.02103329
               8.85977303                0.95948093               86.09727023                0.99999999               -0.02557294               -0.02701353                0.08907555               -0.00140667               -0.00473848                0.00613190
               9.85952244                0.96041661               86.09976409                1.00000000               -0.02505955               -0.02550326                0.08183492               -0.00379703               -0.00332400               -0.02820729
              -0.12582988                1.95602278               86.07234909                0.66205487               -0.02817189               -0.00576067                0.08948516                0.01521350               -0.00110559                0.05367095
               0.87388840                1.95104144               86.07493252                0.01000001               -0.05022943               -0.04912552                0.09996135                0.05925076                0.05196619                0.00300413
               1.87316553                1.94700501               86.07857033                0.01000004               -0.11643742               -0.04452958                0.09850203                0.22314706                0.10035251                0.09467511
               2.87155965                1.94487123               86.08223809                0.01000000               -0.21613189                0.05841261                0.10068119                0.49466255                0.09609960                0.17852365
               3.86884289                1.94634938               86.08615336                0.01000001               -0.25174861                0.07795463                0.11653961                0.86404591                0.13318753                0.21502514
               4.86652468                1.95032442               86.09012578                0.01000001               -0.24980277               -0.19973117                0.13238191                1.04476193                0.14821250                0.08684848
               5.86384684                1.95352991               86.09399735                0.01000002               -0.35012700               -0.20161464                0.12726198                0.86013920                0.13895580                0.09871548
               6.85952214                1.95748508               86.09747930                0.01000002               -0.23361095               -0.12103240                0.09472584                0.58451870                0.03826474                0.07552523
               7.85917462                1.95826881               86.09928371                0.01000001               -0.03402019               -0.14320585                0.11431006                0.21774111               -0.00801492                0.06589100
               8.85884174                1.95918430               86.10184881                0.99999996               -0.03169345               -0.03179718                0.10668446                0.00037813                0.02028634                0.02764262
               9.85854075                1.96013105               86.10420773                0.99999999               -0.03009866               -0.03096222                0.09771479               -0.00335041                0.01057093               -0.03002811
              -0.12042251                2.95601070               86.07524999                0.31316522               -0.03410709                0.04609128                0.10868692                0.10968779                0.00608085                0.13447894
               0.87923641                2.95045379               86.07748794                0.01000005               -0.01683330               -0.13133871                0.11385611                0.18660476                0.10943967                0.02389882
               1.87924082                2.94629627               86.08173636                0.01000000               -0.04373820               -0.13530489                0.10016301                0.49201044                0.18684963                0.09773555
               2.87836165                2.94487690               86.08595204                0.01000004               -0.14081983               -0.05482230                0.10208984                0.79537195                0.15712660                0.15253815
               3.87642442                2.94611885               86.09011915                0.01000001               -0.22558774               -0.06165630                0.11249253                1.06218372                0.14823157                0.15592424
               4.87384990                2.94904916               86.09425386                0.01000000               -0.28932648               -0.11319653                0.12347934                1.17468095                0.14798405                0.12323945
               5.87063789                2.95260414               86.09820239                0.01000000               -0.33058709               -0.09474002                0.12624126                1.13626097                0.12619050                0.07461670
               6.86723815                2.95522512               86.10166770                0.01000000               -0.39741934               -0.13744083                0.12642065                0.97490499                0.08366897                0.04244238
               7.86268951                2.95572651               86.10452579                0.01000000               -0.46598957               -0.07202742                0.12798113                0.66188544                0.04034846                0.09557044
               8.85791836                2.95884499               86.10677553                1.00000000               -0.25637900               -0.03711133                0.12618640                0.11025470                0.01361882                0.03690044
               9.85756193                2.95979737               86.10869679                0.99999999               -0.03564359               -0.03487843                0.11196710               -0.00347564               -0.00348295               -0.02382628
              -0.11252231                3.95694460               86.07912496                0.17527818               -0.01427708                0.01363154                0.12007633                0.32193983               -0.00664985                0.14677263
               0.88733492                3.94841467               86.08052358                0.01000000                0.05524720               -0.31856668                0.13297108                0.57614721                0.17935460                0.12464539
               1.88858264                3.94429891               86.08523739                0.01000002                0.01547966               -0.17871095                0.11093276                0.82865676                0.22224328                0.13202892
               2.88764452                3.94377478               86.08967979                0.01000001               -0.13341680               -0.14347977                0.10832487                1.05152103                0.16309907                0.13401141
               3.88591430                3.94511626               86.09405940                0.01000001               -0.20557514               -0.13487096                0.11522978                1.24007532                0.14112488                0.12364454
               4.88353301                3.94806049               86.09831903                0.01000000               -0.27591005               -0.12170564                0.12344762                1.38580346                0.12759279                0.09337810
               5.88039610                3.95163511               86.10239390                0.01000001               -0.38175690               -0.08979439                0.12957312                1.42296510                0.11367413                0.06040202
               6.87589788                3.95473627               86.10617417                0.01000000               -0.58018200               -0.01730324                0.13444269                1.33426057                0.09486975                0.04718568
               7.86879246                3.95682827               86.10948797                0.01000001               -0.94609512                0.10556408                0.14105287                1.25893288                0.04231221                0.06007529
               8.85697597                3.95844207               86.11152027                0.01000002               -0.61129854               -0.10054645                0.14450352                1.29313149                0.02616927                0.09589074
               9.85656649                3.95943348               86.11328537                0.27617898               -0.04094830               -0.72732797                0.12725640                1.28934944                0.01159243                0.12196190
              -0.09692385                4.95628333               86.08230917                0.24367087                0.03289028               -0.18518558                0.10492029                0.18726057                0.09054478               -0.12320884
               0.90340506                4.94408246               86.08567565                0.01000000               -0.13111551               -0.18609614                0.16760581                0.72337622                0.07471043                0.17834174
               1.90045384                4.94272206               86.08885657                0.01000001               -0.24151662               -0.15289726                0.11950176                1.05538324                0.08750222                0.13204664
               2.89857472                4.94200730               86.09336618                0.01000000               -0.17568101               -0.20421227                0.11473731                1.13765262                0.12986613                0.11744510
               3.89694022                4.94342143               86.09786354                0.01000000               -0.17638076               -0.21884062                0.12038657                1.36529473                0.11554035                0.09314155
               4.89504711                4.94661505               86.10224638                0.01000002               -0.22594022               -0.18365901                0.12477373                1.56942631                0.09836365                0.06716202
               5.89242142                4.95080825               86.10650885                0.01000001               -0.31584472               -0.10841686                0.12895220                1.69142081                0.08740447                0.03917031
               6.88873021                4.95487906               86.11058189                0.01000001               -0.41295283               -0.01928514                0.13304522                1.74657826                0.07477938                0.02659271
               7.88416236                4.95783779               86.11431090                0.01000002               -0.37772174                0.00024172                0.13936800                1.74367016                0.06015868                0.04250318
               8.88117578                4.95683406               86.11765248                0.01000000               -0.13981327               -0.23026714                0.15018392                1.54752338                0.04236781                0.13986422
               9.88136610                4.94525081               86.12069813                0.01000003                0.01903172               -0.86219457                0.16552802                1.01447430                0.02014249                0.29500845
              -0.08437535                5.95324089               86.08336234                0.99595687               -0.02609283               -0.16564296                0.07861756                0.20054488                0.00288958               -0.06444911
               0.91536372                5.94469275               86.08779079                0.01000000               -0.19295951                0.01804774                0.09774533                0.42616196                0.00522350               -0.01027391
               1.91176546                5.94124096               86.09230628                0.01000001               -0.28327653               -0.15206909                0.10705087                0.77459573                0.06802506                0.09123732
               2.90969819                5.93969054               86.09688687                0.01000000               -0.15765073               -0.29743751                0.12778586                1.05686316                0.10642281                0.06165546
               3.90861245                5.94073944               86.10141247                0.01000001               -0.10817355               -0.33712606                0.12380992                1.38437323                0.08176159                0.07115676
               4.90753472                5.94438731               86.10598029                0.01000001               -0.13259677               -0.27938672                0.12665798                1.68086018                0.06898277                0.04303991
               5.90596051                5.94946678               86.11048598                0.01000001               -0.18674079               -0.16676092                0.12788436                1.84403427                0.06020285                0.01790576
               6.90379990                5.95435056               86.11491849                0.01000002               -0.21248254               -0.07914597                0.13018350                1.84883423                0.05522358                0.01385110
               7.90171086                5.95683310               86.11923384                0.01000003               -0.16432413               -0.08315627                0.13537758                1.63505200                0.04704416                0.04587060
               8.90051342                5.95383673               86.12336861                0.01000007               -0.08441858               -0.16656251                0.14863550                1.02384894                0.02892023                0.12456931
               9.90002249                5.94218959               86.12723620                0.01000000               -0.04909343               -0.09597725                0.17061998                0.50584540                0.01311506                0.25204783
              -0.07581666                6.95297047               86.08544738                1.00000000               -0.02551182               -0.02855425                0.07576039               -0.00010244                0.00209882               -0.02431549
               0.92392822                6.94444341               86.08989914                0.01000000               -0.16176878               -0.02288499                0.09313303                0.18924859                0.06364349               -0.00916009
               1.92094797                6.93968067               86.09558855                0.01000002               -0.18573599               -0.26607849                0.20848928                0.59968124                0.20726170               -0.15860235
               2.92021350                6.93605855               86.09977586                0.01000000               -0.05085264               -0.38653177                0.11693808                0.84149914                0.06735681                0.05347607
               3.91993091                6.93667891               86.10465848                0.01000000               -0.01382629               -0.53922418                0.13224539                1.33198824                0.06717175                0.04803336
               4.91993698                6.94102732               86.10947043                0.01000001               -0.02960332               -0.37968940                0.12897040                1.72222717                0.04888021                0.02025566
               5.91933885                6.94747303               86.11430912                0.01000002               -0.07982025               -0.20113658                0.12835121                1.83185672                0.04917953                0.00106212
               6.91834057                6.95329614               86.11924548                0.01000003               -0.09808049               -0.11006341                0.13037839                1.74396756                0.05237168                0.00649359
               7.91737724                6.95617466               86.12420565                0.01000000               -0.10221524               -0.02792630                0.13533271                1.45056720                0.04682226                0.05561807
               8.91629627                6.95350281               86.12908685                0.01000001               -0.12999784                0.10696482                0.14582574                0.84092119                0.02909833                0.14131327
               9.91477728                6.94333126               86.13368734                0.01000000               -0.15189879                0.25964136                0.16454287                0.37098576                0.01888188                0.26410785
              -0.06732328                7.95266981               86.08739754                0.99999999               -0.02382276               -0.02860291                0.07485336                0.00095523                0.00558791               -0.03574373
               0.93243849                7.94423505               86.09199192                1.00000000               -0.02663857               -0.02311554                0.09272322                0.00744987                0.01059687               -0.00712698
               1.93214395                7.93591939               86.09666187                0.01000001               -0.14542773               -0.20509120                0.11182936                0.36501874                0.06333644               -0.03320778
               2.92952994                7.93195990               86.10230782                0.01000000               -0.09302518               -0.44257883                0.14102645                0.69989366                0.09305560               -0.00251298
               3.93028344                7.92995496               86.10744556                0.01000002                0.08276027               -0.89236731                0.14392961                1.23266732                0.05813015               -0.01131984
               4.93118514                7.93679352               86.11260060                0.01000002                0.00226894               -0.35422234                0.13622062                1.69750786                0.05510696                0.00602955
               5.93032882                7.94544405               86.11799643                0.01000003               -0.06037576               -0.16600300                0.13257828                1.59756309                0.07099866               -0.00819679
               6.92997763                7.95214930               86.12353928                0.01000000                0.00933535               -0.12532574                0.13504942                1.43056068                0.08576971                0.00095927
               7.93051553                7.95627457               86.12942397                0.01000005                0.00988100               -0.04063519                0.13897234                1.28270058                0.08248822                0.05441446
               8.93017525                7.95597602               86.13524974                0.01000001               -0.13651127                0.28844927                0.14775590                0.92888167                0.05331682                0.22627188
               9.92778530                7.94738242               86.14074161                0.01000000               -0.23899427                0.62811646                0.16221324                0.56600466                0.04332222                0.32732682
              -0.05892803                8.95239841               86.08932338                0.99999999               -0.02443329               -0.02478846                0.07220344               -0.00126164                0.00226378               -0.03022423
               0.94082764                8.94398110               86.09405714                0.99999998               -0.02742410               -0.02591863                0.09097375               -0.00075445                0.00601442               -0.00593234
               1.94052349                8.93557885               86.09883702                0.99999995               -0.03259132               -0.03293904                0.11022883                0.00078263                0.02095585                0.01356679
               2.94017581                8.92720697               86.10385851                1.00000000               -0.03864234               -0.25675629                0.13319542                0.11465638                0.02694087               -0.01139551
               3.93975064                8.91883157               86.10874486                0.01000002               -0.08888792               -0.57824733                0.15403652                1.23129573                0.11101110               -0.00869249
               4.93839805                8.93394287               86.11547874                0.01000000               -0.19081531               -0.14850208                0.15612543                1.47937212                0.16050294                0.00719008
               5.93593433                8.94415297               86.12161079                0.01000000               -0.11383968               -0.10340039                0.14922418                0.98578356                0.13083710               -0.00879700
               6.93612126                8.95078962               86.12778996                0.01000000                0.16350937               -0.15781084                0.14681694                0.81032950                0.14312269               -0.00143419
               7.93920452                8.95536196               86.13450374                0.01000000                0.38224016               -0.18690186                0.14936223                0.87156374                0.22246316                0.04157372
               8.94376606                8.95927180               86.14306208                0.99999999                0.20400344                0.14034567                0.15229100                0.87856838                0.12566544                0.15038840
               9.94328459                8.95589359               86.14896004                1.00000000               -0.04814707                0.39794975                0.17129206                0.60568485               -0.00744228                0.15589663
              -0.05051389                9.95217404               86.09139869                1.00000000               -0.02431430               -0.02243734                0.07021223               -0.00432264               -0.01448048               -0.02110344
               0.94924296                9.94371667               86.09614341                1.00000000               -0.02761900               -0.02644267                0.08863917               -0.00413852               -0.01435569               -0.00351021
               1.94893373                9.93526061               86.10085722                0.99999996               -0.03363083               -0.03182368                0.10578291               -0.00357095               -0.01471365                0.00650248
               2.94857035                9.92682478               86.10559762                0.99999999               -0.03801329               -0.03821975                0.12162154               -0.00407613               -0.01229941               -0.00266509
               3.94817346                9.91839001               86.11038293                0.33050733               -0.65595861               -0.04415505                0.13896122                1.19221732                0.14593141                0.00686483
               4.93545118                9.93382348               86.11829664                0.01000000               -0.74878612               -0.01193896                0.19561879                0.95461354                0.30942780                0.00236715
               5.93319774                9.94337604               86.12520822                0.01000000               -0.02379724               -0.07769357                0.18738226                0.48482049                0.22745710               -0.00492459
               6.93497523                9.94899308               86.13192284                0.01000000                0.31334452               -0.17965437                0.16992117                0.34342228                0.22130721                0.00487192
               7.93946463                9.95253654               86.13932734                0.01000001                0.61198756               -0.28254209                0.16726749                0.51550368                0.27539243                0.05068164
               8.94721498                9.95878294               86.14801374                0.99999999                0.35953923               -0.04888599                0.17572299                0.48513573                0.14648300                0.00706130
               9.94665541                9.95534141               86.15391170                0.99999999               -0.05595675               -0.05521794                0.19472368               -0.00707026                0.00714880               -0.00714918
              -0.13811540               -0.04605607               87.06824381                0.91922427               -0.01137564               -0.01031096                0.06165590                0.00415546                0.00438172               -0.00000861
               0.86177084               -0.05058743               87.07121444                0.84024340               -0.00455045               -0.03287766                0.07645900                0.00938992                0.02054431               -0.00670088
               1.86179359               -0.05461186               87.07443831                0.60551420                0.01239671               -0.02671676                0.09546648                0.03006735                0.07312018               -0.00221657
               2.86201878               -0.05750988               87.07820623                0.32509510                0.06267615               -0.02478848                0.09567951                0.16014808                0.12585884                0.00467729
               3.86304711               -0.05641177               87.08237356                0.25087589               -0.07745658                0.04467475                0.07180719                0.18258927                0.04671050                0.00920031
               4.86046965               -0.04972928               87.08529748                0.44207671               -0.20851096                0.01397776                0.07849445                0.20556079               -0.13081433                0.07154971
               5.85887689               -0.04698065               87.08652733                1.00000000               -0.09792527               -0.03386368                0.10116142                0.09144892               -0.07980987                0.00311413
               6.85851114               -0.04614365               87.08892025                1.00000000               -0.03487565               -0.02780619                0.08357592               -0.00096164               -0.03417927                0.00756761
               7.85817938               -0.04546088               87.09120846                0.99999999               -0.02941039               -0.02478948                0.07453242               -0.00145820               -0.04616266                0.01277299
               8.85792293               -0.04486470               87.09344318                0.99999999               -0.02260210               -0.02270944                0.06646559               -0.00308421               -0.04103435                0.00126553
               9.85772734               -0.04422811               87.09585460                0.99788348               -0.01955933               -0.02121179                0.05908894               -0.00564116               -0.03144905               -0.02656842
              -0.13354248                0.95384082               87.07063617                0.89997508               -0.03148805               -0.00536089                0.07387945                0.00554753               -0.00410658                0.01433746
               0.86614264                0.94908379               87.07353027                0.01590834               -0.04510160               -0.04303882                0.08893993                0.03756614               -0.00080765               -0.00434836
               1.86555549                0.94512097               87.07656441                0.01000000               -0.08112132               -0.02736676                0.10486316                0.09541552                0.00363715                0.04999976
               2.86452021                0.94224224               87.07988714                0.01000001               -0.22863900                0.02927792                0.11565165                0.28018117                0.02539654                0.10196887
               3.86098271                0.94403498               87.08373188                0.01000000               -0.33552602                0.04543686                0.15019657                0.56848892                0.11564231                0.14714373
               4.85780969                0.95041050               87.08895333                0.01000000               -0.14920704               -0.12991463                0.11911038                0.61295457                0.11562882                0.00916326
               5.85799857                0.95268072               87.09063375                0.01000000               -0.00340257               -0.15137650                0.12038705                0.29201083               -0.04395687                0.03098651
               6.85774164                0.95357829               87.09318063                0.56410538               -0.02366193               -0.02377212                0.10723339                0.01937638                0.00653276                0.06110828
               7.85752533                0.95429123               87.09575107                1.00000000               -0.02329661               -0.02859414                0.09518328                0.00485846                0.00196986                0.02103558
               8.85727571                0.95490820               87.09814570                0.99999999               -0.02454954               -0.02548377                0.08584619               -0.00138807               -0.00501059                0.00661528
               9.85703434                0.95555977               87.10056150                0.99999999               -0.02413712               -0.02512332                0.07823342               -0.00456689               -0.00329542               -0.03020167
              -0.12849039                1.95383672               87.07325242                0.71027005               -0.02675977                0.00365477                0.08930601                0.01778428               -0.00343591                0.05669377
               0.87124202                1.94855179               87.07596224                0.01000000               -0.04830794               -0.06514077                0.10398687                0.09732790                0.04833477               -0.00034252
               1.87054346                1.94484080               87.07966709                0.01000001               -0.12668114               -0.06057765                0.10165985                0.29153454                0.09349398                0.08642165
               2.86870839                1.94307568               87.08337898                0.01000001               -0.21474119                0.02213607                0.12418951                0.54363676                0.10485517                0.16994509
               3.86624863                1.94449697               87.08747379                0.01000003               -0.23126980               -0.01641389                0.13740957                0.86858724                0.15018816                0.17283573
               4.86408300                1.94767243               87.09157457                0.01000001               -0.23496577               -0.21418715                0.14263242                0.94905693                0.14521713                0.04020625
               5.86154932                1.94999182               87.09527580                0.01000000               -0.33974194               -0.18065416                0.12526954                0.79534726                0.11367341                0.07681099
               6.85728816                1.95338091               87.09847471                0.01000001               -0.23013381               -0.11775545                0.10030538                0.55818063                0.03722626                0.07063491
               7.85694664                1.95396724               87.10042699                0.01000001               -0.03307647               -0.13912563                0.11245715                0.21525581                0.00325766                0.06454253
               8.85662663                1.95462562               87.10291546                1.00000000               -0.03068864               -0.03023848                0.10615983                0.00309374                0.02093538                0.03093762
               9.85633287                1.95526942               87.10517532                0.99999999               -0.02937624               -0.03199186                0.09604633               -0.00376829                0.01039413               -0.03461041
              -0.12261695                2.95391392               87.07627880                0.38164579               -0.02979454                0.04470571                0.09688053                0.11088375                0.00692787                0.12026216
               0.87708511                2.94778098               87.07865348                0.01000001               -0.02603813               -0.15722432                0.11808285                0.24222494                0.10317431                0.02751847
               1.87686229                2.94390942               87.08286461                0.01000001               -0.06741616               -0.13973962                0.12330732                0.52787908                0.17590056                0.09925747
               2.87573678                2.94268496               87.08711881                0.01000000               -0.15522921               -0.08427014                0.12617497                0.79697846                0.15642045                0.14964654
               3.87375771                2.94370670               87.09136922                0.01000001               -0.22204046               -0.10231425                0.13381652                1.00925201                0.15272279                0.14034135
               4.87129597                2.94612675               87.09556566                0.01000000               -0.27803390               -0.13668743                0.13695323                1.09536796                0.14858597                0.09800196
               5.86819703                2.94906763               87.09950857                0.01000000               -0.31830676               -0.09943413                0.13367630                1.05697825                0.12383805                0.05806551
               6.86492984                2.95122318               87.10296291                0.01000000               -0.38056466               -0.13600777                0.13190311                0.92247666                0.08685846                0.04486157
               7.86058573                2.95150871               87.10584076                0.01000001               -0.44472184               -0.07610436                0.13452560                0.63519750                0.05045189                0.09743275
               8.85603540                2.95430343               87.10805941                0.99999999               -0.24571810               -0.03680206                0.13079451                0.11085102                0.01948177                0.04301992
               9.85567137                2.95491993               87.10981324                0.99999999               -0.03640300               -0.03586272                0.11112343               -0.00440125               -0.00466346               -0.03025282
              -0.11400683                3.95473083               87.08004119                0.25352774                0.00978397               -0.04866491                0.07973475                0.21054365                0.00846646                0.10322196
               0.88609101                3.94540731               87.08196066                0.01000000                0.01019401               -0.27952575                0.14354431                0.53326624                0.15818901                0.13634646
               1.88619705                3.94204601               87.08649485                0.01000003               -0.06201667               -0.17223259                0.13303747                0.82638423                0.18875041                0.14106329
               2.88485068                3.94139028               87.09089921                0.01000001               -0.16025894               -0.15767304                0.13187147                0.99918246                0.15128017                0.13404282
               3.88299188                3.94245068               87.09531692                0.01000000               -0.21106288               -0.15433859                0.13476881                1.17154054                0.13801187                0.11697308
               4.88062942                3.94493868               87.09962727                0.01000001               -0.26997116               -0.13663612                0.13764329                1.29636686                0.12537331                0.07956976
               5.87759245                3.94800314               87.10373455                0.01000003               -0.36664053               -0.10007058                0.13887810                1.33032179                0.11111231                0.04383704
               6.87329661                3.95066075               87.10755154                0.01000034               -0.55110563               -0.02752838                0.14119384                1.25192953                0.09686862                0.03121336
               7.86657034                3.95244515               87.11094071                0.01000000               -0.89320897                0.08892022                0.15063341                1.19157765                0.05161579                0.04664162
               8.85543243                3.95388958               87.11300250                0.01000000               -0.57792485               -0.10412261                0.15221770                1.22321573                0.04100041                0.09522492
               9.85501184                3.95455216               87.11456128                0.20236707               -0.04205902               -0.68674025                0.12729330                1.20734131                0.01461623                0.13384049
              -0.09975903                4.95294062               87.08315219                0.41495918                0.01942746               -0.18338900                0.07835869                0.18091164                0.07526780               -0.10060567
               0.90043525                4.94219046               87.08717904                0.01000000               -0.14169857               -0.14698765                0.12431486                0.61312818                0.01247917                0.15297944
               1.89740700                4.94046477               87.09020220                0.01000001               -0.25597434               -0.17987908                0.13713752                0.93856900                0.04261214                0.12028414
               2.89531576                4.93953150               87.09462868                0.01000000               -0.18834435               -0.22474310                0.13638142                1.08223753                0.11155142                0.11990190
               3.89364012                4.94061993               87.09915808                0.01000001               -0.18224542               -0.22113921                0.13752589                1.28620780                0.10611225                0.08808173
               4.89167085                4.94339403               87.10356269                0.01000000               -0.22793648               -0.19053912                0.13924973                1.47235919                0.08889261                0.05462460
               5.88908139                4.94706622               87.10784359                0.01000000               -0.30722164               -0.11776905                0.13917446                1.58558737                0.07596902                0.02027740
               6.88552642                4.95067261               87.11193577                0.01000000               -0.39464613               -0.03022513                0.13818237                1.64110658                0.06165750                0.00447428
               7.88118846                4.95328712               87.11572042                0.01000007               -0.35668584               -0.00960271                0.13918784                1.64203449                0.05013858                0.02016842
               8.87839270                4.95222098               87.11920637                0.01000100               -0.13477186               -0.23047116                0.15443147                1.45865289                0.04337324                0.12425621
               9.87849303                4.94118513               87.12248977                0.01000000                0.01003225               -0.82010636                0.21306730                0.95550244                0.02535801                0.31950026
              -0.08888827                5.95106305               87.08419610                1.00000000               -0.02822958               -0.11071331                0.08777083                0.11192813                0.00073918               -0.06095197
               0.91082943                5.94246755               87.08880381                0.01000000               -0.17421639                0.00315566                0.10238772                0.31809652                0.00098806               -0.03691679
               1.90762740                5.93844843               87.09342656                0.01000000               -0.22445804               -0.32538798                0.13439252                0.83724903                0.06422799                0.13392665
               2.90634027                5.93689541               87.09826423                0.01000000               -0.13869503               -0.27230132                0.13955778                1.04143129                0.09943446                0.05545815
               3.90485350                5.93802790               87.10273025                0.01000003               -0.13549784               -0.32673261                0.14126567                1.31478194                0.06446906                0.06735346
               4.90363031                5.94112790               87.10730566                0.01000000               -0.14139404               -0.27846447                0.13999049                1.57419038                0.05346148                0.02771762
               5.90202562                5.94564776               87.11180377                0.01000000               -0.18662319               -0.17321315                0.13848861                1.73612145                0.04293535               -0.00320772
               6.89989785                5.95005625               87.11624140                0.01000160               -0.20814760               -0.08685720                0.13635627                1.74599233                0.03500755               -0.00606240
               7.89786267                5.95225310               87.12059268                0.01000104               -0.15951826               -0.08717174                0.13670417                1.54333111                0.02555649                0.03068515
               8.89670748                5.94928016               87.12487940                0.01000001               -0.08345330               -0.16611212                0.14943030                0.96223604                0.01215520                0.11406762
               9.89619360                5.93815004               87.12905475                0.01000000               -0.05138851               -0.10280761                0.19251008                0.47550831                0.00258765                0.23491208
              -0.08032947                6.95072635               87.08621081                1.00000000               -0.02587339               -0.03416918                0.07676037                0.00003302                0.00306809               -0.02536170
               0.91941180                6.94225357               87.09083366                0.11345686                0.00267945               -0.01863500                0.09379105                0.01172287                0.13636801               -0.01014968
               1.91972412                6.93395701               87.09811978                0.01000001               -0.14234392               -0.22316052                0.16039961                0.58718940                0.20987770               -0.15666269
               2.91656492                6.93408547               87.10099474                0.01000000               -0.20104232               -0.34828193                0.14682686                0.93806550                0.00559410                0.05734651
               3.91570327                6.93408528               87.10604886                0.01000002               -0.05150599               -0.51032508                0.14399672                1.22756138                0.05435228                0.04896535
               4.91553480                6.93782474               87.11078736                0.01000000               -0.04139080               -0.36932219                0.13955941                1.61370560                0.02765286               -0.00272809
               5.91487546                6.94360196               87.11561658                0.01000009               -0.08469341               -0.20534976                0.13692533                1.73057471                0.03545945               -0.02784964
               6.91384093                6.94893547               87.12056779                0.01000000               -0.10221377               -0.11561801                0.13832650                1.65590084                0.03842700               -0.01386282
               7.91283118                6.95154368               87.12556909                0.01000003               -0.10502234               -0.03445815                0.13997805                1.37574716                0.03008328                0.04448460
               8.91174048                6.94889874               87.13055326                0.01000001               -0.12838773                0.09376495                0.14810240                0.79213194                0.01664610                0.13176374
               9.91026343                6.93912897               87.13537728                0.01000003               -0.14770562                0.23879123                0.16884870                0.34559300                0.01361780                0.24357304
              -0.07194205                7.95037967               87.08812829                1.00000000               -0.02247128               -0.03150599                0.07127072                0.00148441                0.00719133               -0.03745196
               0.92783323                7.94209485               87.09291385                1.00000000               -0.02593285               -0.01986173                0.09195205                0.01174091                0.01346055               -0.00562913
               1.92753929                7.93398522               87.09779328                0.01000002               -0.14299616               -0.01585612                0.11465934                0.19277238                0.07110116               -0.09956738
               2.92497331                7.92992978               87.10374132                0.01000001               -0.09369177               -0.42926828                0.14170452                0.63403572                0.09930404                0.01538246
               3.92566545                7.92782140               87.10893564                0.01000000                0.07072155               -0.83624812                0.15665132                1.15391466                0.03966426               -0.00409414
               4.92638774                7.93374145               87.11395596                0.01000007               -0.00695358               -0.33739659                0.13096297                1.58390890                0.03576592               -0.02631748
               5.92552638                7.94154077               87.11931597                0.01000001               -0.06567996               -0.16742245                0.13867042                1.50911528                0.06958376               -0.04868259
               6.92507414                7.94774389               87.12490160                0.01000003               -0.00560206               -0.12576395                0.14180534                1.36335044                0.08532401               -0.02198684
               7.92541434                7.95156393               87.13082319                0.01000000               -0.00546548               -0.04139144                0.14393055                1.21568793                0.07480096                0.04351034
               8.92496483                7.95115545               87.13673217                0.01000001               -0.13846782                0.26888966                0.14987356                0.86605122                0.04737612                0.21419037
               9.92264499                7.94292586               87.14237131                0.01000001               -0.23198477                0.58107071                0.16429628                0.52473125                0.04198608                0.31056540
              -0.06373015                8.95009623               87.09001505                0.99999999               -0.02287862               -0.02461800                0.06609610               -0.00220455                0.00261135               -0.03275436
               0.93604106                8.94185634               87.09495266                0.99999999               -0.02626017               -0.02447022                0.08802813               -0.00116113                0.00705332               -0.00589702
               1.93574464                8.93363989               87.09994215                0.99999996               -0.03158024               -0.03278017                0.11064746                0.00281418                0.02537728                0.01518528
               2.93540946                8.92550011               87.10521540                0.99999998               -0.03873757               -0.24097753                0.13848691                0.11594733                0.03428171               -0.00896735
               3.93496989                8.91736031               87.11032710                0.01000000               -0.09579235               -0.54578895                0.16279712                1.15409506                0.10652591                0.00871415
               4.93349361                8.93107681               87.11706833                0.01000001               -0.19572846               -0.14079504                0.14922158                1.38187874                0.15403379               -0.01222212
               5.93105532                8.94025351               87.12309046                0.01000001               -0.12044187               -0.10058112                0.14794974                0.92024296                0.14227216               -0.05209100
               6.93108477                8.94642019               87.12925796                0.01000001                0.13390279               -0.14984704                0.15070688                0.77398287                0.14987316               -0.01742143
               7.93373338                8.95071585               87.13600455                0.01000004                0.33074044               -0.17223315                0.15359064                0.82735135                0.21556478                0.03596933
               8.93769958                8.95427653               87.14459072                0.99999999                0.17419294                0.13146520                0.15343141                0.81811756                0.11799795                0.14111601
               9.93721724                8.95075039               87.15066989                0.99999999               -0.04823431                0.36376268                0.17067598                0.55183402               -0.00743897                0.14832162
              -0.05550635                9.94988731               87.09206032                0.99944301               -0.02272855               -0.02089284                0.06227611               -0.00580596               -0.01703913               -0.02354451
               0.94426636                9.94160545               87.09700495                0.99999999               -0.02709187               -0.02508920                0.08372010               -0.00535449               -0.01785746               -0.00397827
               1.94395181                9.93332962               87.10190321                1.00000000               -0.03472656               -0.03102688                0.10333896               -0.00404462               -0.02064953                0.00686280
               2.94357183                9.92511023               87.10680957                0.99999997               -0.03905785               -0.03898795                0.12052922               -0.00496260               -0.01949794               -0.00389249
               3.94317065                9.91690562               87.11177692                0.43292100               -0.62198544               -0.04546957                0.13925451                1.11084216                0.17010447                0.01019559
               4.93113212                9.93092555               87.12048416                0.01000000               -0.72913950               -0.01512595                0.27091475                0.89502736                0.34311098               -0.02210658
               5.92858786                9.93952914               87.12720026                0.01000000               -0.05203319               -0.07243677                0.18660016                0.44432387                0.21941858               -0.03344910
               6.93009146                9.94474695               87.13363006                0.01000000                0.27585846               -0.16732398                0.17375540                0.33017489                0.20259713               -0.00110743
               7.93410503                9.94811927               87.14100950                0.01000002                0.56005976               -0.25965836                0.16927112                0.48905553                0.26682783                0.05055294
               8.94129265                9.95378476               87.14977405                0.99999999                0.33144601               -0.04917715                0.17633924                0.46339938                0.14133194                0.00706095
               9.94073395                9.95020112               87.15585321                1.00000000               -0.05587013               -0.05492718                0.19358413               -0.00669292                0.00714937               -0.00714635
              -0.14111386               -0.04852197               88.06886901                0.90640530               -0.00804498               -0.00739775                0.06428221                0.00391196                0.00613059               -0.00098654
               0.85880569               -0.05303691               88.07197698                0.82146570                0.00371658               -0.03615550                0.07613363                0.01384762                0.02281409               -0.00566212
               1.85896047               -0.05681209               88.07536406                0.66590472                0.01990793               -0.02298258                0.08955698                0.02621947                0.06572835               -0.00245803
               2.85920385               -0.05923865               88.07908080                0.39044188                0.04194947               -0.01860795                0.08365456                0.12990646                0.09007601                0.00780274
               3.85979946               -0.05811274               88.08295989                0.32157357               -0.09136619                0.05151367                0.05944981                0.11132585                0.02313707                0.01098335
               4.85737653               -0.05309991               88.08602268                0.64058771               -0.17303402                0.00498735                0.06839465                0.16326871               -0.06777170                0.03195310
               5.85633878               -0.05118610               88.08756043                1.00000000               -0.07456294               -0.03062078                0.10018408                0.04829088               -0.06676635               -0.00090324
               6.85588527               -0.05043521               88.08974916                1.00000000               -0.04181816               -0.02513140                0.08194872                0.00183235               -0.04137530                0.00982453
               7.85550242               -0.04997894               88.09193542                1.00000000               -0.03281176               -0.02282564                0.07119487               -0.00041670               -0.04839492                0.01296721
               8.85522903               -0.04965516               88.09408282                0.99749404               -0.02330953               -0.02038814                0.06198685               -0.00291858               -0.04290816                0.00049343
               9.85503623               -0.04930405               88.09642074                0.99570914               -0.01928039               -0.02040906                0.05519718               -0.00601903               -0.03348216               -0.02869941
              -0.13655980                0.95140406               88.07138290                0.86311381               -0.03509734                0.00179937                0.07542688                0.00952923               -0.00367538                0.01320051
               0.86308923                0.94660154               88.07442239                0.01780714               -0.05583313               -0.05258523                0.08858204                0.05943855                0.00094113               -0.00115270
               1.86232354                0.94295809               88.07761750                0.01000000               -0.09679932               -0.03773356                0.10485565                0.13159682                0.00609270                0.03724666
               2.86115324                0.94057527               88.08106577                0.01000000               -0.22400930                0.01385559                0.11558444                0.30452561                0.04650706                0.09549065
               3.85784335                0.94240240               88.08516276                0.01000000               -0.28036744                0.01407475                0.12833473                0.51131480                0.14885584                0.08692933
               4.85554589                0.94694996               88.08986603                0.01000000               -0.11770045               -0.11919341                0.08287258                0.51778966                0.10591152               -0.01310521
               5.85548934                0.94850770               88.09180990                0.01000000               -0.01229388               -0.13112955                0.10985000                0.26224466               -0.02623562                0.02570715
               6.85530001                0.94931347               88.09423175                0.68618975               -0.01905595               -0.02246419                0.10162454                0.02576556                0.00432384                0.05147390
               7.85510822                0.94979280               88.09668662                1.00000000               -0.02188063               -0.02755400                0.09102372                0.00620478               -0.00026552                0.01992965
               8.85486240                0.95014096               88.09898715                0.99999996               -0.02416452               -0.02277506                0.08219214               -0.00089293               -0.00608551                0.00719142
               9.85462493                0.95049186               88.10132876                1.00000000               -0.02374684               -0.02544264                0.07550635               -0.00527598               -0.00392899               -0.03354217
              -0.13131824                1.95151402               88.07413521                0.74974644               -0.02413304                0.01115556                0.08701118                0.01606125               -0.00428522                0.05136632
               0.86844043                1.94591139               88.07701225                0.01000000               -0.05315428               -0.07978984                0.10493613                0.12720435                0.03369696                0.00417505
               1.86761867                1.94243324               88.08060352                0.01000000               -0.12951889               -0.07522131                0.11355271                0.35485197                0.10345548                0.09179356
               2.86585005                1.94103846               88.08472188                0.01000001               -0.19838036               -0.01128395                0.13073611                0.57838606                0.13138435                0.14889128
               3.86365107                1.94216876               88.08890155                0.01000001               -0.21115155               -0.06599236                0.14093603                0.83332178                0.15128329                0.12513110
               4.86162702                1.94451622               88.09297843                0.01000000               -0.22154503               -0.19967330                0.13470695                0.85794634                0.13313946                0.02402004
               5.85922017                1.94619131               88.09650274                0.01000002               -0.32557734               -0.16005024                0.12093193                0.74136709                0.09170502                0.06377157
               6.85511547                1.94911550               88.09948541                0.01000000               -0.22105705               -0.11339743                0.09747095                0.53108923                0.03736056                0.06836021
               7.85479903                1.94946998               88.10153285                0.01000000               -0.03016778               -0.13156824                0.10674937                0.21338297                0.01322454                0.06682772
               8.85451212                1.94988934               88.10397200                0.99999996               -0.02850539               -0.02613056                0.10416102                0.00951162                0.02300243                0.03762439
               9.85422892                1.95018709               88.10612866                1.00000000               -0.02832007               -0.03427563                0.09430988               -0.00342221                0.01045283               -0.04111979
              -0.12503331                2.95162717               88.07718760                0.44488516               -0.02525969                0.03108158                0.08822396                0.09417413                0.00728465                0.09217118
               0.87471409                2.94500574               88.07984960                0.01000000               -0.03365936               -0.16476757                0.11860183                0.27155570                0.09538807                0.04396682
               1.87429350                2.94145366               88.08420250                0.01000001               -0.08643219               -0.13253311                0.13030558                0.55721360                0.15623798                0.12067979
               2.87298545                2.94034959               88.08847554                0.01000001               -0.16307360               -0.10463478                0.13939308                0.78134422                0.14618567                0.13858147
               3.87103203                2.94108255               88.09279548                0.01000000               -0.21515932               -0.12509490                0.14493221                0.94511557                0.14747848                0.11756229
               4.86868226                2.94295650               88.09699293                0.01000002               -0.26573126               -0.14306860                0.14433558                1.01099825                0.13775107                0.07483306
               5.86571740                2.94530669               88.10087592                0.01000059               -0.30195635               -0.10072356                0.13809510                0.97814691                0.11471966                0.04683584
               6.86264313                2.94704552               88.10430577                0.01000000               -0.35576800               -0.13639182                0.13597731                0.86841786                0.08907362                0.04807180
               7.85860204                2.94716144               88.10721630                0.01000000               -0.41538085               -0.07942657                0.13732783                0.60738089                0.06347978                0.10662216
               8.85433552                2.94961835               88.10939142                1.00000000               -0.23205306               -0.03448693                0.13516595                0.11541002                0.02716780                0.05518977
               9.85396098                2.94980634               88.11091926                0.99999998               -0.03745345               -0.03766627                0.11040602               -0.00558421               -0.00685911               -0.03940208
              -0.11619191                3.95213565               88.08071966                0.32641360                0.02369555               -0.07554275                0.06713456                0.12609482                0.01086333                0.06878707
               0.88404505                3.94261604               88.08339447                0.01000001               -0.01944994               -0.23534224                0.13308529                0.47687318                0.10873404                0.15569167
               1.88341909                3.93978258               88.08789814                0.01000001               -0.10985005               -0.16288172                0.14042852                0.79463383                0.14552833                0.14243157
               2.88184805                3.93894577               88.09231722                0.01000000               -0.17363096               -0.16546410                0.14526369                0.93743515                0.12893546                0.13294532
               3.87994647                3.93966686               88.09675477                0.01000003               -0.21126012               -0.16564066                0.14813878                1.09027523                0.12380383                0.10621266
               4.87762284                3.94165485               88.10107190                0.01000006               -0.26261977               -0.14636710                0.14883556                1.19835876                0.11299040                0.06532906
               5.87469408                3.94417684               88.10517146                0.01000000               -0.34968791               -0.10810538                0.14819653                1.22915624                0.10010187                0.02872818
               6.87062909                3.94638767               88.10899804                0.01000000               -0.51601309               -0.03834177                0.14804230                1.15740018                0.09267283                0.01307126
               7.86437382                3.94788145               88.11250064                0.01000001               -0.82268374                0.07138763                0.16356518                1.10522134                0.05509327                0.02972891
               8.85417541                3.94919960               88.11456463                0.01000002               -0.53162859               -0.10880318                0.16067674                1.12453492                0.06132981                0.09435526
               9.85374125                3.94943377               88.11583124                0.55378212               -0.04341662               -0.63294978                0.12708699                1.09069099                0.02001628                0.17639655
              -0.10347219                4.95011631               88.08387635                0.61347629                0.00768127               -0.15862118                0.06720493                0.14905461                0.03685766               -0.04694009
               0.89660463                4.94029890               88.08816195                0.01000000               -0.13356839               -0.11581234                0.08752101                0.50938450               -0.01594659                0.13270366
               1.89385645                4.93819603               88.09159932                0.01000000               -0.23773771               -0.18903335                0.13759183                0.84559563                0.02348472                0.13082303
               2.89184987                4.93704031               88.09609380                0.01000002               -0.18639972               -0.22560646                0.14788336                1.00544261                0.08808651                0.12072738
               3.89012845                4.93776974               88.10061406                0.01000006               -0.18552100               -0.22355606                0.15075330                1.19513850                0.08354493                0.08660823
               4.88813945                4.94002916               88.10503137                0.01000000               -0.22803695               -0.19689290                0.15280184                1.36412151                0.07099417                0.04344908
               5.88556771                4.94314458               88.10929234                0.01000000               -0.30264593               -0.12736079                0.15237824                1.47194669                0.05474506                0.00473224
               6.88208653                4.94627869               88.11334554                0.01000001               -0.38365895               -0.03951818                0.14768526                1.52633302                0.02704749               -0.01504525
               7.87789453                4.94858919               88.11709465                0.01000001               -0.34063204               -0.01416596                0.13505216                1.51868820               -0.00227528               -0.00063066
               8.87527389                4.94744229               88.12074111                0.01000001               -0.12940320               -0.22142026                0.15474102                1.33386032               -0.01961488                0.14476570
               9.87530647                4.93714735               88.12495948                0.01000000                0.00325770               -0.77167262                0.29552592                0.86962117               -0.06175618                0.40710057
              -0.09357599                5.94896323               88.08511776                0.99999999               -0.02709923               -0.07926326                0.09134785                0.05721646               -0.00058812               -0.05505781
               0.90615302                5.94029979               88.08983854                0.01000000               -0.14172117               -0.00842630                0.10012939                0.25903365                0.02354694               -0.02988319
               1.90358959                5.93600191               88.09499413                0.01000000               -0.18849166               -0.30076663                0.13722538                0.76309224                0.06901136                0.13688730
               2.90238319                5.93443364               88.09967803                0.01000000               -0.13645951               -0.26559576                0.14274615                0.98701326                0.04784609                0.09130063
               3.90086040                5.93519574               88.10423779                0.01000000               -0.14263802               -0.31584582                0.15508639                1.21901181                0.03997512                0.06280415
               4.89953043                5.93771699               88.10878010                0.01000000               -0.14884600               -0.28533525                0.15626734                1.46083728                0.02932041                0.01558508
               5.89788348                5.94162963               88.11325575                0.01000001               -0.19096432               -0.18703731                0.15471464                1.62901016                0.01759802               -0.02020379
               6.89571114                5.94559730               88.11764562                0.01000000               -0.21497485               -0.09600079                0.15005142                1.65192849               -0.00194810               -0.01626442
               7.89358398                5.94759813               88.12196792                0.01000001               -0.17083414               -0.08776725                0.14944298                1.46363984               -0.03407750                0.04113434
               8.89229446                5.94477120               88.12635722                0.01000001               -0.09302194               -0.15784867                0.15703547                0.89746497               -0.05757553                0.14096883
               9.89172355                5.93400032               88.13108640                0.01000001               -0.05709144               -0.11305920                0.17891887                0.42766782               -0.04022955                0.23646670
              -0.08500098                6.94853105               88.08698258                1.00000000               -0.02524044               -0.04233459                0.07643593                0.00120221                0.00331090               -0.03337512
               0.91474662                6.94013037               88.09177496                0.28343778               -0.00072886               -0.01481650                0.09549790                0.02696661                0.11654500               -0.00770461
               1.91498444                6.93218070               88.09879654                0.01000000               -0.11751506               -0.19481166                0.06203237                0.53734705                0.06165220                0.02277465
               2.91239631                6.93172840               88.10271240                0.01000000               -0.18795534               -0.31933775                0.15730514                0.86312955               -0.01192410                0.05106253
               3.91122534                6.93145282               88.10753842                0.01000000               -0.07370025               -0.48004522                0.15738173                1.12978677                0.01329864                0.04953220
               4.91092231                6.93432245               88.11226162                0.01000001               -0.04788646               -0.38653979                0.15918524                1.49703602                0.00399626               -0.03720182
               5.91026761                6.93940384               88.11704762                0.01000000               -0.08828528               -0.23165553                0.15730392                1.64637980                0.01607271               -0.05433303
               6.90915660                6.94435867               88.12201201                0.01000001               -0.11370851               -0.12889564                0.15682919                1.59478746                0.01863032               -0.02569186
               7.90799344                6.94683384               88.12700521                0.01000001               -0.11678001               -0.04444006                0.15337725                1.32618169                0.00195448                0.05242617
               8.90682100                6.94428531               88.13204890                0.01000000               -0.12959238                0.07255856                0.15441201                0.76662573               -0.00336362                0.14902806
               9.90540159                6.93488616               88.13706432                0.01000000               -0.14194149                0.21504013                0.17712221                0.34124600                0.00406285                0.22313350
              -0.07675059                7.94811654               88.08882296                1.00000000               -0.02067041               -0.03598771                0.06759118                0.00118978                0.00825420               -0.04193873
               0.92304271                7.94000346               88.09383096                1.00000000               -0.02554520               -0.01791547                0.09152842                0.01420639                0.01606597               -0.00382959
               1.92273851                7.93210568               88.09895506                0.01000002               -0.13345262               -0.02040348                0.11688428                0.19136368                0.07344015               -0.07286389
               2.92037365                7.92804688               88.10514191                0.01000000               -0.09382119               -0.38845117                0.13941358                0.57846652                0.10859621                0.02012704
               3.92086208                7.92559483               88.11057859                0.01000001                0.05732395               -0.76441226                0.17359472                1.03711008                0.00089051               -0.00323349
               4.92152013                7.92998620               88.11521986                0.01000001               -0.00436135               -0.35761095                0.15081920                1.45973708                0.00271786               -0.11158284
               5.92077486                7.93699652               88.12076984                0.01000001               -0.06716237               -0.20884869                0.16831961                1.46778691                0.09858253               -0.11514163
               6.92017689                7.94301939               88.12637539                0.01000001               -0.02969388               -0.13229669                0.16153652                1.33804192                0.08720827               -0.03836935
               7.92018098                7.94670933               88.13230258                0.01000001               -0.03011154               -0.04694037                0.15742151                1.16962997                0.06284771                0.04144532
               8.91957465                7.94622237               88.13824721                0.01000000               -0.14171078                0.23834632                0.15822883                0.81157362                0.03950860                0.20667274
               9.91734676                7.93830112               88.14402754                0.01000001               -0.22278923                0.52459777                0.16688154                0.48666951                0.04269048                0.29803881
              -0.06875103                8.94781129               88.09064530                0.99747680               -0.02073679               -0.02519666                0.06045964               -0.00359075                0.00221111               -0.03630038
               0.93104160                8.93977206               88.09581770                1.00000000               -0.02403377               -0.02354679                0.08453173               -0.00192251                0.00767564               -0.00648211
               1.93076829                8.93177263               88.10104997                0.99999996               -0.02825540               -0.03149678                0.10964241                0.00824625                0.03204720                0.01621193
               2.93047649                8.92395937               88.10662824                1.00000000               -0.03700334               -0.22441482                0.14357359                0.11624902                0.04660794                0.00102543
               3.93002823                8.91616458               88.11200080                0.01064776               -0.08805620               -0.49502686                0.17236101                1.01248691                0.09165145                0.03015661
               4.92871537                8.92717023               88.11846318                0.01000001               -0.17190367               -0.17182483                0.21867734                1.22161028                0.26551985               -0.29306134
               5.92659015                8.93522686               88.12456978                0.01000000               -0.12553678               -0.12545305                0.17145231                0.91039294                0.22101240               -0.12376745
               6.92620463                8.94171274               88.13080410                0.01000001                0.07964524               -0.13963311                0.16869117                0.78546100                0.16883213               -0.02438436
               7.92818306                8.94589504               88.13757555                0.01000096                0.26280253               -0.15858165                0.16505502                0.79078576                0.20581255                0.03390577
               8.93146068                8.94905224               88.14613071                0.99999999                0.13972105                0.11675593                0.15456177                0.75531695                0.10826030                0.13102945
               9.93097748                8.94537812               88.15237356                1.00000000               -0.04832049                0.32653584                0.17005914                0.49725442               -0.00743906                0.13938120
              -0.06074394                9.94761260               88.09264422                0.99632668               -0.02131342               -0.01986886                0.05540952               -0.00729898               -0.02065099               -0.02679966
               0.93904292                9.93953253               88.09781781                1.00000000               -0.02699689               -0.02395366                0.07900064               -0.00671068               -0.02282589               -0.00499888
               1.93871612                9.93147575               88.10292400                1.00000000               -0.03681197               -0.02968807                0.10035794               -0.00391415               -0.02856557                0.00699140
               2.93830668                9.92355859               88.10800821                0.99999998               -0.04075785               -0.04007854                0.11943491               -0.00605332               -0.02924649               -0.00594518
               3.93790096                9.91569430               88.11316802                0.66936802               -0.57083164               -0.04702805                0.13942684                0.93682926                0.24298224                0.01569780
               4.92689005                9.92654970               88.12371494                0.01000000               -0.67303774               -0.06205320                0.24419244                0.75712620                0.65825749               -0.28629065
               5.92444021                9.93448745               88.12894023                0.01000001               -0.08360589               -0.07394093                0.18538614                0.46885691                0.19538674               -0.07085299
               6.92521793                9.94022673               88.13539795                0.01000001                0.21084927               -0.14860114                0.18269235                0.35384191                0.20453249                0.00305719
               7.92865719                9.94353769               88.14271276                0.01000000                0.49899891               -0.23573442                0.17396470                0.46395157                0.26011454                0.05102041
               8.93519791                9.94855749               88.15154053                1.00000000                0.29914482               -0.04947518                0.17694990                0.43842993                0.13630892                0.00707091
               9.93464009                9.94483184               88.15778338                1.00000000               -0.05578216               -0.05462838                0.19246449               -0.00630402                0.00714153               -0.00715764
              -0.14420874               -0.05110359               89.06952946                0.87612173               -0.00591848               -0.00577831                0.07043635                0.00258792                0.00919283               -0.00031203
               0.85573208               -0.05559149               89.07273712                0.79257859                0.01065375               -0.03830445                0.07650286                0.01626360                0.02441221               -0.00231107
               1.85600434               -0.05916790               89.07622945                0.72403687                0.02461905               -0.02056612                0.08455302                0.01634893                0.05815167               -0.00103328
               2.85622446               -0.06132376               89.07987932                0.45009594                0.02818204               -0.01652674                0.07933978                0.09656707                0.06678738                0.00706768
               3.85656798               -0.06059783               89.08356255                0.35735185               -0.08553901                0.04297363                0.06516607                0.08650009                0.02121187                0.00378340
               4.85451368               -0.05677692               89.08666537                0.80238851               -0.13764491               -0.00304338                0.06295306                0.13171890               -0.03499805                0.02000583
               5.85381508               -0.05549765               89.08853101                1.00000000               -0.06025198               -0.02497961                0.09056713                0.02253450               -0.06185274               -0.00243079
               6.85330864               -0.05491233               89.09055922                0.99999972               -0.04686262               -0.02161395                0.07932920                0.00396094               -0.05391988                0.01064612
               7.85287783               -0.05470394               89.09263235                1.00000000               -0.03645951               -0.02036694                0.06855679                0.00112104               -0.05645816                0.01211322
               8.85257945               -0.05466350               89.09468292                0.99458735               -0.02479894               -0.01736565                0.05853390               -0.00246936               -0.04867928               -0.00123095
               9.85238185               -0.05461815               89.09695854                0.98643689               -0.01975995               -0.02008484                0.05277331               -0.00639660               -0.03802521               -0.03298345
              -0.13969496                0.94883863               89.07214470                0.81852143               -0.03781711                0.00814669                0.07743552                0.01261250               -0.00081799                0.01181196
               0.85992687                0.94402547               89.07530191                0.19459509               -0.06355396               -0.06002127                0.08685812                0.07516896                0.00770745                0.00636235
               1.85903396                0.94062644               89.07866153                0.01000000               -0.10108887               -0.03702155                0.10142461                0.16920558                0.01989893                0.04056914
               2.85790509                0.93851097               89.08219883                0.01000000               -0.19371997               -0.00162545                0.10695126                0.30095337                0.06505573                0.08208150
               3.85515956                0.93983191               89.08629857                0.01000000               -0.23121559               -0.00176532                0.10395008                0.45657176                0.16414869                0.05407026
               4.85328078                0.94319264               89.09061078                0.01000000               -0.10257158               -0.10985735                0.07355959                0.45257815                0.09838953               -0.00138774
               5.85310813                0.94425255               89.09283075                0.01000000               -0.01646947               -0.11505562                0.09522370                0.23701200               -0.00537040                0.03036290
               6.85295139                0.94487153               89.09521312                0.79710172               -0.01717552               -0.02067820                0.09405101                0.02682296                0.00388056                0.04162281
               7.85276462                0.94509239               89.09757155                1.00000000               -0.02197664               -0.02609715                0.08554477                0.00690128               -0.00396654                0.01703661
               8.85251186                0.94516285               89.09978954                1.00000000               -0.02460453               -0.01813306                0.07817713                0.00000168               -0.00877070                0.00687630
               9.85227253                0.94518101               89.10207162                1.00000000               -0.02393284               -0.02626655                0.07287964               -0.00584583               -0.00547286               -0.03909629
              -0.13433017                1.94905934               89.07499264                0.78676310               -0.02221865                0.01671356                0.08481224                0.00985996               -0.00319271                0.04487573
               0.86544765                1.94320809               89.07806096                0.01000000               -0.03834461               -0.08736858                0.10247407                0.15417097                0.03678285                0.01830127
               1.86490294                1.94009167               89.08193814                0.01000001               -0.12047964               -0.07990182                0.09763355                0.38813949                0.09666133                0.09192139
               2.86303805                1.93864373               89.08599370                0.01000001               -0.19425976               -0.03248630                0.12855098                0.57188136                0.13192418                0.13362407
               3.86101775                1.93936687               89.09029251                0.01000001               -0.19467270               -0.08135930                0.13227942                0.77062609                0.14565528                0.10281504
               4.85914460                1.94102593               89.09426871                0.01000000               -0.20706546               -0.18313493                0.12689480                0.77620720                0.12151109                0.03300789
               5.85687644                1.94220123               89.09769443                0.01000001               -0.30696714               -0.14584624                0.12098465                0.68593117                0.07137190                0.06717242
               6.85300526                1.94467410               89.10042413                0.01000001               -0.20759512               -0.10997731                0.09054527                0.49962120                0.03517593                0.07175501
               7.85272453                1.94477412               89.10256198                0.01000001               -0.02571948               -0.12095105                0.09893032                0.21523983                0.02398135                0.07179469
               8.85249087                1.94497384               89.10499868                1.00000000               -0.02479624               -0.01741221                0.09902710                0.02231708                0.02610869                0.04677329
               9.85222861                1.94485652               89.10706151                1.00000000               -0.02622578               -0.03758476                0.09083687               -0.00143323                0.00955424               -0.05014710
              -0.12779524                2.94917290               89.07804328                0.50508398               -0.02267908                0.01792411                0.08541043                0.07006896                0.00563223                0.07051639
               0.87197797                2.94227810               89.08102551                0.01000000               -0.04218261               -0.14996504                0.11273921                0.27475359                0.08098523                0.06120864
               1.87136110                2.93902840               89.08547072                0.01000001               -0.09552225               -0.12969205                0.12832317                0.54325442                0.13952466                0.12521273
               2.87006752                2.93786125               89.08990667                0.01000001               -0.15856080               -0.11064063                0.13957162                0.73555113                0.13650032                0.13181733
               3.86818989                2.93820472               89.09426786                0.01000000               -0.20484819               -0.13052543                0.14565165                0.86821092                0.13508321                0.10165906
               4.86597056                2.93952994               89.09845237                0.01000001               -0.25056530               -0.14095586                0.14386554                0.92294227                0.12294784                0.06535589
               5.86317858                2.94133563               89.10227048                0.01000000               -0.27998124               -0.10199749                0.14063739                0.89669714                0.10592647                0.04347002
               6.86037093                2.94267198               89.10568245                0.01000000               -0.32044518               -0.13958473                0.13835242                0.80766913                0.08900668                0.05737926
               7.85676968                2.94267337               89.10858732                0.01000008               -0.37475688               -0.08063709                0.13519526                0.57618538                0.07920236                0.12490037
               8.85287579                2.94481460               89.11076272                1.00000000               -0.21455900               -0.02734262                0.13560922                0.12967507                0.03740609                0.07778568
               9.85247850                2.94442931               89.11202136                1.00000000               -0.03972959               -0.04083221                0.11006440               -0.00601186               -0.00895107               -0.05084568
              -0.11913918                3.94941783               89.08138388                0.36772649                0.02263974               -0.07845898                0.07050011                0.08920410                0.00536721                0.05299032
               0.88108722                3.94020879               89.08462236                0.01000000               -0.03379713               -0.19388161                0.11368919                0.42476882                0.07137004                0.16651600
               1.88018488                3.93749783               89.08930342                0.01000001               -0.12572309               -0.15215843                0.13607468                0.74029370                0.11762363                0.14393181
               2.87857275                3.93643092               89.09380448                0.01000000               -0.17358034               -0.16380078                0.14741200                0.86268822                0.10878468                0.12853229
               3.87671327                3.93675636               89.09827969                0.01000000               -0.20501058               -0.16678206                0.15224476                0.99797233                0.10675273                0.09837115
               4.87447254                3.93820681               89.10260398                0.01000000               -0.25224628               -0.14875664                0.15406497                1.09234128                0.09892449                0.05734777
               5.87166834                3.94016128               89.10669848                0.01000006               -0.33258238               -0.11295242                0.15496967                1.11795674                0.08846027                0.02316690
               6.86782090                3.94188241               89.11051239                0.01000000               -0.47813612               -0.04739217                0.15662288                1.04471089                0.08978020                0.00216683
               7.86210562                3.94316138               89.11421202                0.01000001               -0.72462335                0.05669248                0.17620043                0.97611429                0.05328885               -0.00811354
               8.85332843                3.94442699               89.11621603                0.01201757               -0.46133350               -0.07454479                0.17310367                0.90691440                0.09046264                0.09626100
               9.85287895                3.94403988               89.11710302                1.00000000               -0.04494769               -0.51786707                0.13309544                0.77842276                0.02694663                0.26422884
              -0.10759308                4.94760372               89.08449629                0.77818312               -0.00135790               -0.12810854                0.06025101                0.11955347                0.02101778               -0.01486806
               0.89239334                4.93840046               89.08892946                0.01000000               -0.12310390               -0.09759559                0.07527407                0.43591461               -0.00722468                0.11738627
               1.88994484                4.93598523               89.09295404                0.01000000               -0.21652939               -0.17544332                0.12984305                0.75840169                0.02911439                0.12419289
               2.88806275                4.93458523               89.09758634                0.01000001               -0.17856997               -0.21640445                0.14751543                0.91823176                0.06948805                0.11954815
               3.88637344                4.93486908               89.10217315                0.01000000               -0.18251491               -0.21983667                0.15652374                1.09036179                0.06572622                0.08581989
               4.88441246                4.93655481               89.10661873                0.01000001               -0.22556605               -0.19987319                0.16215392                1.24668533                0.05524225                0.04109513
               5.88186212                4.93907658               89.11089115                0.01000001               -0.30736986               -0.13364415                0.16520990                1.35065208                0.03694293               -0.00104696
               6.87826506                4.94172414               89.11488948                0.01000001               -0.40573693               -0.04089594                0.17117043                1.40282330               -0.00895734               -0.02319967
               7.87374738                4.94380722               89.11842146                0.01000007               -0.40647396                0.00019236                0.15340368                1.39817311               -0.10569760               -0.02236877
               8.87013558                4.94332370               89.12230119                0.01000004               -0.24631067               -0.18176202                0.37241675                1.16869057               -0.45420648                0.28119763
               9.86882117                4.93407197               89.12840028                0.01000000               -0.13144089               -0.66326727                0.09400116                0.72741056               -0.38933867                0.82506039
              -0.09834160                5.94685566               89.08602305                0.99999999               -0.02344051               -0.06250324                0.08522306                0.02737521               -0.00111743               -0.05331002
               0.90142399                5.93825687               89.09080639                0.01000000               -0.12451298               -0.01466995                0.09225371                0.23343534                0.03105464               -0.01045547
               1.89916814                5.93398896               89.09617106                0.01000001               -0.16852273               -0.27668271                0.11476372                0.69604225                0.06483230                0.11870319
               2.89805354                5.93210283               89.10111916                0.01000000               -0.13086064               -0.24711997                0.14086238                0.89462341                0.03789069                0.09822208
               3.89655093                5.93235962               89.10583198                0.01000006               -0.14273929               -0.30669807                0.16135600                1.10765485                0.02348660                0.06991878
               4.89519875                5.93420935               89.11043101                0.01000001               -0.15194336               -0.29569326                0.17044283                1.34109196                0.01109847                0.01813216
               5.89351206                5.93748840               89.11489806                0.01000001               -0.20260177               -0.20376828                0.17385538                1.52197688               -0.00508510               -0.02125235
               6.89114672                5.94106449               89.11924242                0.01000000               -0.25212723               -0.10161379                0.17302717                1.58338559               -0.03393577               -0.01452633
               7.88846952                5.94316522               89.12358154                0.01000000               -0.23546143               -0.07748364                0.19097561                1.44066322               -0.09923669                0.09024255
               8.88643749                5.94079175               89.12802011                0.01000000               -0.12694412               -0.16672019                0.16587367                0.95439197               -0.11504276                0.24589471
               9.88593063                5.93077453               89.13263312                0.01000000               -0.05068572               -0.17107285                0.20455969                0.57291249               -0.08583949                0.20288952
              -0.08984801                6.94635365               89.08773953                0.99999999               -0.02232453               -0.04887394                0.07405621                0.00277232                0.00546262               -0.04669132
               0.90992874                6.93810706               89.09274362                0.51176016               -0.00661298               -0.01406737                0.09618373                0.03481917                0.08917903               -0.00225282
               1.91001973                6.93045158               89.09936043                0.01000001               -0.11720929               -0.18572255                0.05361022                0.50323836                0.06210143                0.02566404
               2.90758456                6.92964283               89.10414084                0.01000000               -0.17998529               -0.28431795                0.13972875                0.78758542                0.00100667                0.06689022
               3.90642002                6.92873512               89.10919649                0.01000000               -0.07395200               -0.45326404                0.16824783                1.00262525               -0.00028010                0.06499981
               4.90610552                6.93064095               89.11397106                0.01000001               -0.04867517               -0.44505536                0.18412455                1.36590908               -0.01426909               -0.03147533
               5.90544652                6.93500121               89.11876266                0.01000000               -0.09247846               -0.28863135                0.18467331                1.59406790               -0.00369155               -0.04530131
               6.90425595                6.93969186               89.12370437                0.01000000               -0.13065656               -0.14400330                0.18118928                1.56975922               -0.00790616               -0.01557343
               7.90283339                6.94225755               89.12863664                0.01000000               -0.13209203               -0.06713589                0.17719236                1.33136982               -0.02441002                0.06823022
               8.90161411                6.93998930               89.13364150                0.01000001               -0.12597711                0.02076749                0.18521864                0.79927630               -0.01141941                0.16680897
               9.90031385                6.93065051               89.13891972                0.01000000               -0.13002612                0.14014304                0.19146054                0.36649716                0.01899623                0.23974620
              -0.08179297                7.94587818               89.08948011                1.00000000               -0.01845725               -0.04023436                0.06457730                0.00059901                0.00889983               -0.04944471
               0.91802245                7.93797553               89.09474442                1.00000000               -0.02549442               -0.01836110                0.08959668                0.01287452                0.01688774               -0.00510571
               1.91769714                7.93027451               89.10013097                0.01000001               -0.12503738               -0.02281963                0.11372587                0.19981300                0.07230113               -0.04102603
               2.91552171                7.92641647               89.10652959                0.01000006               -0.10459087               -0.34942555                0.13661380                0.54130308                0.11838493                0.04205453
               3.91560532                7.92329434               89.11240754                0.01000001                0.03645693               -0.66805533                0.18465590                0.87198670               -0.01084712                0.01520624
               4.91625084                7.92530824               89.11697235                0.01000007                0.03685915               -0.69602201                0.20620400                1.42754692               -0.01061185               -0.07049735
               5.91634250                7.93171577               89.12268236                0.01000000               -0.04826385               -0.26967179                0.21330438                1.52821551                0.09193810               -0.10566349
               6.91528557                7.93818442               89.12813234                0.01000000               -0.07715159               -0.13909601                0.19021024                1.36532154                0.06362422               -0.02734900
               7.91479947                7.94182251               89.13397162                0.01000000               -0.06277585               -0.06368797                0.17972686                1.13561516                0.04274719                0.04607563
               8.91403005                7.94120710               89.13989675                0.01000003               -0.14306596                0.18072529                0.17296435                0.76037779                0.02730780                0.20059435
               9.91193815                7.93357740               89.14570894                0.01000001               -0.20918983                0.45658262                0.17387854                0.45047521                0.03917469                0.28224083
              -0.07403073                8.94554897               89.09122424                0.99376745               -0.01793687               -0.02623495                0.05628603               -0.00459230               -0.00008091               -0.04110595
               0.92578990                8.93773984               89.09664330                0.99999998               -0.01971137               -0.02351440                0.08032896               -0.00230852                0.00633871               -0.00900232
               1.92557504                8.92999519               89.10213500                1.00000000               -0.01995583               -0.02765556                0.10484665                0.02037246                0.03990224                0.01553801
               2.92539078                8.92265432               89.10808687                1.00000000               -0.03035269               -0.20925371                0.14399397                0.12999990                0.06803364                0.01476127
               3.92496799                8.91537401               89.11377432                0.02226172                0.04221202               -0.42046013                0.18590230                0.53922137                0.15697274                0.05924679
               4.92623502                8.91672051               89.12144188                0.01000001               -0.09166698               -0.53060127                0.39115189                1.32539897                0.27057471               -0.42794693
               5.92313465                8.92960778               89.12651951                0.01000001               -0.23896882               -0.11722892                0.21030262                1.23297557                0.18355453               -0.10585176
               6.92145565                8.93690994               89.13263178                0.01000001               -0.03058161               -0.12820190                0.20522717                0.82500069                0.15326475               -0.01428018
               7.92252302                8.94098379               89.13930565                0.01000000                0.18055628               -0.14786280                0.18235621                0.75295713                0.18332017                0.03465025
               8.92506677                8.94360381               89.14768195                0.99999999                0.10298691                0.09497236                0.15563630                0.68582690                0.09201779                0.11509483
               9.92458276                8.93978217               89.15407107                0.99999996               -0.04840189                0.28304627                0.16948209                0.44048171               -0.00742589                0.12905943
              -0.06626657                9.94535348               89.09316851                0.98520395               -0.02033659               -0.01954892                0.05072016               -0.00840794               -0.02591992               -0.03121257
               0.93353006                9.93750524               89.09858497                1.00000000               -0.02716619               -0.02346038                0.07474678               -0.00758768               -0.03003232               -0.00653429
               1.93319011                9.92972140               89.10391037                1.00000000               -0.03935942               -0.02737879                0.09569238               -0.00218562               -0.03902162                0.00616871
               2.93274288                9.92223140               89.10919827                1.00000000               -0.04332708               -0.04229241                0.11825003               -0.00660372               -0.04085669               -0.00790598
               3.93232356                9.91488514               89.11456545                0.99275707               -0.21089068               -0.04888730                0.14606314                0.35879844                0.23363567                0.02227757
               4.92852506                9.91469622               89.12536801                0.01000001               -0.57554924               -0.20242898                0.06419403                0.95330648                0.78922299               -0.46907107
               5.92081258                9.92937120               89.13090798                0.01000003               -0.40577463               -0.02365799                0.22032261                0.81400147                0.21015000               -0.05658550
               6.92040957                9.93562038               89.13728391                0.01000000                0.11760841               -0.12895564                0.20036688                0.37009477                0.19818665                0.01382610
               7.92316475                9.93886525               89.14448879                0.01000000                0.42693210               -0.21185385                0.18354753                0.43848109                0.25090775                0.05137048
               8.92894821                9.94310654               89.15331305                0.99999999                0.26131610               -0.04972626                0.17762174                0.40679728                0.12880624                0.00702524
               9.92839107                9.93923832               89.15970250                1.00000000               -0.05571417               -0.05438450                0.19127655               -0.00599094                0.00718468               -0.00709136
              -0.14734532               -0.05375870               90.07027774                0.84997160               -0.00607386               -0.00641895                0.07935110                0.00007243                0.00938777               -0.00167832
               0.85259394               -0.05821272               90.07350704                0.73771743                0.01633121               -0.03823395                0.07791669                0.01635183                0.02383292                0.00201694
               1.85298130               -0.06169689               90.07705512                0.77935749                0.03062797               -0.02423211                0.08187858                0.00815048                0.05549805                0.00134725
               2.85320650               -0.06373631               90.08066760                0.50776791                0.02281731               -0.01611664                0.07868177                0.07047005                0.05888905                0.00507412
               3.85343765               -0.06350911               90.08426322                0.36677084               -0.07491957                0.02629555                0.07771998                0.08495714                0.01857249                0.00229094
               4.85170811               -0.06059061               90.08728174                0.91506020               -0.11148839               -0.00905120                0.06169890                0.11108550               -0.02319428                0.01823543
               5.85120788               -0.05983419               90.08937177                0.99999999               -0.05012892               -0.02142741                0.07852883                0.01019877               -0.06132325               -0.00205334
               6.85070553               -0.05953008               90.09133575                1.00000000               -0.04791597               -0.01888980                0.07560679                0.00408638               -0.06621769                0.01049831
               7.85024956               -0.05961507               90.09330656                0.99999988               -0.03881341               -0.01810209                0.06626144                0.00214377               -0.06845201                0.01002633
               8.84992926               -0.05989302               90.09525350                0.99079122               -0.02625420               -0.01442518                0.05633086               -0.00297557               -0.05746896               -0.00343939
               9.84972448               -0.06018989               90.09747621                0.97021007               -0.02047834               -0.02031561                0.05092983               -0.00700302               -0.04414505               -0.03795416
              -0.14289058                0.94617711               90.07293161                0.75199804               -0.03828671                0.01358303                0.08031763                0.01411241                0.00316056                0.00855808
               0.85672655                0.94140494               90.07615955                0.38220420               -0.06424104               -0.06167327                0.08370116                0.07601616                0.01628696                0.01509822
               1.85582460                0.93806078               90.07964599                0.01000000               -0.09546236               -0.04203145                0.09277794                0.16677234                0.03588574                0.01144036
               2.85481731                0.93610253               90.08320479                0.01000000               -0.15551146               -0.01302917                0.09607090                0.28103629                0.07460872                0.08255405
               3.85271437                0.93675384               90.08724176                0.01000000               -0.19179019               -0.01175608                0.09483579                0.40339339                0.16056814                0.04908697
               4.85098150                0.93931888               90.09133722                0.01000001               -0.09673844               -0.10372952                0.07425535                0.40724509                0.09269606                0.01874007
               5.85077960                0.93995153               90.09371437                0.01000001               -0.01723367               -0.10353834                0.08533829                0.21232240                0.00572018                0.04361503
               6.85063683                0.94028102               90.09611277                0.87441045               -0.01635664               -0.01943254                0.08715841                0.02491500                0.00237948                0.03271009
               7.85045247                0.94020391               90.09839752                0.99999999               -0.02249579               -0.02474147                0.08049994                0.00681230               -0.00962172                0.01305876
               8.85018691                0.93996272               90.10055069                0.99999999               -0.02505796               -0.01276768                0.07390516                0.00042702               -0.01303840                0.00408075
               9.84995131                0.93960696               90.10278636                1.00000000               -0.02356036               -0.02878501                0.06908558               -0.00708406               -0.00781674               -0.04640340
              -0.13751874                1.94651296               90.07583146                0.82105347               -0.02506771                0.02345709                0.08358481                0.00435762               -0.00038888                0.04131905
               0.86223059                1.94055381               90.07906173                0.01000000               -0.04310507               -0.08682137                0.09474783                0.15646586                0.00792283                0.03507318
               1.86161916                1.93746248               90.08255619                0.01000001               -0.10482120               -0.07340722                0.05887843                0.39137669                0.08143839                0.09061247
               2.86013416                1.93600311               90.08729290                0.01000001               -0.16649991               -0.04636836                0.12504926                0.54471472                0.15106827                0.13084668
               3.85828916                1.93625577               90.09154714                0.01000001               -0.17394214               -0.08126471                0.12288855                0.69026562                0.12955672                0.10233893
               4.85665532                1.93733480               90.09551632                0.01000000               -0.18984909               -0.16952680                0.11410646                0.69981880                0.10957027                0.05695069
               5.85449218                1.93809504               90.09892243                0.01000003               -0.28519352               -0.13897446                0.13775216                0.62863585                0.06488385                0.07115085
               6.85095145                1.94008127               90.10129631                0.01000002               -0.18940401               -0.10880842                0.08679552                0.46323287                0.02636375                0.08145190
               7.85070410                1.93989010               90.10351146                0.01000000               -0.02083478               -0.10972535                0.09253688                0.22118519                0.03196487                0.07895804
               8.85053475                1.93985162               90.10595254                1.00000000               -0.02048856               -0.00030076                0.09191840                0.04034959                0.02708045                0.05262716
               9.85029433                1.93923441               90.10794540                0.99999999               -0.02404230               -0.04295170                0.08683813                0.00394767                0.00877233               -0.06015201
              -0.13088514                2.94664625               90.07889581                0.56355561               -0.02085094                0.01147440                0.08532026                0.05008678                0.00334933                0.06045529
               0.86890635                2.93966851               90.08210438                0.01000000               -0.04560120               -0.12557007                0.10374149                0.26343578                0.07741171                0.07262017
               1.86820284                2.93659264               90.08676897                0.01000001               -0.09940224               -0.11422888                0.12545463                0.52384644                0.13230386                0.15289720
               2.86691831                2.93517516               90.09126697                0.01000000               -0.15074232               -0.10831842                0.13445826                0.67246053                0.12184534                0.12313937
               3.86518799                2.93512855               90.09570851                0.01000001               -0.18898518               -0.12633833                0.13959647                0.78730223                0.11944334                0.09825120
               4.86313861                2.93592834               90.09987024                0.01000000               -0.22910726               -0.13496755                0.13959484                0.82853588                0.10720928                0.06847346
               5.86060585                2.93717204               90.10368867                0.01000004               -0.25160908               -0.10377671                0.13387299                0.81196060                0.09271944                0.04923259
               6.85810642                2.93810485               90.10707281                0.01000003               -0.27500152               -0.14286462                0.13729679                0.73985333                0.08400446                0.08145661
               7.85510582                2.93800940               90.10992020                0.01000001               -0.32284149               -0.10025326                0.12850924                0.54418505                0.08630153                0.15393069
               8.85164960                2.93995671               90.11210360                1.00000000               -0.19205670               -0.01326336                0.11758371                0.16487120                0.03986090                0.10372570
               9.85126468                2.93874792               90.11312055                1.00000000               -0.03849108               -0.04474930                0.10834753               -0.01028529               -0.01860661               -0.06491546
              -0.12256152                3.94674245               90.08212966                0.38342446                0.01144372               -0.07332356                0.08165225                0.07834498                0.00335054                0.04208374
               0.87755292                3.93804241               90.08566825                0.01000001               -0.04245154               -0.16029606                0.10481831                0.37657401                0.05994045                0.16105119
               1.87658945                3.93517790               90.09061963                0.01000001               -0.12527258               -0.13902007                0.12759771                0.66866678                0.10866799                0.13658092
               2.87504746                3.93383674               90.09526546                0.01000001               -0.16537096               -0.15292785                0.14221641                0.78266591                0.09631069                0.12391883
               3.87328203                3.93372900               90.09979967                0.01000001               -0.19324592               -0.15973477                0.14892495                0.90106526                0.09316143                0.09452408
               4.87118255                3.93463545               90.10415320                0.01000002               -0.23635727               -0.14521513                0.15201281                0.98390951                0.08902571                0.06106480
               5.86855488                3.93601950               90.10827086                0.01000000               -0.31356942               -0.11239877                0.15562750                1.00092495                0.08838158                0.03016320
               6.86491116                3.93722397               90.11213050                0.01000000               -0.44094677               -0.05100970                0.16326083                0.90680931                0.10916361                0.01660785
               7.85973595                3.93788504               90.11602464                0.01000000               -0.59087486                0.03814440                0.16207255                0.78127155                0.08989685                0.00306264
               8.85309366                3.93958635               90.11802670                0.21944945               -0.36148737                0.06527273                0.18873622                0.25078667                0.12521432                0.34221764
               9.85250620                3.93833943               90.11849315                1.00000000               -0.05874600               -0.03147337                0.15791647                0.07814863                0.04528282                0.08040859
              -0.11191817                4.94517978               90.08508137                0.89155872               -0.00794491               -0.10443320                0.05916875                0.09810648                0.01751708               -0.00560391
               0.88800238                4.93646259               90.08966743                0.01000001               -0.11499920               -0.08829448                0.07528464                0.38528233                0.00851696                0.10567433
               1.88578185                4.93381224               90.09419618                0.01000000               -0.19909290               -0.16041572                0.12295556                0.68190178                0.04251088                0.11572285
               2.88402053                4.93211660               90.09904411                0.01000001               -0.16856284               -0.19965769                0.14091103                0.82771222                0.06479825                0.11207371
               3.88241059                4.93193385               90.10374453                0.01000002               -0.17471172               -0.20791162                0.15431907                0.98218460                0.05831615                0.08809625
               4.88052629                4.93302404               90.10827445                0.01000000               -0.21873868               -0.19540738                0.16469641                1.12469899                0.04972209                0.04776272
               5.87803582                4.93492407               90.11259654                0.01000007               -0.30746060               -0.13432175                0.17357234                1.22380500                0.04297411                0.00611850
               6.87437708                4.93708466               90.11676895                0.01000000               -0.48334748               -0.03660460                0.18587430                1.26430070                0.00435734               -0.02054365
               7.86836887                4.93877229               90.12016273                0.01000001               -0.90830705                0.06513816                0.24193920                1.36315613                0.13382384               -0.00701320
               8.85621094                4.94126216               90.12818945                0.01000001               -0.65236769               -0.06187832                0.28845432                1.35972622               -0.31251724                0.20765066
               9.85532152                4.93811845               90.12683950                0.01000001               -0.08894235               -0.54003795               -0.03016895                1.09935536               -0.71819320                0.71505243
              -0.10316501                5.94465378               90.08682222                1.00000000               -0.02088814               -0.05198082                0.07522760                0.01318770               -0.00127659               -0.05515897
               0.89662610                5.93627652               90.09168362                0.01000001               -0.11307559               -0.01576525                0.08529101                0.21113568                0.03757868                0.00333587
               1.89457347                5.93196958               90.09728941                0.01000008               -0.15730062               -0.25390824                0.11281019                0.63072306                0.07418584                0.08052490
               2.89348009                5.92984359               90.10249527                0.01000005               -0.12775948               -0.22304152                0.13573281                0.80805228                0.04297571                0.09868561
               3.89201828                5.92957077               90.10746491                0.01000000               -0.13968898               -0.28782998                0.15974548                0.99313139                0.02546074                0.08195042
               4.89068631                5.93072730               90.11218896                0.01000007               -0.15239613               -0.29362163                0.17660666                1.21533837                0.00687776                0.03989899
               5.88897036                5.93333307               90.11673286                0.01000000               -0.21686823               -0.21052786                0.18658864                1.40946162               -0.01062198               -0.00687169
               6.88634895                5.93649188               90.12110616                0.01000000               -0.30743985               -0.09636825                0.19585766                1.53010765               -0.01730071               -0.01886070
               7.88282156                5.93918780               90.12578743                0.01000000               -0.27034635               -0.04819615                0.20629245                1.55280745               -0.07780205                0.08559393
               8.88094202                5.93834879               90.12967469                0.01000001               -0.10204199               -0.27586564                0.23066492                1.42247286               -0.04524104                0.02475658
               9.88078072                5.92753867               90.13517760                0.01000000               -0.01612960               -0.57565890                0.23339556                0.91416488                0.02230470                0.38519146
              -0.09489989                6.94414016               90.08846371                1.00000000               -0.01908106               -0.05054236                0.07144077                0.00390210                0.00883708               -0.05952395
               0.90490930                6.93614729               90.09369864                0.71032617               -0.01354300               -0.01374285                0.09146838                0.03487044                0.05800669                0.00092641
               1.90482925                6.92873407               90.09986874                0.01000000               -0.11644548               -0.17294952                0.05625615                0.46671859                0.06582237                0.02398494
               2.90258039                6.92765577               90.10550697                0.01000003               -0.17198703               -0.24508227                0.13227963                0.72139350                0.04502493                0.07355698
               3.90138951                6.92617725               90.11090337                0.01000000               -0.07548156               -0.41248203                0.16817914                0.88399657                0.01487814                0.09789381
               4.90107076                6.92715160               90.11594411                0.01000000               -0.04645205               -0.48109329                0.19354215                1.24415071               -0.01832937                0.02968654
               5.90046047                6.93071351               90.12074109                0.01000000               -0.09731266               -0.31033346                0.20083126                1.52444783               -0.02494935                0.00129623
               6.89912450                6.93515729               90.12563580                0.01000001               -0.14461771               -0.14734416                0.19250178                1.54530105               -0.02916149               -0.00456907
               7.89756811                6.93780837               90.13054906                0.01000001               -0.14074875               -0.11129862                0.19775919                1.35187492               -0.02309208                0.05700423
               8.89630953                6.93574485               90.13575327                0.01000001               -0.11715277               -0.10774959                0.22764856                0.81191917               -0.01191170                0.18047725
               9.89522506                6.92660528               90.14089353                0.01000000               -0.10844717                0.06279624                0.21715521                0.37230060               -0.00757610                0.25276148
              -0.08710122                7.94364294               90.09011450                1.00000000               -0.01691791               -0.04196949                0.06329623                0.00132944                0.00845408               -0.05920560
               0.91272960                7.93600167               90.09562289                0.99999999               -0.02497104               -0.01979072                0.08445095                0.01079876                0.01440654               -0.01064148
               1.91239936                7.92851059               90.10122957                0.01000000               -0.11324116               -0.02150450                0.10229779                0.21168924                0.07166076               -0.01057080
               2.91046478                7.92494194               90.10787419                0.01000001               -0.10984901               -0.30349251                0.12958614                0.52139930                0.13814719                0.05513192
               3.91020238                7.92132113               90.11427170                0.01000000                0.02841452               -0.54928284                0.16553498                0.72933284                0.03466000                0.07179836
               4.91103307                7.92110543               90.11934394                0.01000001                0.06256237               -0.84679851                0.25046098                1.30580967                0.00626068                0.18533082
               5.91145363                7.92712640               90.12503593                0.01000000               -0.04364800               -0.29146503                0.21453206                1.55252205                0.03252790               -0.00979922
               6.91016011                7.93354500               90.13017959                0.01000001               -0.10910620               -0.14408652                0.20539298                1.35973535                0.02413432                0.00597063
               7.90927151                7.93696183               90.13589712                0.01000001               -0.08883077               -0.08687491                0.19140207                1.09399862                0.03323971                0.06134215
               8.90838350                7.93619380               90.14170650                0.01000001               -0.13828102                0.10964923                0.19732899                0.70294274                0.03265955                0.16147327
               9.90650589                7.92879459               90.14750511                0.01000003               -0.18776108                0.36802345                0.21089896                0.40136324                0.03610857                0.28134137
              -0.07959076                8.94330077               90.09177102                0.98291486               -0.01516218               -0.02715619                0.05456197               -0.00463205               -0.00343577               -0.04810759
               0.92025762                8.93575147               90.09742428                1.00000000               -0.01432393               -0.02415836                0.07587096               -0.00129895                0.00230985               -0.01372617
               1.92012276                8.92830398               90.10314690                1.00000000               -0.00298877               -0.02311098                0.09734577                0.03787350                0.04397309                0.01302754
               2.92019784                8.92158592               90.10950812                1.00000000               -0.01550435               -0.18821309                0.12554699                0.16286501                0.09234116                0.02190778
               3.91981267                8.91519160               90.11571885                0.27098907                0.05919182               -0.33817718                0.20119857                0.24156343                0.33876807                0.09573122
               4.92138168                8.91021563               90.12628621                0.01000001               -0.03706657               -0.58947032                0.24035358                1.24957604                0.11836313                0.00377493
               5.91907134                8.92488421               90.12877584                0.01000003               -0.24489462               -0.12738046                0.24710224                1.36668028               -0.05044887                0.00704244
               6.91648379                8.93227556               90.13490864                0.01000000               -0.11360265               -0.11730007                0.24208431                0.83137016                0.12640598                0.00824757
               7.91679929                8.93607087               90.14122267                0.01000001                0.10259174               -0.13815077                0.20724487                0.70184854                0.13181115                0.05487068
               8.91853562                8.93793783               90.14924344                0.99999999                0.06257225                0.06210002                0.15701523                0.60358551                0.06766117                0.09154761
               9.91805073                8.93396574               90.15576320                0.99999924               -0.04848865                0.23162771                0.16863547                0.37774117               -0.00748502                0.11339724
              -0.07209525                9.94309981               90.09365862                0.97035362               -0.02043307               -0.02009615                0.04906306               -0.00858053               -0.03171019               -0.03720331
               0.92770042                9.93551850               90.09931275                1.00000000               -0.02911811               -0.02329729                0.07083261               -0.00829200               -0.03898017               -0.00882708
               1.92732238                9.92804837               90.10483784                0.99999999               -0.04329748               -0.02556093                0.09110598                0.00292142               -0.05087538                0.00535866
               2.92683447                9.92117768               90.11037321                1.00000000               -0.04592237               -0.04082415                0.11477763               -0.01087700               -0.05467654               -0.01627512
               3.92640394                9.91455758               90.11608928                1.00000000               -0.02512429               -0.06340144                0.16944661                0.06604380                0.10368338                0.03958755
               4.92633198                9.90931603               90.12499882                0.01000000               -0.48383152               -0.08996076                0.02511854                0.99609070                0.41409632               -0.30910260
               5.91672731                9.92457879               90.13334668                0.01000002               -0.53655630               -0.03054181                0.22842581                0.85974513                0.31233382                0.02052944
               6.91560085                9.93119900               90.13940529                0.01000000                0.04594487               -0.10765640                0.23077161                0.39270794                0.21305467                0.00260649
               7.91764620                9.93419881               90.14638371                0.01000002                0.34797381               -0.18720582                0.22316690                0.39653150                0.25277846                0.05243480
               8.92256033                9.93743580               90.15509296                1.00000000                0.21793419               -0.05020378                0.17791112                0.36388778                0.11672993                0.00727067
               9.92200489                9.93342714               90.16160891                1.00000000               -0.05554429               -0.05385998                0.19058681               -0.00544973                0.00693757               -0.00745228
              -0.15047959               -0.05644491               91.07111648                0.82524986               -0.00890536               -0.00990208                0.09039095               -0.00192923                0.00726930               -0.00404157
               0.84943136               -0.06085617               91.07429545                0.65721350                0.02166657               -0.03710888                0.08185275                0.01679867                0.02221984                0.00524670
               1.84995374               -0.06432270               91.07786702                0.79385417                0.03813922               -0.03231336                0.07769092                0.00324467                0.05467088                0.00217595
               2.85019414               -0.06629667               91.08145296                0.55343525                0.01857730               -0.01665743                0.08110163                0.05141594                0.05861875                0.00956386
               3.85032529               -0.06650909               91.08511695                0.36962711               -0.06264507                0.00388197                0.09237217                0.07999541                0.00758062                0.00783904
               4.84894124               -0.06452318               91.08789935                0.95625318               -0.08953403               -0.01439596                0.06461892                0.08634332               -0.02365483                0.01699568
               5.84853461               -0.06422393               91.09010159                1.00000000               -0.04458711               -0.02018834                0.07156134                0.00457581               -0.05933700                0.00011925
               6.84804950               -0.06425642               91.09207136                1.00000000               -0.04717836               -0.01784181                0.07092048                0.00356316               -0.07362374                0.00954928
               7.84759104               -0.06468534               91.09395758                1.00000000               -0.03945389               -0.01659954                0.06375452                0.00080980               -0.07891177                0.00747492
               8.84726042               -0.06532668               91.09580953                0.97962412               -0.02687570               -0.01279108                0.05584558               -0.00542596               -0.06521251               -0.00551026
               9.84705353               -0.06599752               91.09797714                0.95438405               -0.02068936               -0.02187264                0.04862992               -0.00795047               -0.04916013               -0.04092620
              -0.14608762                0.94345606               91.07375106                0.66310532               -0.03741415                0.01832218                0.08571690                0.01572205                0.00584704                0.00466492
               0.85353824                0.93877274               91.07697594                0.45548205               -0.06029714               -0.05895521                0.08059774                0.06740567                0.02224758                0.02093714
               1.85270643                0.93535417               91.08051708                0.01000001               -0.08683696               -0.04481809                0.08280026                0.15554135                0.04469167               -0.00391240
               2.85180150                0.93353676               91.08412025                0.01000001               -0.12339686               -0.02524220                0.09677898                0.25249476                0.08048586                0.09038335
               3.85023850                0.93352973               91.08819529                0.01000000               -0.15697043               -0.02720080                0.10955103                0.34281342                0.14450813                0.05845217
               4.84866209                0.93533286               91.09209589                0.01000000               -0.08957571               -0.09224462                0.08285742                0.35319703                0.08576883                0.02437385
               5.84844698                0.93557419               91.09453752                0.01000001               -0.01731272               -0.10630590                0.08428207                0.20459115                0.00937315                0.07231923
               6.84831583                0.93556516               91.09695628                0.89782197               -0.01563581               -0.02002418                0.08478930                0.02342434               -0.00043271                0.02624388
               7.84813427                0.93514867               91.09918155                1.00000000               -0.02267900               -0.02420349                0.07787121                0.00484039               -0.01649479                0.00883350
               8.84786225                0.93454541               91.10126764                0.99675167               -0.02446998               -0.00999241                0.06955350               -0.00134015               -0.01834609                0.00068087
               9.84764487                0.93378375               91.10345333                0.99713265               -0.02173860               -0.03415934                0.06385354               -0.00792493               -0.01109382               -0.04899044
              -0.14079849                1.94392153               91.07666434                0.81764393               -0.03201380                0.03138691                0.08042989                0.00143051                0.00192606                0.03818710
               0.85888137                1.93796472               91.07995592                0.01026342               -0.04504796               -0.08243787                0.08485953                0.14871074               -0.00754515                0.04557824
               1.85830055                1.93478094               91.08311571                0.01000001               -0.09064464               -0.06656287                0.05889665                0.36859600                0.09977305                0.10837240
               2.85706848                1.93319849               91.08849469                0.01000001               -0.14575471               -0.05926402                0.13107552                0.49646686                0.16428701                0.13707133
               3.85538545                1.93294689               91.09275028                0.01000000               -0.15538808               -0.08062543                0.11913712                0.60852158                0.10666257                0.10644013
               4.85396071                1.93363193               91.09655084                0.01000000               -0.14956640               -0.15351604                0.10288519                0.60877834                0.08670576                0.06739555
               5.85239413                1.93364996               91.10044948                0.01000000               -0.25086042               -0.13011694                0.18591066                0.55472915               -0.09320176                0.18920851
               6.84894351                1.93534310               91.10216004                0.01000000               -0.18432630               -0.10491208                0.09284656                0.43421443               -0.00140602                0.09330027
               7.84870760                1.93483059               91.10441271                0.01000000               -0.01724853               -0.09549365                0.09061514                0.22305153                0.03451737                0.08507906
               8.84859854                1.93447347               91.10683705                0.99999999               -0.01446238                0.01347729                0.08462405                0.05495533                0.02551037                0.04332178
               9.84841835                1.93331929               91.10879828                1.00000000               -0.01801835               -0.06002481                0.08501769                0.00596146                0.00847953               -0.06570768
              -0.13414540                2.94408380               91.07974968                0.61015256               -0.02015608                0.00762079                0.08759921                0.03647450                0.00646327                0.05640629
               0.86565304                2.93712398               91.08310034                0.01000000               -0.05050075               -0.10489815                0.10382943                0.24268957                0.07995448                0.08227729
               1.86484459                2.93402291               91.08797981                0.01000001               -0.10440806               -0.09893535                0.12893378                0.48439925                0.12614240                0.18442413
               2.86356488                2.93235148               91.09259583                0.01000000               -0.14345492               -0.10331645                0.13275344                0.60723818                0.11209109                0.11645267
               3.86197549                2.93191722               91.09705979                0.01000000               -0.17151465               -0.11680353                0.13192452                0.71071820                0.10497334                0.09597378
               4.86013459                2.93226254               91.10124426                0.01000000               -0.20725475               -0.13040163                0.13536828                0.74378956                0.07640442                0.09820177
               5.85783040                2.93297185               91.10494794                0.01000001               -0.21575520               -0.08966393                0.11952582                0.71344645                0.09683879                0.06545405
               6.85581948                2.93346692               91.10842839                0.01000000               -0.21827365               -0.14123338                0.12905193                0.67869078                0.08009629                0.10916509
               7.85346492                2.93323880               91.11115750                0.01000000               -0.26734094               -0.09252435                0.11520814                0.53238971                0.05886636                0.16501598
               8.85047267                2.93481496               91.11311440                1.00000000               -0.16962272                0.03560099                0.09643102                0.20550677                0.02691873                0.11487637
               9.85007247                2.93258325               91.11418831                0.99999999               -0.04001981               -0.06950945                0.11743853               -0.00150205               -0.01276813               -0.05750860
              -0.12614936                3.94407394               91.08301693                0.39981063               -0.00545892               -0.06423607                0.09482509                0.06580783                0.00634538                0.02542497
               0.87379606                3.93586676               91.08671873                0.01000000               -0.05448046               -0.13126955                0.11726399                0.32620538                0.06062708                0.14471989
               1.87276104                3.93280223               91.09185537                0.01000000               -0.12385620               -0.11964977                0.12252179                0.59195954                0.10562210                0.12685402
               2.87131893                3.93113216               91.09664881                0.01000000               -0.15361396               -0.13772944                0.13314565                0.70270372                0.09113179                0.11310042
               3.86968876                3.93061082               91.10125819                0.01000000               -0.17685302               -0.14757231                0.14080479                0.81128357                0.08472970                0.09440407
               4.86778187                3.93102389               91.10564424                0.01000001               -0.21150423               -0.13941160                0.14576427                0.88330814                0.08625951                0.07070598
               5.86545867                3.93185668               91.10981103                0.01000000               -0.27657463               -0.11174546                0.15153211                0.89456256                0.09526531                0.05312333
               6.86225038                3.93251843               91.11377760                0.01000003               -0.37256563               -0.05646586                0.15371313                0.80449814                0.12574594                0.04114498
               7.85800736                3.93298011               91.11745347                0.01000000               -0.44430824                0.03326861                0.12962388                0.71027507                0.14358924                0.10843620
               8.85336421                3.93518549               91.11999076                1.00000000               -0.25778194                0.05068863                0.13712660                0.28423925                0.12630689                0.23291285
               9.85285172                3.93192910               91.12026135                1.00000000               -0.05124936               -0.04473432                0.14907196                0.02859707                0.03188901                0.01422737
              -0.11641487                4.94279908               91.08567966                0.93330265               -0.01362686               -0.08519054                0.06379900                0.07292235                0.01520922               -0.00902239
               0.88344886                4.93449859               91.09043515                0.01000000               -0.10833772               -0.07871878                0.08324913                0.33715782                0.02063796                0.09311633
               1.88141838                4.93162991               91.09541315                0.01000000               -0.18192489               -0.14376661                0.11072523                0.60887314                0.05930358                0.10107674
               2.87981037                4.92959689               91.10040456                0.01000000               -0.15544766               -0.17592384                0.13188991                0.73772420                0.06836697                0.10025472
               3.87830943                4.92896577               91.10525953                0.01000001               -0.16277371               -0.18855129                0.14626376                0.87775614                0.06356545                0.08798218
               4.87655489                4.92947431               91.10991265                0.01000000               -0.20411583               -0.18431134                0.16106079                1.00288280                0.05575566                0.05927452
               5.87422711                4.93073694               91.11436260                0.01000000               -0.28844377               -0.13251306                0.17224207                1.08935216                0.05660671                0.02084305
               6.87078602                4.93233760               91.11860697                0.01000000               -0.46118747               -0.03490046                0.18131360                1.13314890                0.10048310               -0.01114995
               7.86500336                4.93390417               91.12326024                0.01000001               -0.67887798                0.07553304                0.22694817                1.19143556                0.22380163                0.00768463
               8.85720846                4.93582873               91.12807028                0.01000001               -0.39230812               -0.07312187               -0.01490777                1.02813450                0.30408335                0.04403267
               9.85715720                4.93168857               91.12779690                0.24286910               -0.00512604               -0.37523808                0.05859010                0.71194323                0.09087349                0.15549139
              -0.10808992                5.94237013               91.08752761                1.00000000               -0.02016977               -0.04640947                0.06994050                0.00591164               -0.00005716               -0.05499514
               0.89170838                5.93429238               91.09251221                0.01000001               -0.10349400               -0.01561369                0.08431254                0.18958712                0.04501988                0.00798206
               1.88984020                5.92992690               91.09842727                0.01000000               -0.14854115               -0.23194008                0.12385118                0.57153807                0.07553793                0.06001013
               2.88873756                5.92761368               91.10383381                0.01000000               -0.12368689               -0.19309155                0.12277172                0.72764764                0.05561567                0.08518152
               3.88736646                5.92683979               91.10902689                0.01000000               -0.13346013               -0.25397861                0.15082692                0.88475033                0.04007004                0.09236540
               4.88606835                5.92733767               91.11396314                0.01000000               -0.14920220               -0.26973064                0.17263054                1.08564719                0.01640665                0.05918774
               5.88438242                5.92920642               91.11862983                0.01000002               -0.21611117               -0.20064370                0.18655798                1.27557456                0.00038323                0.00695756
               6.88174613                5.93182042               91.12315958                0.01000000               -0.30187358               -0.09052796                0.19878814                1.41815413                0.00780222               -0.02953133
               7.87834494                5.93449077               91.12770739                0.01000001               -0.28018134               -0.03081100                0.17836126                1.45766759                0.03784861               -0.04821831
               8.87614250                5.93372306               91.13263341                0.01000001               -0.14870167               -0.21308471                0.28447413                1.18782593               -0.12702470                0.20453573
               9.87537091                5.92442434               91.13730104                0.03523093               -0.07715932               -0.41551657                0.04036816                0.70635881               -0.12724608                0.45118520
              -0.10014113                6.94187089               91.08916835                1.00000000               -0.01750260               -0.04916905                0.06960438                0.00400473                0.00952106               -0.06705836
               0.89968384                6.93418631               91.09457298                0.83407614               -0.01655139               -0.01276625                0.08453781                0.03036760                0.03575170               -0.00123524
               1.89952784                6.92699111               91.10048555                0.01000000               -0.11167092               -0.15709835                0.06800088                0.42938001                0.07357270                0.01393196
               2.89745042                6.92573506               91.10678643                0.01000000               -0.16236973               -0.20478598                0.12562035                0.67000252                0.08552903                0.06756226
               3.89628045                6.92388620               91.11256007                0.01000003               -0.07746055               -0.34624779                0.15355666                0.79034740                0.03962869                0.11077250
               4.89590121                6.92407969               91.11784191                0.01000000               -0.05123003               -0.43324550                0.18082018                1.11906749               -0.01280745                0.10415059
               5.89525585                6.92672407               91.12277929                0.01000000               -0.10182325               -0.28606853                0.19653968                1.41111709               -0.04092774                0.02573131
               6.89386475                6.93052705               91.12755441                0.01000002               -0.15008847               -0.13947137                0.19237429                1.48624059               -0.04607643               -0.02457734
               7.89225408                6.93328795               91.13259182                0.01000000               -0.14166711               -0.10575158                0.19495915                1.33162023               -0.01103732                0.02526887
               8.89103141                6.93156704               91.13819447                0.01000003               -0.11861332               -0.13883296                0.22701761                0.85115183                0.03208954                0.31523271
               9.88988181                6.92337823               91.14326283                0.01000002               -0.11495959               -0.00448951                0.28081729                0.46573003                0.07269305                0.27961558
              -0.09264067                7.94138675               91.09074603                1.00000000               -0.01638146               -0.04140973                0.06312846                0.00178889                0.00672434               -0.06883661
               0.90719551                7.93403706               91.09643344                0.99850652               -0.02401363               -0.02054267                0.07852857                0.00872740                0.00991729               -0.01811499
               1.90687906                7.92678493               91.10217692                0.01000000               -0.09764965               -0.01718216                0.09055466                0.21618611                0.07366428                0.00647568
               2.90524252                7.92351796               91.10912131                0.01000000               -0.10251419               -0.25707972                0.11763079                0.51725731                0.14306333                0.03727067
               3.90482877                7.91991484               91.11571824                0.01000003                0.01846570               -0.42075686                0.13276573                0.69198041                0.10140189                0.12176172
               4.90561183                7.91867276               91.12198157                0.01000001                0.06643174               -0.64692838                0.20327781                1.16071472                0.00957129                0.22976969
               5.90615741                7.92348505               91.12697300                0.01000001               -0.03523850               -0.26430971                0.17378066                1.43028175               -0.05551164                0.06692724
               6.90490706                7.92903099               91.13224019                0.01000000               -0.11100234               -0.13389249                0.19371064                1.32814362                0.00027347                0.02563042
               7.90393736                7.93237574               91.13779966                0.01000003               -0.09159052               -0.08466707                0.16697153                1.02428857               -0.01149667                0.02337019
               8.90307525                7.93094640               91.14384333                0.01000000               -0.14371229                0.02406318                0.26183616                0.64034366                0.05447776                0.29052618
               9.90106311                7.92433455               91.14992692                0.01000002               -0.20121402                0.22840343                0.32617333                0.41440067                0.15719806                0.27012126
              -0.08540596                8.94104270               91.09231548                0.97183819               -0.01338248               -0.02762713                0.05504325               -0.00514176               -0.00612647               -0.05579689
               0.91446021                8.93377546               91.09816071                0.99983309               -0.01116895               -0.02426530                0.07143237               -0.00097524               -0.00142331               -0.01947396
               1.91437066                8.92664747               91.10408191                0.99999999                0.01027257               -0.01691182                0.08910976                0.05255447                0.03439647                0.01151002
               2.91466566                8.92059346               91.11059781                1.00000000                0.02973003               -0.16711159                0.10388112                0.19894897                0.10419435                0.01331107
               3.91496526                8.91547106               91.11779829                1.00000000                0.04398177               -0.24894063                0.14719230                0.27452565                0.22631346                0.10529390
               4.91554530                8.91114113               91.12624895                0.01000001               -0.07310076               -0.37919003               -0.00817788                0.99522852                0.05425581                0.27260784
               5.91350324                8.92143787               91.13146155                0.01000001               -0.20041847               -0.14224738                0.26983822                1.16017232                0.19576609               -0.08411041
               6.91153693                8.92784920               91.13747347                0.01000001               -0.13393996               -0.11758896                0.22760405                0.84416477                0.27804915                0.08051516
               7.91082445                8.93159461               91.14345055                0.01000005                0.01712687               -0.13919365                0.26561213                0.63971955                0.26363594                0.08998268
               8.91187947                8.93204830               91.15082226                1.00000000                0.02845387                0.03032553                0.15781021                0.46670276                0.03037096                0.05479668
               9.91139352                8.92794630               91.15744378                0.99999999               -0.04859454                0.15316528                0.16803617                0.31154064               -0.00700957                0.06364827
              -0.07820903                9.94083421               91.09414977                0.95427801               -0.02197278               -0.02084871                0.04835248               -0.00855311               -0.03560458               -0.04266544
               0.92157124                9.93355175               91.10000162                0.99836069               -0.03394115               -0.02237093                0.06601747               -0.00827330               -0.04307988               -0.01192023
               1.92111214                9.92644669               91.10573249                0.99999997               -0.05866659               -0.02007732                0.08882311                0.00534731               -0.05880995                0.00496398
               2.92039791                9.92017573               91.11149382                0.99999999               -0.06702609               -0.04177323                0.12179471               -0.00230933               -0.04911378               -0.01079792
               3.91977162                9.91493602               91.11795439                1.00000000               -0.04241575               -0.05350363                0.15525712                0.02629744                0.02655361                0.02954440
               4.91954959                9.91108896               91.12587038                0.22155730               -0.35594190               -0.00521696                0.05454085                0.68563278                0.15003237                0.08079891
               5.91265278                9.92064010               91.13547650                0.01000002               -0.39579818               -0.07977764                0.05760617                0.69446676                0.40011000               -0.08987740
               6.91163363                9.92667921               91.14189934                0.01000000               -0.00600680               -0.11699809                0.31341199                0.45725799                0.26112463                0.10630260
               7.91253265                9.92959186               91.14895213                0.01000000                0.22119917               -0.20027428                0.35395187                0.41450482                0.25405531                0.18232869
               8.91605761                9.93155291               91.15687127                0.99999999                0.14826353               -0.04953913                0.17903333                0.30811384                0.07072566                0.00614672
               9.91549792                9.92739785               91.16351424                1.00000000               -0.05596938               -0.05484501                0.18841951               -0.00506596                0.00821393               -0.00559954
              -0.15355788               -0.05910869               92.07208555                0.81087349               -0.01543300               -0.01687644                0.10295882               -0.00255883                0.00380221               -0.00626919
               0.84628779               -0.06346876               92.07514409                0.56260923                0.02375469               -0.03680278                0.08980678                0.01952851                0.01639766                0.00560634
               1.84691721               -0.06695349               92.07860893                0.70808203                0.04205785               -0.03126545                0.06798615               -0.00485171                0.04637446                0.00474697
               2.84712894               -0.06887961               92.08228963                0.61658596                0.01128264               -0.02519244                0.09104394                0.03421177                0.06690822                0.01628171
               3.84714286               -0.06950900               92.08611066                0.42182257               -0.04392855               -0.02014391                0.09115919                0.06039421                0.00191207                0.00574086
               4.84625037               -0.06864378               92.08857412                0.93773898               -0.06468652               -0.02013557                0.07679880                0.05069425               -0.02776030                0.01289936
               5.84584913               -0.06870367               92.09080300                0.99999999               -0.04366575               -0.02463025                0.06851975                0.00249495               -0.05542464               -0.00009786
               6.84537706               -0.06910895               92.09275416                0.99999999               -0.04579930               -0.01738335                0.06587702                0.00021711               -0.07593111                0.01056389
               7.84493315               -0.06991350               92.09458165                0.99999999               -0.03858020               -0.01610505                0.06196644               -0.00271827               -0.08221315                0.00713883
               8.84460546               -0.07091945               92.09637041                0.94800536               -0.02635406               -0.01317237                0.05620834               -0.00809037               -0.06740096               -0.00706520
               9.84440607               -0.07196081               92.09844881                0.91158850               -0.01993879               -0.02331854                0.04399448               -0.00893764               -0.05124931               -0.03753554
              -0.14922340                0.94072255               92.07464595                0.56605787               -0.03711237                0.01933803                0.09481229                0.01879186                0.00501130               -0.00238122
               0.85040548                0.93616322               92.07777151                0.31104373               -0.06012392               -0.05951350                0.08231710                0.06759137                0.02591703                0.02431099
               1.84957412                0.93273385               92.08130199                0.01000002               -0.08283294               -0.04396553                0.07783520                0.14319473                0.05912083               -0.00319621
               2.84874882                0.93086846               92.08514037                0.01000000               -0.09726163               -0.04257196                0.12375045                0.21060445                0.10387943                0.09803199
               3.84762889                0.93028956               92.08943278                0.01000000               -0.11970841               -0.04854652                0.13564686                0.27549013                0.12402545                0.05575415
               4.84635465                0.93115487               92.09299437                0.01000001               -0.07611092               -0.09109438                0.09665587                0.26001687                0.06820719                0.01515625
               5.84610667                0.93105003               92.09540001                0.10304994               -0.01852518                0.00862315                0.09531208                0.03660791                0.00973694                0.13460846
               6.84598415                0.93071721               92.09780856                0.96883910               -0.01477283               -0.02079395                0.08535891                0.02292268               -0.00410849                0.02569436
               7.84581121                0.92992545               92.09995494                1.00000000               -0.02179707               -0.02353858                0.07515403                0.00079529               -0.02442218                0.00712111
               8.84554820                0.92894883               92.10194176                0.93251695               -0.02265821               -0.01046246                0.06718765               -0.00327489               -0.02464874               -0.00190708
               9.84535805                0.92780601               92.10406343                0.96847398               -0.01901544               -0.04269565                0.05898884               -0.00751240               -0.01504324               -0.04192309
              -0.14406338                1.94127807               92.07744006                0.72059266               -0.03083107                0.03496186                0.07243852               -0.00539959                0.00593190                0.02740114
               0.85562831                1.93534097               92.08075893                0.02279971               -0.04303829               -0.08059837                0.07965251                0.13794801               -0.00638234                0.06089513
               1.85507586                1.93216720               92.08373413                0.01000000               -0.09214918               -0.05961962                0.11854774                0.32920262                0.14402369                0.14769568
               2.85378533                1.93026895               92.08991441                0.01000000               -0.13547966               -0.07591896                0.16457281                0.43421011                0.22442322                0.13030243
               3.85236626                1.92952007               92.09392988                0.01000001               -0.15475439               -0.08747208                0.12115414                0.51377631                0.09272894                0.09187378
               4.85069024                1.92953434               92.09757403                0.01000000               -0.26736597               -0.11779481                0.11611690                0.61863150                0.12203930                0.07111842
               5.84701894                1.93146879               92.10264064                0.01000000               -0.18650743               -0.09652299                0.12766996                0.50963315               -0.09854698                0.19012875
               6.84696009                1.93047517               92.10315324                0.01000001               -0.01507513               -0.10233124                0.09855797                0.28307849               -0.07026558                0.09623614
               7.84671744                1.92961573               92.10532376                0.01000000               -0.01503469               -0.08282398                0.08669936                0.20910255                0.02515553                0.08469085
               8.84665940                1.92887130               92.10764503                1.00000000               -0.00879903                0.00758488                0.08054692                0.05892533                0.01891625                0.03631238
               9.84654146                1.92718528               92.10964575                0.99999999               -0.01179371               -0.08356659                0.08943331                0.00656974                0.00689848               -0.04810932
              -0.13745719                2.94142179               92.08064779                0.66985012               -0.02674959                0.00214463                0.09530466                0.02420416                0.01239784                0.05942482
               0.86227532                2.93455125               92.08418097                0.01000000               -0.06563066               -0.08694847                0.12576111                0.22091871                0.08216959                0.10835853
               1.86123020                2.93154146               92.08934764                0.01000000               -0.10975825               -0.09427770                0.16522291                0.42473937                0.13093306                0.22136411
               2.86008015                2.92935009               92.09392204                0.01000000               -0.12955842               -0.09894659                0.12120587                0.53403020                0.09749696                0.09398327
               3.85863903                2.92854012               92.09834700                0.01000001               -0.16507989               -0.10513587                0.12440465                0.65319071                0.10084024                0.09321773
               4.85677855                2.92879897               92.10257760                0.01000000               -0.16402647               -0.10765805                0.12418821                0.71220529                0.06822548                0.10521167
               5.85535850                2.92911957               92.10607918                0.01000000               -0.16398852               -0.19007417                0.12786441                0.75897501                0.08661857                0.03073231
               6.85349878                2.92867059               92.10965385                0.01000001               -0.18806832               -0.13034364                0.11000490                0.59864741                0.06607632                0.12962263
               7.85159713                2.92826897               92.11222437                0.01000000               -0.21708115               -0.08323525                0.11339538                0.50535342                0.03026251                0.14871262
               8.84915716                2.92910052               92.11403222                1.00000000               -0.13678213                0.02087152                0.08951688                0.20091105                0.01515646                0.07723780
               9.84886149                2.92613467               92.11546932                0.99999999               -0.02956680               -0.10849479                0.12963354                0.00648140                0.00351487               -0.04284475
              -0.12983822                3.94132097               92.08402616                0.47100302               -0.02347701               -0.04665654                0.09420225                0.04471539                0.00311675                0.01494482
               0.86992701                3.93360200               92.08801353                0.01000000               -0.06949881               -0.10099070                0.13715224                0.26835090                0.05088789                0.12694177
               1.86877181                3.93028164               92.09307007                0.01000001               -0.12298683               -0.11397916                0.12353620                0.52281620                0.08790408                0.10242085
               2.86746728                3.92829002               92.09792837                0.01000001               -0.13953076               -0.12066961                0.12223928                0.62985219                0.08869161                0.09842644
               3.86598119                3.92741735               92.10261576                0.01000000               -0.15561912               -0.13076545                0.12925962                0.73129686                0.08708104                0.08714192
               4.86435490                3.92738117               92.10706848                0.01000000               -0.18271832               -0.14541715                0.14011489                0.80048711                0.08692166                0.07536586
               5.86232683                3.92766731               92.11130150                0.01000001               -0.22856272               -0.12987197                0.14379800                0.78011322                0.08958925                0.07602266
               6.85978364                3.92786830               92.11520476                0.01000001               -0.29661248               -0.05954527                0.13604154                0.71370138                0.10656157                0.06596816
               7.85639458                3.92795102               92.11861712                0.01000001               -0.34858634                0.02015472                0.10206804                0.66024446                0.09901681                0.11642841
               8.85281191                3.92928873               92.12076923                0.90152825               -0.18958927                0.01998211                0.06829867                0.28315729                0.05267118                0.10182743
               9.85260279                3.92501538               92.12147459                0.99999998               -0.02091227               -0.09730378                0.13245616                0.01387722               -0.00576331               -0.03398771
              -0.12112495                4.94048866               92.08635735                0.92834866               -0.01933876               -0.06278851                0.07633379                0.03941992                0.01057880               -0.01604677
               0.87868166                4.93253143               92.09133241                0.01000001               -0.09382689               -0.06518357                0.09453024                0.27365231                0.01078643                0.07174624
               1.87699851                4.92926188               92.09641069                0.01000000               -0.15700852               -0.10921301                0.09671021                0.51980421                0.05693673                0.06963127
               2.87554149                4.92693669               92.10168191                0.01000000               -0.14123491               -0.15623344                0.12373840                0.65942205                0.09421498                0.07050022
               3.87417381                4.92592481               92.10666981                0.01000000               -0.15015771               -0.16499093                0.13766564                0.78315509                0.07540846                0.08404912
               4.87253833                4.92589063               92.11149567                0.01000001               -0.18500837               -0.16996866                0.15557309                0.88269612                0.06502225                0.06546162
               5.87047364                4.92652213               92.11604138                0.01000001               -0.25246181               -0.13058879                0.16534697                0.95219096                0.06593503                0.03288009
               6.86748910                4.92747968               92.12039522                0.01000001               -0.35460271               -0.04572415                0.16268736                0.98968651                0.10516253                0.00587831
               7.86338159                4.92867206               92.12470169                0.01000000               -0.48665769                0.04704166                0.11411559                0.98653058                0.18417208               -0.00199875
               8.85775594                4.92950017               92.12789129                0.55033355               -0.28479269                0.15132917               -0.00494351                0.57562517                0.18517047                0.13768044
               9.85768573                4.92418860               92.12801130                0.99999999               -0.00702097               -0.19594678                0.07727834                0.28373092                0.03040418               -0.02505358
              -0.11313537                5.94006520               92.08822103                1.00000000               -0.02377868               -0.04540435                0.06939465                0.00362434                0.00007763               -0.05200804
               0.88662684                5.93229833               92.09336987                0.01000003               -0.10509966               -0.01650392                0.09167629                0.18288267                0.06432494                0.00569916
               1.88476263                5.92809738               92.09976643                0.01000000               -0.13170255               -0.19994089                0.14898644                0.49778816                0.17760049               -0.08776388
               2.88399279                5.92516535               92.10495071                0.01000000               -0.10361369               -0.16085876                0.11095605                0.63475548                0.07477556                0.08132105
               3.88269036                5.92411753               92.11048144                0.01000001               -0.12906463               -0.21117273                0.14222240                0.78846241                0.06653778                0.08226946
               4.88141150                5.92398180               92.11564157                0.01000001               -0.14543852               -0.23372196                0.16444108                0.94975326                0.03156212                0.06222612
               5.87978159                5.92505553               92.12046402                0.01000000               -0.19920297               -0.18185808                0.17994962                1.12138904                0.01266110                0.01371871
               6.87742744                5.92695381               92.12508192                0.01000001               -0.28384415               -0.09472782                0.18140890                1.23688319                0.01223786               -0.04237535
               7.87410471                5.92889185               92.12935466                0.01000001               -0.43097778               -0.02252952                0.17047542                1.43436103                0.10987882               -0.07425633
               8.86880788                5.93231531               92.13536417                0.36586301               -0.26020797                0.06697072                0.09089005                1.03644805               -0.09234890                0.17050231
               9.86890055                5.92109645               92.13598496                1.00000000                0.00926656               -0.23084453                0.00389755                0.32093626               -0.30618611                0.40560188
              -0.10551874                6.93958057               92.08985580                0.99999999               -0.01741352               -0.04730610                0.06640679                0.00177022                0.00763094               -0.06958853
               0.89430713                6.93220136               92.09538940                0.87620617               -0.01970035               -0.01233484                0.08328145                0.02763559                0.02356765               -0.00727734
               1.89408726                6.92526306               92.10122876                0.01000003               -0.10453383               -0.15268164                0.08705012                0.39701531                0.08174420               -0.01594283
               2.89221645                6.92371952               92.10801938                0.01000001               -0.14803246               -0.16446884                0.11226300                0.61151182                0.11330902                0.04948165
               3.89112661                6.92170135               92.11397451                0.01000001               -0.08105272               -0.27996935                0.13525562                0.70882385                0.05957652                0.09193888
               4.89059540                6.92121619               92.11956052                0.01000001               -0.05985973               -0.33440101                0.15873790                0.98709246                0.00372594                0.09704471
               5.88992941                6.92288497               92.12467188                0.01000001               -0.11024775               -0.26364264                0.17881452                1.23360596               -0.04385355                0.01183558
               6.88839044                6.92558513               92.12948329                0.01000001               -0.16110518               -0.14076331                0.19766737                1.36239954               -0.05360067               -0.04807290
               7.88670731                6.92822147               92.13444824                0.01000001               -0.10550638               -0.11606745                0.18369508                1.42940913               -0.01147295               -0.04629873
               8.88628031                6.93083958               92.14029362                0.63479827               -0.00825555               -0.14693935                0.12315845                0.99440768                0.08002342                0.17300600
               9.88654220                6.91957171               92.14650987                0.99611553                0.02618834               -0.05401899                0.15249863                0.30231912                0.16496207                0.39555285
              -0.09834154                7.93911907               92.09137707                1.00000000               -0.01613958               -0.03997337                0.06249002               -0.00099515                0.00512992               -0.07442721
               0.90149706                7.93205164               92.09719346                1.00000000               -0.02368400               -0.02037692                0.07494795                0.00401320                0.00670937               -0.02550908
               1.90118478                7.92504375               92.10304067                0.01000000               -0.08561649               -0.01422203                0.08447480                0.20553363                0.07639780                0.01015181
               2.89978473                7.92187597               92.11022681                0.01000000               -0.09073061               -0.21199424                0.11627955                0.49116458                0.13231212                0.01208762
               3.89937017                7.91851814               92.11692702                0.01000001                0.00924995               -0.33200112                0.10652674                0.64895029                0.10848200                0.07751490
               4.89996973                7.91729378               92.12340950                0.01000000                0.03573018               -0.47186046                0.11396877                0.97363387               -0.00037515                0.16301623
               5.90008477                7.91978268               92.12851154                0.01000001               -0.03154044               -0.40932296                0.16362246                1.43387509               -0.07308388                0.11292078
               6.89933892                7.92413855               92.13405381                0.01000001               -0.13231664               -0.06792040                0.17828044                1.42265785               -0.05095487               -0.00434078
               7.89743844                7.92657051               92.13923655                0.01000001               -0.09965617               -0.07517086                0.18603878                1.36269448                0.01160690                0.02165576
               8.89734580                7.92937653               92.14694322                0.53772529                0.00221201               -0.24168781                0.18092593                0.61575280                0.11766522                0.16152233
               9.89748268                7.92001607               92.15402857                0.84982118                0.01368775                0.10398416                0.20501229               -0.02978068                0.19847060                0.09383881
              -0.09140376                8.93878110               92.09287188                0.94304621               -0.01335214               -0.02705766                0.05609660               -0.00720325               -0.00663808               -0.06018726
               0.90846272                8.93179382               92.09885293                0.94518814               -0.01113233               -0.02266731                0.06798498               -0.00217227               -0.00315739               -0.02576382
               1.90837359                8.92497862               92.10492910                1.00000000                0.00513160               -0.00986240                0.08276133                0.05775103                0.02859253                0.00844603
               2.90856535                8.91947963               92.11158575                1.00000000                0.01571057               -0.13531337                0.09509050                0.19641372                0.06936930                0.00294817
               3.90868780                8.91506133               92.11866269                0.90423653                0.01190934               -0.18409281                0.07590740                0.27438171                0.09987512                0.04042801
               4.90880354                8.91177898               92.12612266                0.50631149                0.15371721               -0.28023137                0.00243191                0.57389805                0.14826126                0.17079508
               5.91176215                8.91469851               92.13417260                0.33049900                0.06261189               -0.25156666                0.08365352                1.05317580                0.18144753               -0.08043491
               6.91005577                8.92422672               92.13946072                0.61004685               -0.15194651                0.01673800                0.11734605                1.00141697                0.16517773                0.11157096
               7.90872322                8.92671805               92.14653492                0.49575420               -0.24529826                0.01358538                0.18084311                0.60480223                0.15813133                0.14005175
               8.90514981                8.92600582               92.15239964                0.99999999               -0.20278557               -0.19579136                0.14352032                0.35001392               -0.03170351               -0.02622088
               9.90466751                8.92165139               92.15912393                1.00000000               -0.04823026                0.05790855                0.16122163                0.13458497               -0.00083083               -0.08629631
              -0.08451104                9.93857792               92.09462567                0.90394086               -0.02328614               -0.02031798                0.04435306               -0.00869093               -0.03285725               -0.04555102
               0.91525610                9.93159829               92.10063310                0.98022424               -0.04174894               -0.01955280                0.06088412               -0.00723272               -0.03690772               -0.01662966
               1.91465398                9.92484650               92.10661431                0.99999998               -0.08129024               -0.01321170                0.09243106                0.00660987               -0.04253381                0.00301969
               2.91363029                9.91916970               92.11280910                0.99999996               -0.10477649               -0.03099283                0.13241903                0.00598390               -0.03848380                0.00371181
               3.91255845                9.91483629               92.11919442                0.99999998               -0.09098902               -0.02250432                0.13460475                0.01303744               -0.03068035               -0.00569087
               4.91181051                9.91168915               92.12608963                0.99999999               -0.19289541               -0.00898261                0.07975957                0.29645095               -0.01493993                0.03056563
               5.90870054                9.91475135               92.13449880                1.00000000               -0.22314001                0.00528402                0.02688051                0.33304743                0.41421390               -0.29076367
               6.90734771                9.92447331               92.14567353                0.99267557               -0.04725842                0.02465871                0.17538442                0.33373740                0.39772142                0.21988748
               7.90775538                9.92684221               92.15346275                0.84930353                0.10325133                0.01241587                0.22874074               -0.04741440                0.06986160                0.23391122
               8.90941274                9.92546070               92.15867363                0.99999999                0.05639339               -0.05451240                0.17583614                0.14289452               -0.09628841                0.00246417
               9.90888324                9.92117424               92.16537730                1.00000000               -0.05294970               -0.04771529                0.17493670               -0.00707245                0.00374419               -0.00232401
              -0.15652063               -0.06169109               93.07317565                0.81029326               -0.02434436               -0.02549679                0.10952895               -0.00256554                0.00173509               -0.00641628
               0.84323593               -0.06599887               93.07609159                0.46620738                0.01281607               -0.03570018                0.09846156                0.02032141                0.00542424                0.00457277
               1.84373570               -0.06961388               93.07922675                0.52924425                0.03973253               -0.02210726                0.06946158               -0.00525351                0.03753133                0.01569298
               2.84403058               -0.07167252               93.08327384                0.70976261                0.01716731               -0.04548577                0.08077950                0.00054001                0.07271209                0.01672979
               3.84407904               -0.07303852               93.08694014                0.63233662               -0.01684424               -0.01358964                0.08272503                0.00693794                0.00775735                0.00690405
               4.84369370               -0.07310570               93.08943533                0.98910047               -0.04164839               -0.02582257                0.08791241                0.01746008               -0.02237020               -0.00241296
               5.84324607               -0.07341992               93.09147198                0.99999999               -0.04707365               -0.01513686                0.07024900                0.00573382               -0.05881583                0.01536128
               6.84275222               -0.07415394               93.09338890                0.99999999               -0.04577736               -0.01660915                0.06455868               -0.00081051               -0.07385855                0.01362869
               7.84233053               -0.07528915               93.09519691                1.00000000               -0.03534909               -0.01618695                0.05790430               -0.00462784               -0.07902807                0.00425260
               8.84204524               -0.07661069               93.09693370                0.80758503               -0.02293917               -0.01566585                0.05559152               -0.01286082               -0.06714448               -0.00431716
               9.84187174               -0.07797748               93.09885703                0.73371659               -0.01734983               -0.02741815                0.04711311               -0.01378558               -0.05615401               -0.02453866
              -0.15223850                0.93805394               93.07564730                0.47288362               -0.03609590                0.00794024                0.10340519                0.01917070                0.00265555               -0.01357833
               0.84740054                0.93364413               93.07862228                0.01000001               -0.06207554               -0.06139831                0.09232927                0.06674163                0.02833550                0.02633277
               1.84651998                0.93016505               93.08207379                0.20736117               -0.08261183               -0.03484600                0.07869487                0.12591698                0.10781864                0.04053309
               2.84574830                0.92787262               93.08659526                0.01000000               -0.08274874               -0.06523055                0.16464911                0.19955725                0.17550919                0.11042775
               3.84486501                0.92682559               93.09090823                0.01000000               -0.08446513               -0.05456713                0.12594789                0.21324119                0.13847048                0.00525705
               4.84405900                0.92663607               93.09402901                0.01000001               -0.05187382               -0.07116193                0.09326437                0.18000846                0.05210253                0.01543595
               5.84382753                0.92642871               93.09644376                0.78532056               -0.01901316                0.00966397                0.09293778                0.03208934                0.00587964                0.09881535
               6.84367873                0.92567997               93.09866346                0.99724167               -0.01574563               -0.02117648                0.08097631                0.01115612               -0.01624555                0.02422861
               7.84351262                0.92454898               93.10068463                1.00000000               -0.02089693               -0.02279308                0.07158638               -0.00294558               -0.03228146                0.00536032
               8.84326080                0.92323265               93.10261140                0.81965766               -0.02059736               -0.01400243                0.06773241               -0.00955050               -0.03062526                0.00083452
               9.84310067                0.92174834               93.10463311                0.92224614               -0.01601218               -0.05356583                0.06178808               -0.01427453               -0.02468944               -0.02793538
              -0.14731759                1.93846771               93.07811311                0.53538565               -0.02227578                0.03161283                0.07618130               -0.00571900                0.01766442                0.01590483
               0.85245965                1.93277316               93.08154897                0.21553956               -0.03284349               -0.08037926                0.08011364                0.12087700                0.03933203                0.10581828
               1.85202554                1.92968920               93.08548666                0.01000000               -0.05492323               -0.05253987                0.23175645                0.27259488                0.17209108                0.18380796
               2.85136119                1.92702287               93.09178614                0.01000001               -0.12225643               -0.08277201                0.14337579                0.34740497                0.16600731                0.11729867
               3.84958041                1.92587014               93.09517337                0.01000000               -0.18352245               -0.08649494                0.12111197                0.44599587                0.09113916                0.04152451
               4.84769074                1.92547106               93.09887317                0.01000002               -0.23682208               -0.08818790                0.11349737                0.53055710                0.16259227                0.06225206
               5.84484397                1.92677336               93.10300288                0.01000007               -0.14178298               -0.07515348                0.01275096                0.43052248                0.06313149                0.04714969
               6.84485508                1.92542253               93.10413120                0.01000000               -0.00625210               -0.08360560                0.08682955                0.23993601               -0.04866825                0.08237960
               7.84471893                1.92425499               93.10614670                0.01000000               -0.01001054               -0.08146478                0.08631609                0.19329587                0.01351804                0.09752823
               8.84465487                1.92310926               93.10844799                0.99999999               -0.00820282                0.00014264                0.08248395                0.04831325                0.01304283                0.03390312
               9.84455487                1.92095121               93.11058694                0.99999999               -0.00999967               -0.09254097                0.09472010               -0.00741085                0.00351780               -0.02212801
              -0.14096379                2.93868619               93.08165578                0.74451471               -0.04396261                0.00977896                0.08270416               -0.00217389                0.01454308                0.06254710
               0.85859659                2.93203654               93.08561556                0.01009179               -0.06570177               -0.07595065                0.16000448                0.18691565                0.10102742                0.17450691
               1.85772218                2.92911425               93.09128427                0.01000001               -0.10405629               -0.09507986                0.14705153                0.33796908                0.12367883                0.15445000
               2.85651546                2.92621718               93.09501995                0.01000001               -0.11927216               -0.08410242                0.12286808                0.40836576                0.07763888                0.06183288
               3.85533673                2.92509569               93.09954789                0.01000000               -0.13742708               -0.09196439                0.09721807                0.56824931                0.11429917                0.05500489
               4.85376692                2.92487232               93.10372803                0.01000000               -0.14251079               -0.09289574                0.10925275                0.64868941                0.08905490                0.07410040
               5.85248652                2.92492564               93.10750522                0.01000001               -0.13855454               -0.16792132                0.12944951                0.67028707                0.05038707                0.04550564
               6.85099583                2.92400785               93.11062849                0.01000000               -0.13973570               -0.11630499                0.10465583                0.51024733                0.02328631                0.12294127
               7.84969180                2.92291968               93.11342541                0.01000003               -0.17324937               -0.07118173                0.14248383                0.44659746               -0.10482526                0.22170185
               8.84753084                2.92323550               93.11490474                0.99977785               -0.12116188                0.01268548                0.08526375                0.19415725               -0.01605691                0.05246016
               9.84726857                2.91989752               93.11678098                0.99999999               -0.02622746               -0.11219224                0.12395929                0.00474580                0.00617413               -0.00083522
              -0.13406176                3.93866329               93.08490097                0.68568299               -0.01683293               -0.02014575                0.08712045               -0.00039588                0.00212054                0.01654942
               0.86576991                3.93125415               93.08946177                0.01000000               -0.06669778               -0.07296803                0.12437354                0.20694905                0.00333300                0.13910328
               1.86460428                3.92778760               93.09432610                0.01000000               -0.11114213               -0.13940385                0.11793862                0.42860555                0.04877058                0.06320154
               2.86354707                3.92534082               93.09909360                0.01000000               -0.11570102               -0.11163144                0.09526803                0.55816665                0.07051039                0.08986873
               3.86229026                3.92403085               93.10384339                0.01000000               -0.13562474               -0.11573067                0.11124917                0.64697157                0.09302084                0.07962345
               4.86083457                3.92361315               93.10844654                0.01000002               -0.15880437               -0.13309309                0.13483846                0.70504658                0.08381807                0.07722883
               5.85911417                3.92341493               93.11268699                0.01000001               -0.18842931               -0.13468105                0.14381852                0.68215110                0.06455573                0.07472285
               6.85706598                3.92309643               93.11649843                0.01000001               -0.23454746               -0.07149205                0.12584617                0.63247747                0.03181224                0.09278079
               7.85442323                3.92283135               93.11949483                0.01000000               -0.27529054                0.01034862                0.08829319                0.58827348                0.02058811                0.09615912
               8.85156017                3.92336297               93.12135673                0.76559350               -0.15487372                0.03759473                0.07076040                0.29737110                0.00811151                0.05511108
               9.85132575                3.91870736               93.12291048                0.99999999               -0.02344230               -0.16102023                0.15576242                0.04727371               -0.01050425                0.01680387
              -0.12615342                4.93828328               93.08720634                0.98908767               -0.02353226               -0.04158828                0.08636347                0.01317619               -0.00269792               -0.01403817
               0.87361125                4.93057718               93.09232575                0.01000001               -0.08194792               -0.04523823                0.08798407                0.18612317               -0.00266591                0.05214067
               1.87220762                4.92632617               93.09734735                0.01000001               -0.10878542               -0.22170279                0.10841955                0.53072270                0.05514569                0.12199871
               2.87143554                4.92398455               93.10287933                0.01000000               -0.11018900               -0.12190938                0.11265873                0.62129454                0.10233014                0.05059822
               3.87000384                4.92278107               93.10801284                0.01000002               -0.14758885               -0.14251836                0.13474415                0.69709993                0.08438459                0.07546370
               4.86848377                4.92221045               93.11302412                0.01000000               -0.16787891               -0.15479029                0.15587672                0.76666990                0.07000364                0.06274422
               5.86664626                4.92223202               93.11766954                0.01000002               -0.21274044               -0.12823240                0.16307153                0.82243326                0.04933700                0.04504232
               6.86422896                4.92257801               93.12186071                0.01000000               -0.27277651               -0.06057896                0.14674862                0.84644495                0.05067243                0.02162538
               7.86119073                4.92312666               93.12554255                0.01000001               -0.33133531                0.02138673                0.08857058                0.86232168                0.04259960                0.01864355
               8.85760225                4.92398740               93.12797141                0.68571836               -0.18327353                0.06839005                0.02228116                0.48277560                0.06169919                0.05694253
               9.85752526                4.91667712               93.12934247                0.99999999               -0.00769945               -0.23347780                0.16929880                0.10296498                0.00830948                0.06099189
              -0.11838604                5.93783152               93.08891550                0.99999999               -0.01644811               -0.04800998                0.07142723                0.00667173                0.01050323               -0.05655256
               0.88144948                5.93034938               93.09434574                0.69117711                0.00987033               -0.01800056                0.08989956                0.03465016                0.09610592                0.00193643
               1.88181136                5.92335355               93.10140700                0.01000001               -0.09657104               -0.14640773                0.07850447                0.44391849                0.14463492               -0.07119587
               2.87951806                5.92290263               93.10605293                0.01000001               -0.19025037               -0.12679795                0.12477432                0.66811254                0.06316138                0.04852397
               3.87800636                5.92118048               93.11187133                0.01000001               -0.14005178               -0.17508364                0.14302246                0.67708569                0.08708797                0.05323462
               4.87671702                5.92051734               93.11725196                0.01000002               -0.14055377               -0.19788974                0.16236445                0.82321949                0.04762908                0.04088085
               5.87519528                5.92085029               93.12222883                0.01000001               -0.18083856               -0.16593815                0.17576167                0.95886273                0.01444268                0.00773037
               6.87310025                5.92188485               93.12678776                0.01000000               -0.24675053               -0.09921541                0.17417216                1.05981091                0.00588420               -0.02617866
               7.87026027                5.92325909               93.13111690                0.01000005               -0.27175130               -0.03232866                0.14186893                1.14347384               -0.00641129               -0.05047906
               8.86766522                5.92473077               93.13445121                0.70761958               -0.11273296               -0.02696474               -0.05116551                0.68733558                0.07832002               -0.09821745
               9.86800561                5.91403781               93.13737899                1.00000000                0.03403888               -0.17157189                0.11084203                0.09186803                0.08225199                0.16301279
              -0.11105571                6.93732308               93.09049648                0.99999999               -0.01620571               -0.04747017                0.06547735                0.00016820                0.01245173               -0.07069589
               0.88878223                6.93021717               93.09623861                0.97081529               -0.02057750               -0.01430190                0.08052966                0.01457841                0.02555695               -0.01755666
               1.88853274                6.92339802               93.10222656                0.01000001               -0.09056870               -0.00329601                0.08578641                0.23968640                0.07568284               -0.05806704
               2.88697086                6.92144859               93.10903169                0.01000000               -0.13009489               -0.13546407                0.10773463                0.51828686                0.10764580                0.01891394
               3.88593084                6.91927940               93.11526519                0.01000001               -0.08462512               -0.22017679                0.12629635                0.63067160                0.08917048                0.01909757
               4.88527836                6.91825266               93.12101666                0.01000000               -0.07374176               -0.25731990                0.14658824                0.84683228                0.02216717                0.03631930
               5.88445601                6.91891326               93.12635558                0.01000000               -0.11309899               -0.23037703                0.17329873                1.05985895               -0.02178131               -0.00523122
               6.88301638                6.92059370               93.13150776                0.01000001               -0.16208626               -0.14590528                0.18949607                1.18147668               -0.03910424               -0.04932867
               7.88121428                6.92248008               93.13626572                0.01000001               -0.12230656               -0.12684538                0.19439888                1.19371049               -0.05408154               -0.08032855
               8.88057024                6.92344810               93.14065764                0.98900605               -0.02328653               -0.13299730                0.04253227                0.68684542               -0.04791147               -0.08358109
               9.88074855                6.91324568               93.14631280                0.99999999                0.01783058               -0.02202672               -0.01753826                0.12256841                0.01200252                0.15995478
              -0.10417086                7.93688212               93.09199584                1.00000000               -0.01630363               -0.03663623                0.05865109               -0.00413213                0.00451868               -0.07345631
               0.89566611                7.93006335               93.09793240                0.99926819               -0.02277362               -0.01983103                0.07171169               -0.00184375                0.00627335               -0.03443811
               1.89537367                7.92328763               93.10386642                0.01000001               -0.08318472               -0.00776342                0.08264026                0.19034770                0.09010844               -0.00157874
               2.89400241                7.92019335               93.11144690                0.01000003               -0.07789736               -0.16892304                0.14530624                0.44189601                0.20792241               -0.12107109
               3.89381572                7.91677695               93.11784877                0.01000000                0.00086986               -0.26335925                0.09149623                0.58363015                0.08879506                0.00356366
               4.89401981                7.91537094               93.12426094                0.01000001                0.01178473               -0.31878855                0.08962155                0.85940303                0.01795684                0.02605146
               5.89405142                7.91624275               93.13024545                0.01000001               -0.04284247               -0.25356719                0.14022174                1.14669612               -0.04711332               -0.02476639
               6.89316296                7.91896674               93.13580580                0.01000000               -0.13856681               -0.10664059                0.19254619                1.19706137               -0.07419511               -0.06947478
               7.89128008                7.92072218               93.14152044                0.01000000               -0.12632125               -0.11553223                0.21666715                1.14689782               -0.03586696               -0.05181274
               8.89063653                7.92207083               93.14746185                0.99999998               -0.02091260               -0.18273132                0.05222901                0.54806175               -0.01297886               -0.09263402
               9.89086183                7.91359727               93.15402716                0.99999999                0.02252943                0.08129832               -0.00757694                0.01163380                0.01732299                0.06422403
              -0.09750080                8.93659035               93.09343741                0.79585429               -0.01593450               -0.02332501                0.05575015               -0.01248964               -0.00407512               -0.06207642
               0.90233985                8.92982055               93.09952041                0.83866121               -0.01447529               -0.02022683                0.06779634               -0.00846307               -0.00016508               -0.03261605
               1.90220969                8.92324275               93.10573714                0.99999999               -0.00101965               -0.00754746                0.08226145                0.04806898                0.02820251                0.00364259
               2.90231946                8.91807013               93.11249962                0.99999999                0.01080812               -0.11950466                0.08820408                0.19075832                0.04820723               -0.02595469
               3.90242585                8.91401222               93.11931644                0.78889542                0.03405812               -0.15091007                0.07538639                0.29342574                0.05638524               -0.00200269
               4.90300062                8.91187689               93.12629759                0.70355953                0.06841387               -0.18023152                0.02692702                0.48781523                0.06132762                0.05665432
               5.90379413                8.91384192               93.13313462                0.71970538               -0.02612249               -0.10351633               -0.05719669                0.69428759               -0.09670574                0.07088484
               6.90247817                8.91846089               93.13982039                0.98971857               -0.13729878               -0.01576973                0.04329592                0.68943357               -0.06613513               -0.06895959
               7.90104815                8.92016944               93.14706741                0.99999997               -0.19108911               -0.01538821                0.05397903                0.54911438               -0.08795626               -0.02237977
               8.89865639                8.91979348               93.15369267                0.99999999               -0.15599090               -0.15083048                0.11140990                0.31414831               -0.00325104               -0.01321547
               9.89792834                8.91487165               93.16066821                0.99999999               -0.07280519                0.06236732                0.12049608                0.07299800                0.00652685               -0.03633859
              -0.09088104                9.93641562               93.09503683                0.73159614               -0.02745125               -0.01747346                0.04838957               -0.01370448               -0.02002146               -0.05295920
               0.90884445                9.92965881               93.10121930                0.93108573               -0.05167474               -0.01617393                0.06348019               -0.01348727               -0.02302344               -0.02658008
               1.90808547                9.92313668               93.10758111                0.99999998               -0.08981682               -0.01060723                0.09762495               -0.00519997               -0.01670279                0.00091911
               2.90704811                9.91780326               93.11414220                0.99999999               -0.11039931               -0.02668748                0.12673241                0.00396893                0.00104970                0.00519542
               3.90587748                9.91375875               93.12064648                0.99999999               -0.15508488               -0.02534689                0.15773022                0.04331559                0.01634369               -0.01102628
               4.90394641                9.91176631               93.12746557                0.99999999               -0.22621574               -0.01105763                0.16956340                0.11526307                0.06603695                0.01411144
               5.90135317                9.91417242               93.13601411                1.00000000               -0.16611535                0.03305039                0.11412544                0.10015536                0.17665713                0.09711294
               6.90062411                9.91865135               93.14540703                0.99999999               -0.02116917                0.01904558               -0.02131919                0.12669358                0.16004934                0.00704796
               7.90092978                9.92041442               93.15352695                0.99999999                0.07965921                0.02449770               -0.00486514                0.00830626                0.05791890                0.02247997
               8.90221729                9.91905422               93.16038800                0.99999999                0.06178343               -0.07392616                0.12990898                0.07760055               -0.05075653                0.00606021
               9.90216545                9.91484462               93.16701297                1.00000000               -0.00518409               -0.00270288                0.16516119                0.00275167               -0.03245624               -0.02428816
              -0.15935504               -0.06418031               94.07427613                0.81343866               -0.02997774               -0.03061654                0.10382894               -0.00235783                0.00192401               -0.00467012
               0.84034518               -0.06843868               94.07711333                0.40149571               -0.00796839               -0.03288270                0.10393635                0.01238165                0.00154114                0.00776101
               1.84048559               -0.07233371               94.07999817                0.34083775                0.02623094               -0.03816886                0.09999193               -0.01026582                0.01415395                0.00812451
               2.84086980               -0.07518786               94.08390522                0.66053756                0.03254654               -0.02474298                0.07382453                0.00680695                0.09421241                0.06407735
               3.84113652               -0.07730710               94.08776516                0.95241967                0.02006625               -0.05314283                0.07730444                0.04822576                0.04074786                0.00628770
               4.84127112               -0.07787940               94.09033237                1.00000000               -0.02086356               -0.00948640                0.07790795                0.00735950               -0.04143526               -0.01016402
               5.84071925               -0.07834000               94.09220798                1.00000000               -0.05480816               -0.01645600                0.07417790                0.01175048               -0.07679696                0.01037706
               6.84017496               -0.07938551               94.09404533                1.00000000               -0.04557322               -0.01550059                0.06348445                0.00114641               -0.08301744                0.01010762
               7.83980778               -0.08080389               94.09573973                0.90411557               -0.02862549               -0.01132519                0.05135756               -0.00779701               -0.07928012                0.00936438
               8.83960245               -0.08236119               94.09748224                0.51663556               -0.01857247               -0.01875835                0.05952088               -0.02151675               -0.06621908               -0.00282468
               9.83943633               -0.08400375               94.09939107                0.80425067               -0.01661156               -0.04788668                0.14038973               -0.02580715               -0.08562226               -0.02732209
              -0.15512024                0.93551353               94.07671406                0.41039525               -0.03340581               -0.01159995                0.10737761                0.01055751                0.00545931               -0.01644436
               0.84454570                0.93123249               94.07961809                0.01000003               -0.05611209               -0.05486316                0.10566757                0.02336431                0.02445590                0.02092570
               1.84375752                0.92728460               94.08287589                0.11331114               -0.05605686               -0.05167069                0.10286782                0.05635716                0.18177649                0.12402284
               2.84342456                0.92456471               94.08843336                0.97365288               -0.03964846               -0.03109571                0.12305550                0.07129225                0.18773139                0.06471645
               3.84296455                0.92216147               94.09195174                0.06508391               -0.07816982               -0.04910003                0.08438103                0.17132599                0.08730573               -0.00072035
               4.84186117                0.92202574               94.09485966                0.01588260               -0.06873690               -0.05201231                0.08185985                0.20877125                0.04652590                0.02239902
               5.84158981                0.92149544               94.09725877                0.82764836               -0.02213996               -0.01548387                0.08286788                0.03690239                0.00269530                0.04059649
               6.84141837                0.92045948               94.09942809                1.00000000               -0.01860787               -0.02283763                0.07288014                0.01276823               -0.02431708                0.01760453
               7.84121765                0.91908286               94.10138667                0.99375688               -0.02155753               -0.01853035                0.06313732               -0.00725107               -0.04096995                0.01286206
               8.84098722                0.91745123               94.10329641                0.61972276               -0.01984105               -0.01913960                0.07006103               -0.03439595               -0.03696168                0.00122452
               9.84082083                0.91551738               94.10529919                0.98980758               -0.01663855               -0.07007014                0.11540351               -0.04850675               -0.04162300               -0.03207934
              -0.15058181                1.93558770               94.07896368                0.34341988               -0.03767927                0.01856666                0.10771301               -0.01064747                0.00988889               -0.00968685
               0.84904140                1.93046405               94.08236120                0.11941796               -0.05688416               -0.05519538                0.10291281                0.05834233                0.12575551                0.17159841
               1.84828051                1.92663287               94.08836926                0.73922368               -0.08113121               -0.07467851                0.18613895                0.21340252                0.13192733                0.13965397
               2.84741877                1.92419023               94.09278192                0.21048164               -0.05892463               -0.06427134                0.06543554                0.25113862                0.01955798                0.04145027
               3.84710201                1.92171090               94.09635212                0.01000000               -0.06530985               -0.05956375                0.07789542                0.30712578                0.03596269                0.01431448
               4.84611258                1.92108036               94.09984397                0.01000000               -0.20392318               -0.06590618                0.11123011                0.41902870                0.02506337                0.11521806
               5.84302355                1.92135032               94.10289566                0.01000001               -0.16348367               -0.05749389                0.02876103                0.34766778                0.05860823                0.05263125
               6.84284290                1.92015774               94.10488983                0.01000000               -0.01762670               -0.08486522                0.08902099                0.20505691                0.00194677                0.09916869
               7.84267102                1.91882551               94.10705008                0.42598638               -0.01814445                0.01360070                0.10075963                0.05525050                0.00828163                0.14216698
               8.84248001                1.91725602               94.10929470                1.00000000               -0.01685572               -0.01051249                0.08705525                0.01312839                0.00042766                0.02603730
               9.84233390                1.91459484               94.11154015                0.99999999               -0.01461117               -0.08614717                0.08234457               -0.04553553               -0.00317843               -0.00340924
              -0.14508590                2.93588486               94.08230188                0.67466141               -0.02467267                0.02568482                0.07587999                0.00759196                0.06371665                0.08112519
               0.85466737                2.93012858               94.08738106                0.98307171               -0.03073536               -0.03950865                0.11990432                0.07166597                0.06354724                0.18217615
               1.85429939                2.92579103               94.09228867                0.20552587               -0.06490291               -0.05751414                0.06544970                0.24927985                0.03733243                0.02669963
               2.85336931                2.92327929               94.09637940                0.01000000               -0.10412272               -0.09811091                0.10226027                0.35602937                0.01795664                0.01109251
               3.85221694                2.92097019               94.10029137                0.01000000               -0.13834993               -0.05830161                0.06838297                0.44074913                0.05208404                0.02323412
               4.85060231                2.92070762               94.10476266                0.01000000               -0.13755757               -0.07253475                0.08604542                0.52252208                0.09512423                0.08407924
               5.84946578                2.92034556               94.10866817                0.01000001               -0.12789963               -0.11764354                0.12969674                0.52985299                0.01817410                0.07790237
               6.84804432                2.91876218               94.11174697                0.01000001               -0.21207032               -0.08330265                0.13413490                0.48892304               -0.09287940                0.22021491
               7.84522438                2.91935488               94.11507404                0.01000001               -0.12819365               -0.05342236                0.09131083                0.38779125               -0.15193490                0.19368721
               8.84548045                2.91724098               94.11573750                0.99926686                0.00040502                0.00341291                0.08517855                0.07590222               -0.08300868                0.03393456
               9.84523248                2.91379444               94.11794851                1.00000000               -0.02479700               -0.09024355                0.10298566                0.00291131                0.00465119                0.04361339
              -0.13891741                3.93610139               94.08576857                0.98636350               -0.05140417                0.01542522                0.08191462                0.04065671                0.00457748                0.04398375
               0.86056855                3.92967388               94.09050100                0.06886929               -0.04835982               -0.07191495                0.08456590                0.16005771               -0.00185910                0.08779714
               1.86011540                3.92548259               94.09542884                0.01000000               -0.06041784               -0.05850393                0.07369150                0.29012940                0.01934397                0.03027477
               2.85936020                3.92222801               94.09983373                0.01000000               -0.08133646               -0.11449838                0.06675706                0.43077832                0.03896972                0.03680785
               3.85848867                3.92054486               94.10484075                0.01000000               -0.10862733               -0.07820301                0.05394473                0.54507161                0.08028264                0.05804263
               4.85718765                3.91962966               94.10976525                0.01000001               -0.14613114               -0.11837631                0.14856403                0.60659919                0.07892202                0.08652927
               5.85556605                3.91899745               94.11417787                0.01000000               -0.17877994               -0.12322107                0.15213095                0.60100128                0.01774644                0.09575679
               6.85361205                3.91849169               94.11772169                0.01000003               -0.18090022               -0.05696549                0.13324300                0.56724086               -0.02840468                0.11413040
               7.85194804                3.91775706               94.12038299                0.01000000               -0.20267759               -0.09660063                0.11559690                0.58655512               -0.05839682                0.03805615
               8.84955850                3.91732428               94.12218444                0.88637428               -0.13314115                0.01517793                0.08534185                0.23712380               -0.01658783                0.01528919
               9.84928522                3.91278997               94.12458983                1.00000000               -0.02732802               -0.14272561                0.15166422                0.04043527                0.00955004                0.08089080
              -0.13141774                4.93619337               94.08808462                1.00000000               -0.00949308               -0.02286957                0.07720515                0.00627223               -0.01028359               -0.03576671
               0.86848733                4.92869028               94.09309210                0.01000001               -0.05172059               -0.06248374                0.07774661                0.19582449                0.02185280                0.04485165
               1.86754785                4.92462095               94.09857908                0.01000000               -0.07823611               -0.18441643                0.12291109                0.40658888                0.12316979                0.01158181
               2.86692260                4.92098932               94.10393509                0.01000000               -0.09155647               -0.11222712                0.09569378                0.51083345                0.09777463                0.07897156
               3.86571672                4.91940613               94.10936469                0.01000008               -0.13204479               -0.13074939                0.15003908                0.60475972                0.09501558                0.06436102
               4.86428171                4.91834009               94.11461320                0.01000000               -0.15464650               -0.14113961                0.16355868                0.66469718                0.06517503                0.05711421
               5.86262379                4.91788114               94.11930281                0.01000008               -0.18260896               -0.12366751                0.17284886                0.71256924                0.02513173                0.05083495
               6.86062953                4.91762287               94.12333019                0.01000001               -0.22504511               -0.08542438                0.16177790                0.72933610               -0.02148005                0.03875395
               7.85812288                4.91742286               94.12647310                0.01000001               -0.27197593               -0.02989777                0.11592205                0.71433274               -0.08781968                0.00984894
               8.85519001                4.91754454               94.12833692                0.42893366               -0.15065426                0.01702289                0.07415010                0.40353780               -0.05475015               -0.04838337
               9.85510980                4.91093992               94.13139728                1.00000000               -0.00802121               -0.27018001                0.17424415                0.10977907               -0.00981941                0.16256747
              -0.12378579                5.93564400               94.08964957                1.00000000               -0.01567494               -0.05535259                0.07458114                0.01120959                0.01030311               -0.07493826
               0.87605746                5.92842420               94.09516786                0.80400350               -0.01330360               -0.02133596                0.08230146                0.03755638                0.04392521                0.00085421
               1.87594814                5.92179426               94.10133652                0.01000001               -0.06328897               -0.14893263                0.02693610                0.34096258                0.04908514                0.05158682
               2.87479168                5.91998347               94.10744620                0.01000001               -0.13575224               -0.11427454                0.14234319                0.52718734                0.08498635                0.00200904
               3.87323309                5.91792988               94.11334189                0.01000000               -0.13925481               -0.16501348                0.15303221                0.60158630                0.10184156                0.00643627
               4.87200658                5.91680687               94.11888886                0.01000129               -0.13492218               -0.17032478                0.17308192                0.71304328                0.05780936                0.01393466
               5.87053465                5.91652410               94.12397925                0.01000001               -0.16747675               -0.15587132                0.18722726                0.81776179                0.01050555                0.00095037
               6.86865705                5.91678320               94.12856537                0.01000001               -0.21108111               -0.10211824                0.18044070                0.88518416               -0.04381099               -0.01730464
               7.86631303                5.91715910               94.13219204                0.01000001               -0.22724280               -0.06057519                0.14631406                0.96172264               -0.14781722               -0.01922238
               8.86411219                5.91766474               94.13434086                0.01000001               -0.08114984               -0.06936109                0.00507574                0.51561313               -0.18494820               -0.03777235
               9.86469003                5.90738637               94.13820180                1.00000000                0.05778367               -0.24086483                0.12214377               -0.00973067               -0.14083283                0.29620420
              -0.11675396                6.93508632               94.09116534                1.00000000               -0.01578488               -0.04674892                0.06449356                0.00079931                0.00971013               -0.08033626
               0.88308819                6.92826356               94.09699999                0.99269192               -0.02191048               -0.01715666                0.07253194                0.01252331                0.01800804               -0.02630838
               1.88280783                6.92164230               94.10294449                0.01000000               -0.08787284               -0.01463348                0.08087457                0.19822863                0.09295088               -0.01136686
               2.88133074                6.91870383               94.11017407                0.01000001               -0.09413959               -0.19984253                0.13681451                0.48163562                0.21609339               -0.10229051
               3.88092504                6.91610586               94.11650043                0.01000003               -0.06911942               -0.16958575                0.13471595                0.56643500                0.11302784               -0.04080096
               4.87994835                6.91493359               94.12249228                0.01000000               -0.09611733               -0.21364926                0.16264485                0.72917272                0.04248284               -0.03612686
               5.87900269                6.91476371               94.12813786                0.01000001               -0.11250694               -0.20078971                0.18080972                0.88549523               -0.00917661               -0.05876037
               6.87769821                6.91558051               94.13327321                0.01000001               -0.12634492               -0.11733902                0.18659292                0.96853154               -0.03331709               -0.04639943
               7.87647580                6.91621136               94.13833622                0.01000001               -0.12116020               -0.12132702                0.15819384                0.96644180               -0.09932698               -0.03259616
               8.87527501                6.91615732               94.14114427                0.01000001               -0.05019394               -0.15879605                0.26072371                0.51892869                0.02563481               -0.20121645
               9.87547192                6.90612263               94.14615911                0.90417986                0.01969116               -0.02206176                0.39191825               -0.00304494                0.06982624                0.09772556
              -0.11012430                7.93470902               94.09255009                0.89539987               -0.01237563               -0.02938693                0.05205698               -0.00766084                0.00965376               -0.07513165
               0.88975194                7.92808107               94.09862770                0.97927910               -0.02016287               -0.02044829                0.06311047               -0.00679690                0.01206189               -0.04256350
               1.88947244                7.92150159               94.10469347                0.26258253                0.01044405               -0.01527590                0.09578930                0.05280735                0.14066564               -0.00473242
               2.88996083                7.91598662               94.11313293                0.01000003               -0.05702084               -0.12192940                0.09915216                0.38280119                0.19322140               -0.17026521
               3.88833203                7.91453816               94.11875694                0.01000000               -0.10143193               -0.19411474                0.11670279                0.58198826                0.03421013               -0.07350924
               4.88793219                7.91253388               94.12520193                0.01000001               -0.03671929               -0.26130773                0.11734522                0.71168524                0.01112781               -0.10493599
               5.88759764                7.91250831               94.13131598                0.01000001               -0.06760762               -0.22080831                0.14867296                0.96025355               -0.01241517               -0.16770198
               6.88658003                7.91443642               94.13790473                0.01000001               -0.12662952               -0.11671014                0.15963179                0.96631651               -0.01962120               -0.11690370
               7.88506505                7.91473256               94.14356989                0.01000001               -0.10002679               -0.09737046                0.18912727                0.83342098               -0.10669258               -0.12120833
               8.88457950                7.91448882               94.14798780                0.79557881               -0.01832696               -0.16709753                0.06002335                0.42107766               -0.05815789               -0.15205240
               9.88469851                7.90694514               94.15387703                1.00000000                0.01190125                0.09080915                0.05791939                0.01438379               -0.02466790                0.15073244
              -0.10365127                8.93449858               94.09398689                0.51418140               -0.01890423               -0.01945630                0.05996540               -0.02200331               -0.00150496               -0.06220185
               0.89615969                8.92785460               94.10020885                0.64895406               -0.01951480               -0.02060773                0.07039814               -0.03311956                0.00139212               -0.03875113
               1.89595843                8.92133678               94.10657433                1.00000000               -0.01047474               -0.01623254                0.08922524                0.01676128                0.02417021               -0.00581286
               2.89595019                8.91626524               94.11334983                0.99894622                0.00295534                0.00009190                0.08985311                0.07559417                0.03313942               -0.09344194
               3.89601754                8.91222357               94.12017042                0.91565840                0.01308575               -0.12912400                0.08646125                0.23360652                0.01446249               -0.02537322
               4.89621191                8.90970744               94.12666120                0.44368912                0.01438465               -0.14492298                0.07152642                0.39777086               -0.04771584               -0.06321450
               5.89630523                8.91034755               94.13302867                0.01000000               -0.07058117               -0.07868388               -0.00226027                0.51167253               -0.02994530               -0.19277214
               6.89480028                8.91324630               94.14032664                0.01000002               -0.16067087               -0.04977145                0.26635409                0.51861153               -0.19586120                0.02134863
               7.89309182                8.91426395               94.14761450                0.82782633               -0.16581488               -0.01799147                0.05960157                0.42183993               -0.14147766               -0.06775008
               8.89148399                8.91281537               94.15462784                1.00000000               -0.11224310               -0.11487881                0.08771167                0.20034745               -0.05806025               -0.06642474
               9.89084695                8.90793881               94.16153385                1.00000000               -0.06370325                0.05269088                0.09651670                0.02662746               -0.04628529                0.04145167
              -0.09727640                9.93431990               94.09559346                0.80566165               -0.04722435               -0.01786802                0.14225371               -0.02761139               -0.02235477               -0.08145966
               0.90225135                9.92766892               94.10190270                0.99246728               -0.06632850               -0.01856802                0.11280164               -0.04798126               -0.02491730               -0.04333329
               1.90139703                9.92117694               94.10856680                0.99999999               -0.08327164               -0.01598375                0.08418134               -0.04016379                0.00240496               -0.00286950
               2.90058592                9.91598846               94.11534375                1.00000000               -0.09175334               -0.02767845                0.10535882                0.00250972                0.04504739                0.00600213
               3.89956196                9.91195568               94.12234903                0.99999996               -0.14111473               -0.02678877                0.15255094                0.03679032                0.07938603                0.01036674
               4.89776362                9.90963543               94.12948090                1.00000000               -0.26348655               -0.00720141                0.17005928                0.10411922                0.16347423               -0.00793469
               5.89429223                9.91093463               94.13678131                1.00000000               -0.23638807                0.05870815                0.10956617               -0.01102238                0.30402270               -0.12896313
               6.89303586                9.91344099               94.14524715                0.92366916               -0.01797212                0.01946850                0.38735292               -0.00453678                0.10358213                0.07717954
               7.89393278                9.91437273               94.15336545                1.00000000                0.09378623                0.01087842                0.05057685                0.02160963                0.14713706               -0.02141010
               8.89491159                9.91219124               94.16127181                1.00000000                0.05256944               -0.06241261                0.09387198                0.02407122                0.03103279               -0.04752167
               9.89498417                9.90799896               94.16868053                1.00000000                0.00725861                0.00601443                0.13124858               -0.00550657                0.00061610                0.00826216
              -0.16215653               -0.06666034               95.07525223                0.79790315               -0.02987485               -0.03021568                0.09059897                0.00262990                0.00517609               -0.00028653
               0.83754472               -0.07085318               95.07817031                0.38895882               -0.03082947               -0.03320469                0.10741125               -0.00901482                0.01243313                0.00818883
               1.83722688               -0.07520684               95.08122659                0.24151912                0.03015574               -0.05187472                0.14817553               -0.01836596                0.01021726                0.01604311
               2.83814784               -0.07944725               95.08475033                0.49195668                0.06199865               -0.02625065                0.12262042               -0.07602932                0.08249848                0.04533996
               3.83846685               -0.08128592               95.08848623                0.99383123                0.01371692               -0.04898638                0.06846381                0.02598101                0.02274265                0.02969176
               4.83842217               -0.08236356               95.09099349                0.99999999               -0.02348422               -0.00639894                0.06622706                0.02462856               -0.08062878                0.02870673
               5.83799717               -0.08331396               95.09295554                0.99999999               -0.04310288               -0.01330796                0.06861767                0.01389765               -0.10198046                0.01539138
               6.83756012               -0.08471730               95.09465859                0.91544405               -0.03445758               -0.00951484                0.05620989               -0.00365128               -0.10054692                0.00855986
               7.83730802               -0.08639574               95.09622406                0.48294047               -0.02452958               -0.01083881                0.04957389               -0.02722338               -0.07838892                0.00846501
               8.83706952               -0.08829553               95.09812412                0.62112427               -0.04831896               -0.02597974                0.11739886               -0.04326898               -0.03757482               -0.01094697
               9.83634164               -0.09034016               95.10166482                0.99999999               -0.07278871               -0.07021716                0.17598678               -0.01236106                0.03817398               -0.10862902
              -0.15793739                0.93303750               95.07779485                0.39279788               -0.03347895               -0.03267527                0.10857246               -0.01018869                0.00669151               -0.00311842
               0.84172782                0.92881477               95.08073563                0.01000001               -0.03611795               -0.03523258                0.12119932               -0.03693090                0.02781741                0.02149185
               1.84134025                0.92427441               95.08413114                0.01000003               -0.06503693               -0.08618323                0.14232131               -0.07540194                0.15395489                0.11467817
               2.84042708                0.92029025               95.08905637                0.74872524               -0.05777144               -0.03234644                0.05279973               -0.02142738                0.11301500                0.00180519
               3.84018482                0.91822422               95.09259585                0.75295951               -0.03722997               -0.04486408                0.06709934                0.10264792                0.04166745                0.04275549
               4.83968248                0.91757245               95.09566621                0.82777018               -0.04359051                0.01179932                0.07288067                0.07775140                0.03302763                0.06114118
               5.83931301                0.91655296               95.09810112                0.93355758               -0.03089959               -0.01347275                0.07741692                0.02941065               -0.01789584                0.03403755
               6.83906449                0.91518755               95.10012107                1.00000000               -0.02440576               -0.00978423                0.06561179                0.00611984               -0.04994863                0.02683012
               7.83882490                0.91349587               95.10194737                0.86297202               -0.02277230               -0.00966539                0.05826783               -0.02856019               -0.04980872                0.02651558
               8.83860904                0.91144468               95.10401262                0.55207907               -0.02811196               -0.02577760                0.08922275               -0.07171895               -0.00679352               -0.00597359
               9.83826266                0.90895767               95.10694118                0.99999999               -0.03463869               -0.07130696                0.17113554               -0.06576204                0.02191088               -0.09906534
              -0.15391484                1.93268615               95.08026737                0.24080892               -0.05159701                0.02331545                0.15355786               -0.01992009                0.01604474               -0.01533438
               0.84556919                1.92844216               95.08360722                0.01000002               -0.09208986               -0.06372555                0.14181086               -0.07318705                0.11869605                0.13952827
               1.84424336                1.92306950               95.08920944                0.78256253               -0.08998528               -0.08428770                0.05772099               -0.02030550                0.07197200                0.06810453
               2.84376948                1.91990582               95.09309485                0.65170276               -0.05028746               -0.04515115                0.03011486                0.15960617                0.00560621               -0.02131095
               3.84323761                1.91781680               95.09673127                0.02393362               -0.10605100               -0.05762382                0.06392280                0.28884666                0.01108159                0.04022346
               4.84164846                1.91787242               95.10109778                0.01000001               -0.11336691               -0.04699111                0.07709006                0.31049464               -0.02080997                0.08749382
               5.84097027                1.91641658               95.10357810                0.01000001               -0.04544340               -0.06757360                0.06619749                0.18836358                0.02192543                0.10066393
               6.84073960                1.91508702               95.10591162                0.87303610               -0.02452924                0.01963724                0.09484045                0.03311261                0.00756080                0.13266369
               7.84047969                1.91341095               95.10816189                0.99999999               -0.02831236               -0.00176758                0.09531274               -0.00302069               -0.01008142                0.09618938
               8.84017335                1.91118892               95.11018909                0.96956977               -0.02396416               -0.02101085                0.06966965               -0.03950460               -0.02121315                0.01091416
               9.84000041                1.90823370               95.11223383                1.00000000               -0.01729421               -0.06187806                0.05150870               -0.06167625               -0.01780924               -0.04262838
              -0.14984782                2.93350381               95.08317338                0.49758538               -0.02714492                0.05370374                0.12698813               -0.07236707                0.05026563                0.06765663
               0.84988073                2.92754026               95.08801365                0.75237033               -0.03408521               -0.05715544                0.05371893               -0.02059400                0.00587661                0.10710970
               1.84947048                2.92258866               95.09259326                0.63938768               -0.05044167               -0.04834010                0.03014861                0.16310210               -0.02291934                0.00441842
               2.84887190                2.91938722               95.09706516                0.17724279               -0.07376605               -0.06922650                0.05503820                0.28140749               -0.02877735               -0.02243617
               3.84799516                2.91707174               95.10091555                0.01000001               -0.07896534               -0.08492114                0.06181473                0.39860886                0.00733750                0.01397194
               4.84729259                2.91663262               95.10544894                0.01000001               -0.10647350               -0.11896167                0.10577717                0.47785851                0.06668927                0.08265204
               5.84586569                2.91520148               95.11009916                0.01000000               -0.22801124               -0.08605737                0.17823552                0.47450333               -0.02654638                0.20021663
               6.84273237                2.91558030               95.11331118                0.01000000               -0.16015553               -0.06456019                0.08674574                0.39061075               -0.10886953                0.19602657
               7.84266258                2.91346052               95.11525163                0.01000003                0.01319166               -0.06087679                0.01501796                0.18785032               -0.06488989                0.07146011
               8.84299620                2.91102446               95.11660831                0.95062793                0.01384951               -0.00597927                0.07726699                0.05539042               -0.06475518                0.01480106
               9.84293957                2.90772011               95.11884070                0.99999998               -0.00566346               -0.06786490                0.08475892                0.00484318               -0.01461173                0.06208996
              -0.14343508                3.93376023               95.08653927                1.00000000               -0.04924634                0.00915663                0.07436905                0.02757094                0.02983307                0.02282212
               0.85607246                3.92729905               95.09115309                0.74431271               -0.04532424               -0.03664482                0.06952204                0.10077900                0.04206626                0.04392847
               1.85565844                3.92210269               95.09579993                0.01965106               -0.05789534               -0.09692658                0.06331431                0.27898915                0.03707178                0.01829083
               2.85491455                3.91852129               95.10042874                0.01000003               -0.08470231               -0.07178539                0.06118932                0.38746023                0.00997691                0.02347018
               3.85396439                3.91611838               95.10492228                0.01000002               -0.09193303               -0.07522962                0.04981548                0.51013826                0.09689226                0.08120655
               4.85307589                3.91549319               95.11141782                0.01000002               -0.12258618               -0.12017443                0.17590376                0.55668057                0.11218954                0.12996182
               5.85151267                3.91469543               95.11572961                0.01000001               -0.13915591               -0.08770744                0.15651731                0.54344201               -0.00314746                0.12030349
               6.85029277                3.91379581               95.11916329                0.01000001               -0.13600662               -0.15354425                0.16715276                0.56973411               -0.03536889                0.08678744
               7.84879253                3.91219342               95.12180677                0.01000002               -0.16356018               -0.09729692                0.15228445                0.45192782               -0.12601474                0.05192123
               8.84702157                3.91106934               95.12306357                0.95634198               -0.10432834               -0.00805738                0.10150551                0.16349274               -0.06067392                0.00050796
               9.84670597                3.90687641               95.12594376                0.99999998               -0.03156014               -0.07018051                0.12246878               -0.00586441                0.01589389                0.09732038
              -0.13637405                4.93368694               95.08875044                0.99999999               -0.00720988               -0.02540974                0.06805676                0.02296855                0.02775377               -0.07594379
               0.86355385                4.92680736               95.09388069                0.80364693                0.01010387               -0.04202401                0.07362292                0.07658814                0.06188922                0.03237820
               1.86382802                4.92065013               95.09980558                0.01000001               -0.04742118               -0.10414102                0.07563463                0.30002240                0.09735613               -0.01336705
               2.86260542                4.91795152               95.10479321                0.01000001               -0.13009960               -0.09087357                0.11590303                0.46074404                0.09101410                0.06921600
               3.86122603                4.91556715               95.11101362                0.01000001               -0.13781365               -0.09724545                0.17433760                0.54568776                0.12804767                0.10422530
               4.85984915                4.91422913               95.11629529                0.01000000               -0.13970632               -0.12881164                0.18209493                0.60200713                0.06393633                0.05611400
               5.85843190                4.91344734               95.12112651                0.01000001               -0.16100414               -0.13305940                0.20204597                0.62482464                0.01221903                0.06531123
               6.85662907                4.91250941               95.12509627                0.01000001               -0.20021466               -0.11000364                0.18986458                0.58928605               -0.07271683                0.05115976
               7.85442761                4.91151458               95.12786100                0.01000001               -0.25229984               -0.05909492                0.16440151                0.55448972               -0.16324858                0.01959678
               8.85158307                4.91086331               95.12945441                0.34416420               -0.16097350                0.00493186                0.12993778                0.28684204               -0.10711456               -0.09362773
               9.85120814                4.90631650               95.13282735                1.00000000               -0.03749292               -0.08381715                0.12514424                0.08337431               -0.03235974                0.16265851
              -0.12921654                5.93325203               95.09040712                0.99999999               -0.01424203               -0.04355536                0.06893070                0.01281708                0.01426640               -0.09896620
               0.87064104                5.92645857               95.09599177                0.91078105               -0.01343629               -0.02881000                0.07715971                0.02886218                0.03421339               -0.01748693
               1.87051473                5.92001987               95.10194572                0.01000002               -0.07143117               -0.04181990                0.06084599                0.18174488                0.09754822                0.01344131
               2.86921241                5.91670382               95.10889980                0.01000000               -0.09571010               -0.21177349                0.17781589                0.46424759                0.19978523               -0.03463846
               3.86860053                5.91417347               95.11493198                0.01000001               -0.09882821               -0.12594088                0.15921117                0.54301456                0.12528059               -0.01195529
               4.86723585                5.91291696               95.12071360                0.01000001               -0.14358226               -0.15060413                0.20248299                0.62511075                0.07169590                0.00213403
               5.86572888                5.91203425               95.12597337                0.01000001               -0.16123007               -0.15230034                0.21874826                0.68692144                0.00198738               -0.00817543
               6.86401125                5.91159574               95.13039657                0.01000002               -0.21002258               -0.10915308                0.21344857                0.72499395               -0.07352933               -0.01582337
               7.86152843                5.91101152               95.13404318                0.01000001               -0.30273757               -0.05321392                0.20238394                0.82506516               -0.27278166               -0.04144851
               8.85795649                5.91116797               95.13455272                0.01168365               -0.20306767               -0.25432384                0.18024343                0.79327631               -0.25825125                0.14242028
               9.85746708                5.90520006               95.13982186                0.95547354               -0.04894173               -0.33957697                0.17192079                0.44857163               -0.07401255                0.64652671
              -0.12253080                6.93281583               95.09178636                0.90771997               -0.01059528               -0.03470444                0.05653654               -0.00428971                0.00915846               -0.09738927
               0.87736325                6.92623116               95.09768925                1.00000000               -0.01257644               -0.02276811                0.06472352                0.00604127                0.02422752               -0.04954400
               1.87721767                6.91981373               95.10384405                0.74364522                0.01867662               -0.02283678                0.09114682                0.03259529                0.13371190               -0.00064264
               2.87773678                6.91371605               95.11176798                0.01000000               -0.06722407               -0.15457655                0.09250943                0.39127793                0.20438897               -0.10911402
               3.87587319                6.91304833               95.11795950                0.01000001               -0.16230961               -0.12683459                0.16844023                0.56657036                0.08764167               -0.04812617
               4.87449059                6.91121705               95.12426956                0.01000001               -0.11908208               -0.19068234                0.19149238                0.59002408                0.05552973               -0.08575758
               5.87349155                6.91040133               95.12997177                0.01000001               -0.11694580               -0.20181733                0.21412767                0.72403625               -0.00694959               -0.08598275
               6.87215167                6.91032635               95.13523961                0.01000001               -0.10674338               -0.10102521                0.21397664                0.82771751               -0.09029693               -0.10362355
               7.87135668                6.91045031               95.13942960                0.01000001                0.05541908               -0.09958908                0.16240800                0.64926041               -0.04960526               -0.05273354
               8.87326005                6.90577683               95.14587211                0.05009627                0.03793571               -0.28108825                0.31240061                0.51421971                0.20045754               -0.09968530
               9.87211540                6.89952496               95.15415117                0.68410436               -0.11446585               -0.19814404                0.38851932                0.43095928                0.29525986                0.12759390
              -0.11613299                7.93255794               95.09303697                0.47282661               -0.01030440               -0.02564421                0.04970759               -0.02767471                0.01109389               -0.07387922
               0.88376396                7.92600321               95.09919461                0.86500361               -0.00926297               -0.02303200                0.05768290               -0.02889004                0.02734981               -0.05103211
               1.88368175                7.91956314               95.10578220                1.00000000                0.00197019               -0.02802843                0.09570155               -0.00282366                0.10509969               -0.01311332
               2.88380337                7.91361229               95.11342995                0.01000005               -0.06254100                0.01372144                0.01724229                0.18615054                0.07380255               -0.07623115
               3.88243093                7.91163678               95.12018283                0.01000002               -0.10600184               -0.15678324                0.15468726                0.45107789                0.04589207               -0.13976263
               4.88168333                7.90910331               95.12660785                0.01000000               -0.06653103               -0.24417147                0.16657083                0.55292964                0.02455397               -0.18179468
               5.88110031                7.90799790               95.13321891                0.01000001               -0.05833561               -0.29400958                0.20303094                0.82550790               -0.03403361               -0.29765388
               6.88051662                7.90957524               95.13899844                0.01000001               -0.10185766                0.06095492                0.16310852                0.64226413               -0.04247469               -0.05961468
               7.87906316                7.90901974               95.14530298                0.01000001               -0.06751928               -0.07157127                0.14826294                0.42658471               -0.15335252               -0.16637445
               8.87916623                7.90554621               95.14866232                0.59456091               -0.02365722               -0.02979266                0.16680934                0.12666105               -0.14631442               -0.30795235
               9.87859001                7.90123718               95.15518555                0.99999998               -0.05762228                0.06861139                0.21518956                0.12285821               -0.02663780               -0.23267722
              -0.10997483                8.93230295               95.09463672                0.61965229               -0.02449156               -0.04923314                0.11884086               -0.04392439               -0.00805130               -0.03374136
               0.88978025                8.92577052               95.10092838                0.57321890               -0.02365242               -0.02993858                0.08835430               -0.07204972               -0.00230035               -0.01210377
               1.88955212                8.91925316               95.10752164                0.98710662               -0.01970491               -0.02344003                0.07196958               -0.03846371                0.01311839               -0.02452316
               2.88938615                8.91399048               95.11429668                0.96984622               -0.00741931                0.01615823                0.08123043                0.05114862                0.01063302               -0.07757060
               3.88940373                8.90991267               95.12104567                0.97599502               -0.00990473               -0.10139540                0.10026265                0.16201323               -0.00565068               -0.06835304
               4.88918806                8.90633362               95.12772812                0.33085743                0.00630236               -0.15675507                0.12769773                0.28543774               -0.10030065               -0.11944827
               5.88952978                8.90452114               95.13308942                0.01000001               -0.26064714               -0.19550166                0.18815449                0.78894464                0.15840327               -0.27399117
               6.88397512                8.91154545               95.14514747                0.05808940               -0.28061885                0.03893455                0.31363721                0.50463678               -0.08116354                0.19769358
               7.88391740                8.90901888               95.14825944                0.60468295               -0.01996423               -0.02677151                0.16457326                0.12101194               -0.29965919               -0.15379440
               8.88357583                8.90518098               95.15544690                0.99999998               -0.03633952               -0.03651811                0.11300508                0.01174715               -0.04411929               -0.04971389
               9.88319061                8.90089719               95.16259854                1.00000000               -0.03852188               -0.02603397                0.10193804                0.01013679               -0.03177332                0.02033662
              -0.10394662                9.93157328               95.09788191                0.99999999               -0.06806212               -0.07296705                0.17537225               -0.01406253               -0.11004826                0.04314296
               0.89537276                9.92540444               95.10347533                0.99999999               -0.06804301               -0.03660797                0.16672581               -0.06469631               -0.09180101                0.01484373
               1.89469252                9.91909434               95.10926474                1.00000000               -0.06029618               -0.01588238                0.05096632               -0.05940901               -0.03432572               -0.02046592
               2.89416684                9.91393546               95.11624938                0.99999998               -0.06822369               -0.00550185                0.08427536                0.00379481                0.06450795               -0.01606713
               3.89332805                9.90960887               95.12369750                0.99999998               -0.06916098               -0.03037983                0.11993082               -0.00593107                0.09738753                0.01630466
               4.89278362                9.90596821               95.13086675                1.00000000               -0.08303357               -0.03654159                0.12283071                0.08350562                0.16073699               -0.03382530
               5.89166738                9.90408787               95.13820543                0.96110350               -0.33360018               -0.04332715                0.17048155                0.43304554                0.66349082               -0.06946609
               6.88611161                9.91035393               95.15315409                0.69878359               -0.19097563               -0.11915226                0.37784721                0.43347178                0.14219055                0.29169789
               7.88784786                9.90848431               95.15453848                0.99999998                0.07056283               -0.05345722                0.20246021                0.11614197               -0.23518188               -0.02557008
               8.88752287                9.90481585               95.16226544                1.00000000               -0.02437647               -0.03651350                0.09681562                0.00631352                0.01764572               -0.03445647
               9.88736033                9.90071650               95.16963794                0.87614194               -0.01625359               -0.01806855                0.05621480                0.00703773               -0.00440810               -0.00215517
              -0.16508768               -0.06927128               96.07608811                0.75559391               -0.02928302               -0.02926975                0.08063838                0.00854538                0.00928179                0.00450110
               0.83461949               -0.07340554               96.07926155                0.41613610               -0.04011990               -0.03690461                0.11289463               -0.01290763                0.03535978                0.00742448
               1.83410992               -0.07782197               96.08296168                0.21367918                0.03203202               -0.05827283                0.16856801               -0.03378419                0.04126133                0.01385028
               2.83526013               -0.08289314               96.08635763                0.46207795                0.06191457               -0.08505711                0.14537104               -0.15952424               -0.03534823                0.02649221
               3.83534821               -0.08493251               96.08913444                0.93955527               -0.00354488               -0.02959588                0.06120163               -0.00389356               -0.07767510                0.05695288
               4.83518923               -0.08665070               96.09165691                1.00000000               -0.01668361               -0.02050287                0.05803181                0.01318097               -0.11292663                0.03279489
               5.83501454               -0.08832333               96.09358033                0.91711990               -0.01468654               -0.01230388                0.05200929                0.00182062               -0.12851635                0.01847797
               6.83489550               -0.09013927               96.09516953                0.47333254               -0.01200329               -0.01176748                0.05342779               -0.02013052               -0.11887142                0.01437101
               7.83477447               -0.09208121               96.09673121                0.40998870               -0.07426527               -0.02434474                0.11492908               -0.05534738               -0.10165957                0.00692225
               8.83341020               -0.09435712               96.09983022                0.85169090               -0.08280330               -0.03760912                0.12067265                0.01234219               -0.03729120               -0.07808041
               9.83311841               -0.09672906               96.10291080                1.00000000               -0.02917872               -0.03038859                0.08656069               -0.00884218               -0.01062984               -0.04320482
              -0.16086796                0.93043603               96.07888551                0.41058280               -0.03662794               -0.04131191                0.11193276               -0.01370868                0.00715968                0.02205551
               0.83876576                0.92622541               96.08204208                0.01000000               -0.03080799               -0.03089320                0.14117615               -0.04934833                0.03052812                0.02295170
               1.83851588                0.92159531               96.08572232                0.01000000               -0.07727990               -0.13225951                0.17389211               -0.19233616                0.06150693                0.06374138
               2.83722016                0.91625629               96.08948935                0.01000000               -0.06639099               -0.06758208                0.08713143               -0.10374201                0.09076688                0.05415927
               3.83718806                0.91477153               96.09329372                0.81125166               -0.01018558               -0.04359104                0.07766581                0.04302447                0.04350410                0.07648972
               4.83701645                0.91314427               96.09631727                0.95853477               -0.02055126               -0.01508995                0.06758279                0.02212142               -0.00523283                0.04702730
               5.83677703                0.91155363               96.09880711                0.96506112               -0.02216551               -0.01555564                0.06105334                0.01162296               -0.04462193                0.02875887
               6.83657314                0.90974305               96.10074032                0.93436147               -0.02235528               -0.01199177                0.05418957               -0.01817361               -0.07173661                0.02778012
               7.83632993                0.90767534               96.10255203                0.20686386               -0.03577992               -0.02368736                0.08067249               -0.05294134               -0.04436495                0.02117014
               8.83585754                0.90526679               96.10508087                0.38736522               -0.04640039               -0.03821313                0.14169951               -0.00673341                0.00941221               -0.06257650
               9.83540192                0.90296706               96.10872190                0.99999999               -0.04556207               -0.07140925                0.13197915                0.00851831                0.06382236               -0.11631790
              -0.15694063                1.92990249               96.08203484                0.20624758               -0.05861278                0.02650355                0.17233773               -0.03724788                0.01313091                0.01829721
               0.84247324                1.92597660               96.08519741                0.01000000               -0.14135259               -0.07502532                0.17631023               -0.18851931                0.06856938                0.04623583
               1.84023232                1.91953284               96.08952368                0.01000001               -0.12320890               -0.11531960                0.13654646               -0.19738765                0.13507147                0.12179197
               2.84000907                1.91575522               96.09338422                0.01000002               -0.04557993               -0.03798070                0.14091362                0.09570735                0.09956308                0.10958476
               3.83932072                1.91419567               96.09763058                0.01045549               -0.05797559               -0.08564514                0.11269303                0.20420640                0.07071129                0.07037598
               4.83884955                1.91304750               96.10138578                0.01000001               -0.03362518               -0.05518290                0.04383364                0.14529661                0.06600419                0.05738465
               5.83864822                1.91136556               96.10421961                0.44976740               -0.02196159                0.03223722                0.08088264                0.04344840                0.02980865                0.17446807
               6.83841032                1.90962089               96.10678664                0.99999998               -0.02281506               -0.01560088                0.08603761                0.01104019               -0.00293840                0.08477377
               7.83819192                1.90744504               96.10895634                0.96648231               -0.02132559               -0.02680683                0.06258966               -0.02213752               -0.03955976                0.03387414
               8.83798381                1.90487861               96.11068810                0.43867779               -0.01518436               -0.03021308                0.04543971               -0.04317737               -0.04769326               -0.03179090
               9.83788823                1.90184276               96.11257033                0.87983206               -0.00955811               -0.08203742                0.05954918               -0.04990830               -0.02978527               -0.06542880
              -0.15376114                2.93096610               96.08484164                0.46779766               -0.08738458                0.05391413                0.15083208               -0.15450750                0.02985478               -0.04835256
               0.84536501                2.92472491               96.08845544                0.01000000               -0.07246806               -0.06455915                0.08841591               -0.10006053                0.06107793                0.08280477
               1.84478950                2.91928891               96.09289165                0.01000002               -0.04467653               -0.04483738                0.14199694                0.10603192                0.11567925                0.09378554
               2.84447148                2.91549668               96.09748017                0.01000000               -0.04047972               -0.03929291                0.14752752                0.20990128                0.08385446                0.07928738
               3.84397990                2.91305863               96.10152766                0.01000000               -0.08594987               -0.10623737                0.17637940                0.33303242                0.11439694                0.07679359
               4.84275249                2.91204061               96.10687820                0.01000001               -0.14536477               -0.08324790                0.24667803                0.44571532                0.14886902                0.24029324
               5.84107261                2.91219838               96.11223288                0.01000000               -0.10190125               -0.04946977                0.12772194                0.32499130               -0.01326789                0.23245217
               6.84071446                2.90943104               96.11348188                0.01000000               -0.02215767               -0.05892735                0.05808294                0.16790105               -0.04351588                0.12943175
               7.84062946                2.90713921               96.11537440                0.01000001               -0.00590934               -0.06294622                0.05918454                0.12835212               -0.02341646                0.10765327
               8.84059627                2.90466252               96.11728284                0.93577478               -0.00769964               -0.01951388                0.08732051                0.02056610               -0.03429249                0.02830977
               9.84047546                2.90132631               96.11964369                1.00000000               -0.01208115               -0.05465177                0.08009265               -0.03589726               -0.02277771                0.05204429
              -0.14754840                3.93098077               96.08725595                0.96213056               -0.03023850               -0.00797310                0.06572909                0.00236364                0.05690716               -0.07619310
               0.85214922                3.92468541               96.09189145                0.83517601               -0.04352075               -0.01128690                0.07957979                0.04801460                0.07619087                0.04408866
               1.85158119                3.91863610               96.09669513                0.01035781               -0.08559193               -0.05405493                0.11086981                0.20384503                0.07009043                0.07179821
               2.85043738                3.91496936               96.10105752                0.01000000               -0.10718774               -0.07970494                0.17937523                0.32490904                0.07385682                0.12999590
               3.84943743                3.91207092               96.10583706                0.01000002               -0.09066359               -0.07888419                0.24853409                0.46044317                0.21649068                0.22556484
               4.84862411                3.91138254               96.11328333                0.01000001               -0.08399057               -0.09370130                0.18384345                0.55001512                0.16368123                0.17853752
               5.84775762                3.91037617               96.11730821                0.01000001               -0.08982948               -0.16273864                0.18918257                0.50271901                0.00705861                0.10321955
               6.84682752                3.90844235               96.12106474                0.01000000               -0.11150750               -0.10091231                0.19247608                0.37681016               -0.12827285                0.21010796
               7.84552747                3.90618612               96.12342868                0.01000000               -0.13097452               -0.07804089                0.15922656                0.29581538               -0.21764420                0.17566496
               8.84420803                3.90448834               96.12421455                0.99999999               -0.08423795               -0.02398470                0.12813821                0.10243469               -0.09795863                0.01624433
               9.84384271                3.90074972               96.12703921                1.00000000               -0.03653147               -0.05056588                0.08873535               -0.01179856                0.01296999                0.07452960
              -0.14112316                4.93080664               96.08944575                1.00000000               -0.02068657               -0.01760023                0.06053976                0.01318537                0.03230065               -0.10983844
               0.85866998                4.92449917               96.09456455                0.97243474               -0.01471978               -0.02097552                0.06893585                0.02275459                0.04690730               -0.00367379
               1.85858245                4.91820781               96.10009177                0.01000000               -0.05675690               -0.03057405                0.04165372                0.14066474                0.06901011                0.06410432
               2.85753484                4.91390258               96.10625315                0.01000001               -0.09034313               -0.13267188                0.23552618                0.43184377                0.23810827                0.15653286
               3.85677559                4.91148094               96.11285144                0.01000001               -0.10436493               -0.06630163                0.18397477                0.53757402                0.17406915                0.16406921
               4.85544754                4.91016659               96.11825510                0.01000001               -0.13541998               -0.12536329                0.23605420                0.56188327                0.09135793                0.08474152
               5.85406719                4.90894361               96.12334373                0.01000000               -0.15034148               -0.14304142                0.24087954                0.51900039                0.00768727                0.11258622
               6.85244071                4.90741279               96.12712748                0.01000001               -0.17837070               -0.10594798                0.22589420                0.44619591               -0.08535078                0.09766824
               7.85049977                4.90557839               96.12976113                0.01000000               -0.21796757               -0.07122935                0.20797687                0.39719037               -0.17703332                0.05958316
               8.84808136                4.90418283               96.13093567                0.38302983               -0.13915277               -0.01964461                0.14956987                0.18485321               -0.10672132                0.01060222
               9.84771672                4.90031499               96.13390017                1.00000000               -0.03646439               -0.08783144                0.11210954                0.05465566               -0.02362464                0.10299649
              -0.13466976                5.93062876               96.09102819                0.90620387               -0.01271126               -0.01489791                0.05215917                0.00104272                0.01977895               -0.12492485
               0.86520313                5.92426590               96.09671105                0.95522819               -0.01695853               -0.02146634                0.06145727                0.01204621                0.02950711               -0.04395309
               1.86499107                5.91802461               96.10255344                0.37575195                0.02989983               -0.02074282                0.07887505                0.04354578                0.17432959                0.02595766
               2.86580113                5.91231593               96.11100251                0.01000000               -0.05330846               -0.09555890                0.13187934                0.32442455                0.24222057               -0.01857782
               3.86392490                5.91074489               96.11652612                0.01000001               -0.17010096               -0.07942267                0.18974538                0.49800301                0.10890884                0.00489546
               4.86239911                5.90887528               96.12293852                0.01000000               -0.15167381               -0.14211967                0.24199030                0.51847929                0.11749367                0.00091521
               5.86089143                5.90751534               96.12835422                0.01000001               -0.16412263               -0.15725440                0.27782967                0.56372864                0.01632042                0.00779293
               6.85911665                5.90632339               96.13283434                0.01000001               -0.20950940               -0.12533130                0.28164344                0.56199617               -0.08908555               -0.00405526
               7.85670124                5.90476153               96.13623972                0.01000001               -0.29740846               -0.08407515                0.25729901                0.60617397               -0.20762574               -0.02060008
               8.85316849                5.90409544               96.13794573                0.20410759               -0.20148690               -0.20644058                0.30090580                0.53563972               -0.14297643                0.10861171
               9.85267150                5.89899310               96.14164022                1.00000000               -0.04969848               -0.35020871                0.19267563                0.34487936               -0.03574604                0.34136589
              -0.12837658                6.93050868               96.09229607                0.45529123               -0.01083702               -0.01238443                0.05310544               -0.02128016                0.01532848               -0.11419330
               0.87151505                6.92406984               96.09829446                0.93032227               -0.01100407               -0.02222998                0.05299086               -0.01825691                0.02925242               -0.07166015
               1.87140334                6.91779296               96.10476742                0.99999998               -0.01059962               -0.02314426                0.09030076                0.01347937                0.09491178               -0.00533978
               2.87130306                6.91199140               96.11202426                0.01000000               -0.06135238               -0.01913173                0.05234428                0.16673280                0.12696646               -0.04712035
               3.87017629                6.90989249               96.11986924                0.01000000               -0.11281913               -0.10440695                0.19723628                0.37399293                0.20439374               -0.13458146
               4.86904668                6.90732420               96.12632213                0.01000002               -0.11413212               -0.17179224                0.22747082                0.44470526                0.10162941               -0.09606663
               5.86789365                6.90579852               96.13242041                0.01000001               -0.13061172               -0.20388763                0.28238474                0.56084594                0.00339559               -0.10196847
               6.86643444                6.90490616               96.13755274                0.01000000               -0.15212282               -0.14935606                0.28220793                0.63140901               -0.11621411               -0.12730341
               7.86485119                6.90389688               96.14158438                0.01000000               -0.09359261               -0.10931478                0.26419525                0.53903689               -0.13380041               -0.12509925
               8.86456259                6.90005402               96.14739228                0.44025398               -0.00160956               -0.26702316                0.12615064                0.40080470               -0.13122724                0.09118128
               9.86481900                6.89331082               96.15392949                0.99979884                0.02564128               -0.25744404               -0.00161068                0.24806939               -0.03793162                0.24080047
              -0.12221769                7.93038107               96.09354425                0.40210157               -0.02285987               -0.07649293                0.11955511               -0.05692907                0.00919691               -0.09832450
               0.87755371                7.92382130               96.09978136                0.22294441               -0.02216043               -0.03690221                0.07998253               -0.05528217                0.02264618               -0.04528763
               1.87733910                7.91756173               96.10660750                0.97643243               -0.02587292               -0.02145877                0.06507448               -0.02194296                0.03685916               -0.03998734
               2.87703625                7.91193329               96.11347778                0.01000001               -0.06335668               -0.00485021                0.05068919                0.12153946                0.10135974               -0.03325893
               3.87607197                7.90865675               96.12185069                0.01000000               -0.08245350               -0.12753252                0.16322899                0.29014709                0.16907549               -0.23461579
               4.87538718                7.90543943               96.12853334                0.01000000               -0.07727957               -0.21323147                0.21014200                0.39481516                0.05888868               -0.19504714
               5.87452638                7.90343758               96.13537659                0.01000000               -0.08703565               -0.29586566                0.25713268                0.60285635               -0.01333846               -0.21902634
               6.87364647                7.90333627               96.14116690                0.01000000               -0.10961266               -0.09308187                0.26523124                0.53550980               -0.11386471               -0.14534722
               7.87233412                7.90257523               96.14653515                0.01000000               -0.09379120               -0.09721606                0.19173871                0.36833625               -0.17162541               -0.18280360
               8.87177065                7.89875498               96.15132399                0.81514057               -0.06074167               -0.09180246                0.21482835                0.14844427               -0.13788850               -0.14913075
               9.87111929                7.89384421               96.15818083                1.00000000               -0.06513562                0.02911666                0.19656229                0.06338297               -0.01745088               -0.19030424
              -0.11639561                8.92897882               96.09636370                0.84844983               -0.03756321               -0.08443464                0.12158831                0.01297128               -0.07846144               -0.03342739
               0.88322875                8.92333180               96.10197594                0.37450123               -0.03759468               -0.04747112                0.14123743               -0.00681235               -0.06054448                0.00644267
               1.88285249                8.91736378               96.10801372                0.46030359               -0.02949619               -0.01401467                0.04449894               -0.04200183               -0.03000143               -0.04593107
               2.88263883                8.91189440               96.11497444                0.94512858               -0.01897004               -0.00857815                0.08741660                0.01925596                0.02382368               -0.04090863
               3.88247309                8.90734184               96.12217567                0.99999999               -0.02383437               -0.08393203                0.12915352                0.09927669                0.01081408               -0.10842114
               4.88216214                8.90305957               96.12921515                0.39221929               -0.02095732               -0.13788931                0.15308762                0.18113079                0.02020805               -0.11906822
               5.88205395                8.89988121               96.13679176                0.19744012               -0.20775773               -0.20621549                0.31481595                0.53666485                0.11863672               -0.15365371
               6.87800699                8.90304453               96.14659938                0.44179070               -0.26273709               -0.00372756                0.12173597                0.39857555                0.10008954               -0.14228706
               7.87679920                8.90195256               96.15090596                0.82346639               -0.08722462               -0.06359949                0.21421114                0.14785585               -0.14485318               -0.14179082
               8.87626250                8.89821797               96.15688794                0.99999999               -0.04455036               -0.04449728                0.13464546                0.01674942               -0.05081276               -0.05416994
               9.87590820                8.89389315               96.16357261                0.65383770               -0.03542993                0.00164212                0.07901848                0.01910391               -0.01468113               -0.07170055
              -0.11066422                9.92869238               96.09910091                1.00000000               -0.03032765               -0.02864364                0.08445120               -0.00891126               -0.04466242               -0.00962615
               0.88903250                9.92287188               96.10523722                1.00000000               -0.06996552               -0.04599181                0.13263032                0.00982723               -0.11032261                0.05939268
               1.88793647                9.91728144               96.10958613                0.86645783               -0.07945918               -0.00823467                0.05493793               -0.04711032               -0.06555753               -0.02975808
               2.88744332                9.91176173               96.11702926                1.00000000               -0.05220669               -0.01326688                0.07747875               -0.03471790                0.05507238               -0.02383705
               3.88689233                9.90697811               96.12474764                1.00000000               -0.04864428               -0.03637311                0.08565112               -0.01208004                0.07501389                0.01263155
               4.88647043                9.90268165               96.13193752                1.00000000               -0.08088103               -0.03779182                0.11283179                0.04758713                0.11211937               -0.02470068
               5.88527471                9.89931327               96.14019094                1.00000000               -0.34619039               -0.05679308                0.19537477                0.35107992                0.36110194               -0.05111363
               6.87954662                9.90326171               96.15280409                0.99964195               -0.25784570                0.02171875               -0.01032275                0.25346193                0.23946199               -0.04409670
               7.88011780                9.90130325               96.15741465                1.00000000                0.03092112               -0.06493182                0.18951877                0.06202542               -0.18870248               -0.01984176
               8.88016505                9.89786504               96.16320812                0.65658809                0.00166028               -0.03529333                0.07641181                0.01894553               -0.07041054               -0.01609276
               9.88015100                9.89387706               96.16980482                0.37477149               -0.00140422               -0.00160945                0.00204895                0.02548273               -0.01999325               -0.01877082
              -0.16831777               -0.07216511               97.07686500                0.70862565               -0.03038765               -0.03030109                0.08125886                0.01097835                0.01396177                0.00922621
               0.83137835               -0.07626575               97.08042821                0.46857099               -0.03631004               -0.03963109                0.11835201               -0.00197853                0.04131911                0.00928545
               1.83095603               -0.08045111               97.08459795                0.23142067               -0.00551205               -0.05616441                0.14636247               -0.02904585                0.01098831                0.01311203
               2.83126811               -0.08518085               97.08765775                0.57917583                0.03290217               -0.04723125                0.08074627               -0.06042600               -0.14583074                0.03741424
               3.83161407               -0.08846544               97.08971026                0.97886144                0.02248176               -0.02766921                0.04451511               -0.03108645               -0.15216563                0.06232951
               4.83171775               -0.09102840               97.09215412                0.84466455                0.01500734               -0.01874812                0.03996476               -0.01195682               -0.13831153                0.02750533
               5.83191422               -0.09339796               97.09399573                0.43906171                0.01570292               -0.01131876                0.05022601               -0.01882287               -0.15222647                0.02080414
               6.83203181               -0.09557146               97.09572714                0.32366782               -0.06500402               -0.03024963                0.11886167               -0.03974496               -0.13635562               -0.01418195
               7.83061414               -0.09789893               97.09852264                0.61332742               -0.09438489               -0.04069217                0.12582584                0.05894295               -0.13383406               -0.09953156
               8.83014411               -0.10035843               97.10053757                0.80013759               -0.03231374               -0.03063024                0.07243789                0.00195503               -0.07015475                0.00077201
               9.82996786               -0.10282644               97.10339603                0.84554189               -0.01762438               -0.02017662                0.04241566               -0.01788364               -0.02033492               -0.02174856
              -0.16410734                0.92753188               97.08003351                0.45670469               -0.03910859               -0.03694664                0.11679569               -0.00237447                0.00999392                0.03168994
               0.83550157                0.92333794               97.08355915                0.01000001               -0.03847699               -0.03903636                0.15426562               -0.02356264                0.03485078                0.02986755
               1.83512312                0.91898724               97.08760899                0.01000001               -0.04152794               -0.06064396                0.19572538               -0.05945694                0.01181195                0.08117945
               2.83467101                0.91434684               97.09079899                0.01000001               -0.04480674               -0.03562258                0.15721791               -0.06718184                0.02645033                0.15941777
               3.83422698                0.91125787               97.09414916                0.89321081               -0.03032857               -0.02720905                0.08702832               -0.02632546                0.00303902                0.08541518
               4.83406444                0.90878412               97.09701786                0.99999998               -0.01147297               -0.02562101                0.06169506               -0.00536281               -0.04489166                0.03516499
               5.83399752                0.90648885               97.09932218                0.81539367               -0.00898016               -0.00609367                0.04797081               -0.02033604               -0.08577087                0.03580614
               6.83388484                0.90412604               97.10120486                0.24887792               -0.02002350               -0.01938042                0.08144560               -0.04412000               -0.08055332                0.01740702
               7.83359705                0.90169415               97.10356082                0.01000001               -0.06287106               -0.04175064                0.17873426                0.01910621               -0.02743737               -0.06530085
               8.83262742                0.89933526               97.10684661                0.10501363               -0.06700082               -0.06452170                0.15788489                0.03695106               -0.00061646               -0.10036182
               9.83225704                0.89697179               97.10958076                0.68058793               -0.03703798               -0.05851079                0.10359922                0.04727159               -0.02572112               -0.13763886
              -0.15997737                1.92709596               97.08371412                0.22267730               -0.05708879               -0.01081183                0.14869598               -0.03279246                0.01098242               -0.00928239
               0.83945174                1.92295352               97.08713343                0.01000001               -0.06323213               -0.04178079                0.20045785               -0.06046192                0.08331273               -0.00092315
               1.83875799                1.91833601               97.09194037                0.01000000               -0.08989480               -0.08471602                0.24175974               -0.06053015                0.18457016                0.17138734
               2.83765385                1.91410670               97.09591312                0.01000000               -0.10538522               -0.05235827                0.28044249               -0.00518300                0.07052196                0.22693766
               3.83665028                1.91099038               97.09898514                0.01000000               -0.06371668               -0.04283698                0.12643659                0.05052803                0.04379317                0.14340727
               4.83637951                1.90845918               97.10197445                0.14113029               -0.02423512                0.03784072                0.09186990                0.04950459                0.05848960                0.21513430
               5.83616558                1.90648017               97.10519575                0.99999998               -0.02177036                0.01365369                0.09049565                0.02904353                0.02800315                0.14600231
               6.83594410                1.90404093               97.10763237                1.00000000               -0.01892700               -0.01176042                0.06934204               -0.01892044               -0.03913984                0.06808467
               7.83578704                1.90126606               97.10941369                0.61094754               -0.01693064               -0.02764525                0.05347177               -0.04467767               -0.07604378               -0.00826789
               8.83560549                1.89835113               97.11109788                0.01000000               -0.00733986               -0.06355320                0.02849799                0.00754662               -0.03404628               -0.11846874
               9.83564024                1.89600334               97.11342482                0.48776708                0.00347514               -0.13398386                0.11401419                0.04048478               -0.05127801                0.01405356
              -0.15647831                2.92731565               97.08619002                0.58949397               -0.04693987                0.02681464                0.08318196               -0.06085979                0.03848031               -0.15861476
               0.84305229                2.92250232               97.08978197                0.01000002               -0.03811762               -0.04409051                0.15847525               -0.06586815                0.16622934                0.01583521
               1.84275933                2.91729292               97.09543320                0.01000000               -0.05696556               -0.09987364                0.27828696               -0.00332286                0.23905090                0.06005944
               2.84191298                2.91329968               97.10001571                0.01000000               -0.09371356               -0.08792337                0.27600682                0.13520609                0.16299238                0.15623528
               3.84088506                2.91040113               97.10444313                0.01000001               -0.11741130               -0.08422465                0.30462981                0.28296852                0.19362291                0.23455928
               4.83956475                2.90954094               97.11038250                0.01000001               -0.09442069               -0.03860719                0.19989896                0.24298202                0.12568807                0.27374774
               5.83899665                2.90676193               97.11265360                0.01000001               -0.04221086               -0.04155934                0.04368764                0.10283694               -0.00963780                0.15469426
               6.83872053                2.90389083               97.11447284                0.75004441               -0.03016760                0.01557219                0.09641711                0.00210366               -0.02093990                0.17786944
               7.83839330                2.90114125               97.11643532                0.99999999               -0.03397317                0.00269636                0.10532398               -0.01619155               -0.02637916                0.12830347
               8.83804107                2.89806420               97.11835472                0.91722001               -0.03154905               -0.03048723                0.09714907               -0.05013818               -0.03183622                0.02660261
               9.83776232                2.89429211               97.12044255                0.90877716               -0.02787543               -0.09464113                0.07055928               -0.09341812               -0.03191288                0.00334896
              -0.15156792                3.92763225               97.08785385                0.99200610               -0.02749775                0.02011457                0.04667962               -0.03042083                0.06101908               -0.15037142
               0.84815710                3.92207171               97.09274469                0.91100860               -0.02689524               -0.02940218                0.08685701               -0.02500174                0.08361010                0.00231922
               1.84789418                3.91633853               97.09801732                0.01000000               -0.04536734               -0.06095108                0.12425043                0.05184111                0.14526706                0.03779636
               2.84724976                3.91234824               97.10401624                0.01000001               -0.09128917               -0.10812502                0.30557258                0.28311471                0.23413849                0.19344017
               3.84606839                3.90930589               97.10989296                0.01000001               -0.11856987               -0.11208286                0.38020229                0.35795997                0.20720331                0.21597777
               4.84487836                3.90768704               97.11509469                0.01000001               -0.10979844               -0.16360801                0.25079875                0.39811806                0.11708922                0.14089919
               5.84387242                3.90564898               97.11951326                0.01000000               -0.16357519               -0.10544347                0.21947253                0.36909757                0.02261968                0.21800478
               6.84160686                3.90435237               97.12301282                0.01000001               -0.12912907               -0.05988249                0.11654710                0.27275634               -0.07902778                0.21254666
               7.84128984                3.90131999               97.12499130                0.01000002               -0.00774963               -0.06230207                0.07662407                0.10372376               -0.16240721                0.16105716
               8.84145186                3.89774139               97.12562633                0.99999999                0.00131059               -0.03600116                0.11003245                0.00295347               -0.10086302                0.00071345
               9.84131605                3.89411052               97.12771847                1.00000000               -0.01358087               -0.02583461                0.06015274               -0.01086968               -0.02532982                0.04006430
              -0.14596565                4.92771794               97.08996124                0.83534558               -0.01883810                0.01354792                0.04117925               -0.01130444                0.02583139               -0.13486227
               0.85384597                4.92191428               97.09525940                1.00000000               -0.02573605               -0.01110520                0.06113518               -0.00476080                0.03328811               -0.04298696
               1.85351963                4.91607390               97.10063865                0.09811901                0.03809710               -0.02375801                0.08963123                0.05192904                0.21403810                0.05825726
               2.85460792                4.91113718               97.10950373                0.01000000               -0.04070875               -0.08935425                0.18820740                0.24599833                0.27866609                0.13067892
               3.85270546                4.90815948               97.11469312                0.01000000               -0.17119460               -0.10261532                0.25262659                0.39529550                0.14415830                0.11949099
               4.85118402                4.90626878               97.12101637                0.01000001               -0.14960952               -0.14094040                0.30102523                0.46864202                0.13508156                0.13333074
               5.84971327                4.90465306               97.12594411                0.01000001               -0.13396864               -0.12677783                0.28414558                0.43557255                0.01428387                0.16355083
               6.84850465                4.90269318               97.12961415                0.01000001               -0.13172552               -0.16314971                0.26298092                0.39896663               -0.07973636                0.14026566
               7.84707876                4.89989521               97.13202053                0.01000001               -0.15975199               -0.12718601                0.22547818                0.28128372               -0.18988505                0.11829334
               8.84530961                4.89734418               97.13244581                0.39964660               -0.11360478               -0.04288945                0.16740506                0.10624081               -0.10515086                0.05926880
               9.84480666                4.89377542               97.13506955                1.00000000               -0.05029489               -0.10562336                0.12432724                0.04548092               -0.00190121                0.12111178
              -0.14018669                5.92790321               97.09145031                0.41902545               -0.01073839                0.01489871                0.05120833               -0.01812817                0.02219647               -0.14871341
               0.85970593                5.92184961               97.09722091                0.79995497               -0.00517247               -0.00933128                0.04738647               -0.02044332                0.03678523               -0.08481976
               1.85970986                5.91586337               97.10352322                0.99999998                0.01891113               -0.02105138                0.09099301                0.02890067                0.15379169                0.03024184
               2.86008415                5.91056115               97.11153739                0.01000000               -0.04335791               -0.04194000                0.04376926                0.09782953                0.15777481               -0.01362876
               3.85884270                5.90725358               97.11872689                0.01000000               -0.11632645               -0.15636723                0.22080560                0.36324108                0.21644873                0.02520962
               4.85775762                5.90486823               97.12555341                0.01000001               -0.13416164               -0.12839421                0.28576741                0.43239091                0.16699718                0.00895105
               5.85615947                5.90311342               97.13152997                0.01000001               -0.17067906               -0.16567362                0.35873716                0.44183644                0.05558009                0.04975502
               6.85434404                5.90108938               97.13602944                0.01000002               -0.19474730               -0.16227316                0.37346855                0.39108088               -0.07466914                0.04953534
               7.85226452                5.89877627               97.13918916                0.01000000               -0.23237867               -0.11211601                0.32441100                0.37782981               -0.20209624                0.03990242
               8.84969646                5.89688360               97.14057084                0.22873350               -0.14506695               -0.15609881                0.28709691                0.31012836               -0.11298152                0.11210078
               9.84936318                5.89199805               97.14367538                1.00000000               -0.03332805               -0.29875292                0.19129054                0.18522884               -0.00379170                0.32574915
              -0.13422100                6.92801591               97.09284846                0.31296929               -0.03020545               -0.06896952                0.12602115               -0.04065497               -0.01389006               -0.12917340
               0.86547695                6.92172765               97.09874907                0.25094573               -0.01964479               -0.02168133                0.08383066               -0.04576671                0.01990249               -0.07988347
               1.86538610                6.91565287               97.10565006                1.00000000               -0.01513248               -0.01731388                0.07054135               -0.02083126                0.06676257               -0.03744700
               2.86517430                6.91029838               97.11281487                0.60034262                0.01385472               -0.02821047                0.08943970               -0.00587552                0.17774782               -0.03226764
               3.86566320                6.90503213               97.12190423                0.01000001               -0.06011464               -0.13077792                0.12843452                0.26583439                0.22478944               -0.08328089
               4.86397200                6.90370089               97.12881898                0.01000001               -0.16671743               -0.12794438                0.26406592                0.39425166                0.14099284               -0.08806477
               5.86232885                6.90133958               97.13561947                0.01000002               -0.16542908               -0.19336967                0.37422806                0.38936698                0.05513356               -0.08378702
               6.86066342                6.89944772               97.14088377                0.01000001               -0.17438584               -0.17338657                0.39122361                0.45250175               -0.12047724               -0.12859910
               7.85884113                6.89765289               97.14471350                0.01000001               -0.11865129               -0.13670911                0.33552611                0.39917578               -0.19118576               -0.13909024
               8.85829040                6.89422220               97.14839512                0.58776325               -0.02793994               -0.19078325                0.12751910                0.26069008               -0.12592527                0.05680112
               9.85828233                6.88780036               97.15411895                0.99999999               -0.00080613               -0.21050335                0.00657447                0.11602333               -0.02728811                0.24792344
              -0.12842327                7.92652382               97.09542808                0.60910141               -0.04230957               -0.09690848                0.13017262                0.06183952               -0.10614887               -0.12785598
               0.87115363                7.92141598               97.10079426                0.01000001               -0.04271073               -0.06420715                0.18167595                0.02178374               -0.06742046               -0.02527856
               1.87072251                7.91551710               97.10708369                0.60636995               -0.02831259               -0.01484794                0.05407222               -0.04257760               -0.00734842               -0.07612322
               2.87058738                7.90999694               97.11444373                0.99999999                0.00171805               -0.03387759                0.10307086               -0.01763468                0.13031882               -0.02984049
               3.87075687                7.90463803               97.12344741                0.01000001               -0.06260900               -0.00924212                0.08004142                0.10142517                0.16329341               -0.17593360
               4.86933520                7.90230934               97.13081069                0.01000001               -0.12784458               -0.15764036                0.22758356                0.28060695                0.11855175               -0.20232896
               5.86819998                7.89924603               97.13836157                0.01000000               -0.11272145               -0.23529337                0.32764932                0.37508671                0.04533550               -0.21078614
               6.86708077                7.89762165               97.14430306                0.01000001               -0.13632119               -0.11926002                0.33577191                0.39976689               -0.13155161               -0.19910534
               7.86547356                7.89604209               97.14913776                0.01000001               -0.11589903               -0.11746622                0.26649952                0.36684689               -0.21467811               -0.22277954
               8.86476279                7.89306793               97.15295888                0.89587769               -0.04731158               -0.10043730                0.16646961                0.16742156               -0.14854477               -0.07042044
               9.86452733                7.88778798               97.15911680                0.64947160               -0.02354635                0.00194086                0.07217761                0.03427100               -0.00670762               -0.06563168
              -0.12276853                8.92607774               97.09706849                0.79614678               -0.03121257               -0.03087337                0.07271231                0.00211577                0.00096392               -0.06963658
               0.87691935                8.92044351               97.10375313                0.08617570               -0.06389398               -0.06731248                0.15872045                0.04028116               -0.09873129               -0.00013186
               1.87595359                8.91535591               97.10841162                0.01000000               -0.06093366               -0.00813698                0.02935137                0.00220680               -0.11375585               -0.03671946
               2.87570067                8.90962082               97.11604502                0.93461227               -0.02871468               -0.03239320                0.09600636               -0.04946172                0.02587006               -0.03479358
               3.87537930                8.90484729               97.12362874                0.99999999               -0.03622672                0.00397672                0.11333423                0.00452258               -0.00226562               -0.10892663
               4.87497614                8.90054809               97.13078987                0.42392212               -0.04305089               -0.11399404                0.17227640                0.10169676                0.06337850               -0.11397898
               5.87451828                8.89663372               97.13938574                0.22912507               -0.15567185               -0.14894042                0.27961990                0.31686463                0.11776145               -0.11850146
               6.87186270                8.89706252               97.14758219                0.59480046               -0.18932484               -0.02795330                0.12512495                0.26331087                0.06063206               -0.13105602
               7.87073178                8.89530356               97.15254366                0.90438283               -0.09848862               -0.04859987                0.16588933                0.16735810               -0.06786851               -0.15092335
               8.86989293                8.89221345               97.15813981                0.86482435               -0.06020651               -0.06071509                0.12217451                0.07486587               -0.02711695               -0.02918496
               9.86952765                8.88783918               97.16417891                0.01462878               -0.03652752                0.00443363                0.05247898                0.02455933               -0.00600586               -0.04226184
              -0.11711249                9.92590635               97.09957093                0.84593979               -0.02064225               -0.01713878                0.04189117               -0.01805894               -0.02048002               -0.01945378
               0.88268108                9.92006973               97.10612794                0.66121519               -0.06490856               -0.03737789                0.10541300                0.04857376               -0.13540582               -0.02660218
               1.88158933                9.91535436               97.11036350                0.46603092               -0.12871566               -0.00015570                0.10865269                0.02754144                0.01638286               -0.05330735
               2.88010677                9.90934908               97.11779895                0.90577010               -0.08346352               -0.02717475                0.06634429               -0.09123017                0.00704925               -0.03384276
               3.87992006                9.90471756               97.12541052                1.00000000               -0.02620318               -0.01297285                0.05928652               -0.01190420                0.04045932               -0.02637162
               4.87958271                9.90002946               97.13312339                1.00000000               -0.09486118               -0.05186222                0.12357633                0.03813980                0.12337198               -0.00146068
               5.87802284                9.89626722               97.14211293                1.00000000               -0.29527822               -0.03664957                0.17998781                0.20211182                0.32331168               -0.00792636
               6.87367714                9.89706258               97.15294763                0.99999999               -0.21765279                0.00000618                0.00264622                0.12158746                0.24767179               -0.02881120
               7.87366978                9.89507009               97.15832886                0.66115674                0.00236734               -0.02334726                0.06983340                0.03335258               -0.06588564               -0.00706126
               8.87372449                9.89185363               97.16379367                0.02009784                0.00486387               -0.03598224                0.05045739                0.02348434               -0.04215874               -0.00642329
               9.87376706                9.88787666               97.16967892                0.16837258                0.00425732                0.00374770               -0.01740820                0.02624327               -0.01490318               -0.01426535
              -0.17193485               -0.07542377               98.07771329                0.67375028               -0.03522199               -0.03555292                0.08884819                0.01575261                0.01498661                0.01135800
               0.82771293               -0.07948172               98.08162859                0.49305604               -0.04824998               -0.04007347                0.11647382                0.00953513                0.02562396                0.01023215
               1.82710015               -0.08358181               98.08588893                0.42376936               -0.02408608               -0.05417259                0.09518768               -0.00606833               -0.07491475                0.00977987
               2.82723120               -0.08842735               98.08797255                0.74702770                0.03541891               -0.03833824                0.02608474               -0.05131784               -0.17399203                0.07239366
               3.82780852               -0.09256373               98.09002474                0.79197776                0.04531643               -0.02313112                0.03229010               -0.04789121               -0.15396535                0.05604109
               4.82813753               -0.09582807               98.09245620                0.41796173                0.02942341               -0.01446866                0.04903357               -0.01901511               -0.14420204                0.00922813
               5.82839699               -0.09856016               98.09458485                0.35147601               -0.02480300               -0.03701061                0.13336680               -0.02975088               -0.13037760               -0.04085055
               6.82764147               -0.10137834               98.09754676                0.52735233               -0.05548137               -0.04356946                0.13683801                0.02879382               -0.15559760               -0.13148929
               7.82728736               -0.10414820               98.09924773                0.68832464               -0.02538810               -0.03735154                0.07649383                0.00613569               -0.12854971                0.02541079
               8.82713371               -0.10695975               98.10127897                0.67202798               -0.01462911               -0.03410097                0.07126888               -0.00010809               -0.07276425               -0.00096574
               9.82699478               -0.10953349               98.10375912                0.74757176               -0.01389275               -0.02810160                0.04899436               -0.01493327               -0.05125037               -0.01925126
              -0.16771937                0.92422070               98.08122142                0.48226226               -0.03933330               -0.05079520                0.11582610                0.00844677                0.01062725                0.01831305
               0.83188730                0.92011754               98.08512739                0.01299717               -0.03841774               -0.03914799                0.16631507               -0.00719557                0.04384431                0.04192955
               1.83151227                0.91587647               98.08963682                0.01000000               -0.03391531               -0.06409106                0.21150368               -0.04421943               -0.00963810                0.07611017
               2.83120899                0.91118927               98.09263371                0.55653798               -0.02411510               -0.02476944                0.14250973               -0.07639878               -0.08891467                0.17129383
               3.83102997                0.90720495               98.09503429                0.99999999               -0.01316978               -0.03332122                0.07479913               -0.04176446               -0.08206125                0.06269938
               4.83094559                0.90402725               98.09755117                0.82989066               -0.00776764               -0.00931897                0.04882939               -0.02320109               -0.08244494                0.02845829
               5.83087462                0.90106973               98.09976652                0.25187294               -0.01110807               -0.02428229                0.08555651               -0.03439562               -0.07748085               -0.00828936
               6.83072343                0.89818597               98.10236923                0.02202906               -0.03675948               -0.04535294                0.19499187                0.00883312                0.00444335               -0.11113786
               7.83013943                0.89547828               98.10612671                0.01000001               -0.04490809               -0.07233033                0.18699184                0.02157156               -0.00830312               -0.12677677
               8.82982527                0.89269924               98.10823856                0.02593469               -0.03601239               -0.10195582                0.14773316                0.04326301               -0.03435686               -0.20434380
               9.82941918                0.89018550               98.11079388                0.45101460               -0.04060891                0.03977655                0.15158532                0.00932718               -0.01369969               -0.18440685
              -0.16355959                1.92356033               98.08500876                0.42228955               -0.05271575               -0.02833133                0.09381350               -0.00530458                0.00932158               -0.09276172
               0.83591325                1.91973532               98.08920657                0.01000000               -0.06481892               -0.03435942                0.21215539               -0.04324176                0.07625466               -0.02106931
               1.83514403                1.91513637               98.09435887                0.01000001               -0.07692534               -0.07316585                0.27352479               -0.04167725                0.13923002                0.13168165
               2.83437474                1.91107726               98.09899307                0.01000001               -0.05043843               -0.03355024                0.19647719               -0.04270604               -0.01883466                0.15081743
               3.83413526                1.90676984               98.10015931                0.01000001               -0.02830055               -0.01814855                0.12781198               -0.03180556               -0.06043441                0.19997202
               4.83380873                1.90398555               98.10322317                0.99999999               -0.02924499                0.01840430                0.10367330                0.01472715                0.02246164                0.16401353
               5.83355036                1.90095419               98.10602952                0.99899695               -0.01995714               -0.00474921                0.06574132               -0.01780313               -0.01680483                0.06644270
               6.83340959                1.89771460               98.10817348                0.68555379               -0.01724163               -0.02889923                0.06353602               -0.03792478               -0.05695168               -0.01158853
               7.83320553                1.89440519               98.11002577                0.02788820               -0.00589171               -0.06753090                0.14556705               -0.03164529               -0.10872346               -0.14205428
               8.83329175                1.89100113               98.11125806                0.01000003               -0.04983624               -0.10165533                0.31702529                0.14919510               -0.01193217               -0.25422130
               9.83220880                1.89126204               98.11485061                0.35578727               -0.10829518               -0.15429284                0.35363007                0.33820947                0.09134610               -0.34693362
              -0.16017544                2.92365408               98.08650528                0.75891199               -0.03781476                0.03208955                0.02647985               -0.04987761                0.07246740               -0.18257898
               0.83944642                2.91943035               98.09162494                0.56228665               -0.02438914               -0.02404767                0.14334339               -0.07481144                0.17224924               -0.09810655
               1.83933678                2.91441315               98.09845739                0.01000003               -0.03625077               -0.04748985                0.19329133               -0.04205703                0.15827676               -0.02908702
               2.83872140                2.91051827               98.10300030                0.01000000               -0.09256046               -0.08635610                0.37637887                0.06492992                0.09085182                0.08193375
               3.83748557                2.90684198               98.10762026                0.01000000               -0.08328083               -0.03146749                0.26791146                0.11224304                0.07825766                0.30344434
               4.83705578                2.90439533               98.11087618                0.01000001               -0.03480321               -0.02094511                0.03858231                0.08348122                0.02586949                0.19209941
               5.83678951                2.90097475               98.11310664                0.84880872               -0.02709210                0.02457792                0.04225631               -0.00229112               -0.00230479                0.16839237
               6.83651394                2.89760798               98.11541023                0.99999999               -0.02847552               -0.00813169                0.07317739               -0.02438741               -0.01114353                0.10584721
               7.83622000                2.89412766               98.11748088                1.00000000               -0.02808120               -0.02915715                0.08151347               -0.02407850               -0.03037521                0.03637893
               8.83595232                2.89066613               98.11922582                0.70261535               -0.02792287               -0.02948062                0.09399227               -0.04280888               -0.03589959                0.00773769
               9.83566154                2.88709964               98.12105487                0.72555228               -0.02907784               -0.21690140                0.11390693               -0.00949656               -0.03880984               -0.08675111
              -0.15610970                3.92420212               98.08818955                0.79202713               -0.02323582                0.04294278                0.03354526               -0.04614692                0.05452534               -0.15106411
               0.84365794                3.91925436               98.09362859                0.99999999               -0.03376645               -0.01335744                0.07549500               -0.04018150                0.06139837               -0.08166556
               1.84321497                3.91418658               98.09918013                0.01000002               -0.02067185               -0.02730451                0.12891657               -0.03110581                0.20322606               -0.06344912
               2.84324451                3.90935014               98.10716897                0.01000001               -0.03559603               -0.07616253                0.26553872                0.11431053                0.31090864                0.07389550
               3.84250305                3.90614049               98.11344110                0.01000003               -0.09494594               -0.09025725                0.42031822                0.24385228                0.18716175                0.18404064
               4.84134559                3.90356665               98.11829930                0.01000003               -0.11055832               -0.10104229                0.33306812                0.25738310                0.04646896                0.22963962
               5.84029189                3.90144575               98.12169766                0.01000000               -0.07883310               -0.03884141                0.14941017                0.14754469               -0.05898967                0.26231581
               6.83976893                3.89755197               98.12339569                0.01000002               -0.03130388               -0.02032500                0.05581283                0.03159549               -0.03689458                0.18003203
               7.83966581                3.89382205               98.12496116                0.01000000               -0.01526644               -0.01906349                0.03262744                0.02549848               -0.03937228                0.12637421
               8.83946360                3.89041152               98.12641520                0.73519742               -0.02569812               -0.01212144                0.08144896                0.00394919               -0.04077682                0.01512039
               9.83915185                3.88692402               98.12824226                1.00000000               -0.03117513               -0.01596599                0.07521321               -0.01026597               -0.02705372                0.01944226
              -0.15120286                4.92451293               98.09026934                0.40363370               -0.01388109                0.02825746                0.04922707               -0.01784038                0.00795329               -0.14001161
               0.84865833                4.91916320               98.09578726                0.82202932               -0.00891278               -0.00872595                0.04846657               -0.02189483                0.02761715               -0.08013093
               1.84861888                4.91386706               98.10188440                0.99999999                0.01976831               -0.02842692                0.10452253                0.01836361                0.16612155                0.02538620
               2.84905370                4.90899501               98.11001729                0.01000001               -0.02363882               -0.03089638                0.03875063                0.08391137                0.19514178                0.02185281
               3.84814611                4.90503684               98.11790398                0.01000004               -0.10777555               -0.10512633                0.33503234                0.25571375                0.22829726                0.04796418
               4.84689818                4.90237449               98.12427561                0.01000001               -0.11955123               -0.11574774                0.34495629                0.33757322                0.11960020                0.12076028
               5.84575508                4.90019792               98.12902664                0.01000005               -0.10643132               -0.13053378                0.31402606                0.30310524                0.01670498                0.22495652
               6.84476956                4.89720148               98.13238710                0.01000000               -0.09423327               -0.07537457                0.24227096                0.18718107               -0.10015839                0.29604898
               7.84387042                4.89374639               98.13427070                0.01000002               -0.09201131               -0.04777198                0.18502715                0.08371606               -0.21785035                0.27322867
               8.84292933                4.89042370               98.13428377                1.00000000               -0.07195994               -0.00116852                0.15371787               -0.00035149               -0.11530255                0.13273758
               9.84243122                4.88678032               98.13638671                1.00000000               -0.04981124               -0.02326725                0.10389276               -0.00260045                0.00351026                0.11484902
              -0.14576705                5.92476727               98.09205236                0.34386046               -0.03670340               -0.02827474                0.14091403               -0.03137882               -0.04278441               -0.11964136
               0.85386592                5.91907984               98.09765878                0.24710694               -0.02412591               -0.01321881                0.08684116               -0.03480286               -0.00811750               -0.07253196
               1.85375044                5.91361804               98.10437330                0.99821865               -0.00564809               -0.01917586                0.06622739               -0.01468601                0.06696210               -0.01281479
               2.85375296                5.90873221               98.11187790                0.82762951                0.02437111               -0.02776554                0.03710377               -0.00149595                0.16580951               -0.00356934
               3.85423786                5.90403797               98.12094223                0.01000001               -0.04084937               -0.07652460                0.15349912                0.15206719                0.26412849               -0.05278894
               4.85293597                5.90125170               98.12865386                0.01000000               -0.13554307               -0.10344336                0.31595888                0.30251133                0.22359075                0.01472641
               5.85152700                5.89883508               98.13552896                0.01000001               -0.14859465               -0.14533724                0.44330705                0.29846126                0.12207576                0.12099389
               6.84996408                5.89604448               98.14030371                0.01000000               -0.17045419               -0.15704625                0.50550350                0.20964152               -0.05680960                0.07298632
               7.84811791                5.89286661               98.14272794                0.01000000               -0.17707186               -0.12899562                0.51024904                0.19946899               -0.19484347                0.00070049
               8.84642264                5.89038815               98.14368767                0.51631604               -0.08656582               -0.08108514                0.19118294                0.16506851               -0.12177296                0.06245724
               9.84638660                5.88645867               98.14546603                1.00000000               -0.00360445               -0.19762271                0.09995196                0.12677072               -0.06278215                0.21025365
              -0.14045559                6.92394744               98.09481650                0.52607115               -0.04329119               -0.05816669                0.14398466                0.02983961               -0.14021866               -0.14698053
               0.85911150                6.91889883               98.09997107                0.03012916               -0.04358107               -0.03840850                0.19955249                0.01099354               -0.11636233                0.01073769
               1.85867279                6.91348354               98.10617825                0.68513824               -0.02538271               -0.01701661                0.06237868               -0.03334480               -0.01146317               -0.05432865
               2.85860385                6.90843970               98.11381306                0.99999999               -0.00024116               -0.03129417                0.07772873               -0.02256204                0.12061142               -0.01198198
               3.85866797                6.90350635               98.12243793                0.01000000               -0.02262751               -0.03121976                0.05626073                0.02994678                0.18164219               -0.04115220
               4.85815130                6.90030562               98.13160345                0.01000001               -0.08682211               -0.09148671                0.24545362                0.18464595                0.28582076               -0.10577922
               5.85693153                6.89729118               98.13990497                0.01000000               -0.16102199               -0.16897425                0.50782569                0.20843250                0.07438365               -0.06263789
               6.85493086                6.89406056               98.14537721                0.01000003               -0.17076997               -0.16943678                0.44406781                0.20752355               -0.12105478               -0.12571986
               7.85351613                6.89116648               98.14829490                0.01000005               -0.11461107               -0.12885606                0.34422293                0.30041345               -0.27079080               -0.17105685
               8.85263864                6.88880200               98.14994266                0.81565079               -0.03452729               -0.13931291                0.15183710                0.20297294               -0.18085586               -0.04637362
               9.85282558                6.88282787               98.15406098                0.99999999                0.01869451               -0.19935259               -0.02591440                0.01672281               -0.04544720                0.22167795
              -0.13507303                7.92360393               98.09614770                0.68293848               -0.03772823               -0.02521016                0.07700004                0.00627227                0.02476811               -0.12532037
               0.86454968                7.91831167               98.10341488                0.01000001               -0.06921516               -0.04516728                0.18985361                0.02366291               -0.12744861               -0.00635594
               1.86354266                7.91327771               98.10768895                0.05296379               -0.06353848               -0.00669760                0.14450149               -0.02963256               -0.14051927               -0.10603517
               2.86327891                7.90810633               98.11553919                0.99999999               -0.02858923               -0.02982009                0.08438614               -0.02644330                0.04137654               -0.03317889
               3.86297088                7.90341357               98.12345152                0.01000000               -0.02174275               -0.01530771                0.03438819                0.01652931                0.12803537               -0.05170539
               4.86284406                7.89942196               98.13308501                0.01000002               -0.05150851               -0.09191681                0.18848548                0.07817189                0.27190281               -0.22693293
               5.86194071                7.89545559               98.14192958                0.01000000               -0.13024072               -0.17656810                0.50975433                0.19595531                0.00244285               -0.20716176
               6.86023924                7.89265574               98.14788234                0.01000005               -0.12779837               -0.11408588                0.34316276                0.29823680               -0.16812551               -0.27777996
               7.85938474                7.89028949               98.15186514                0.49515053               -0.07092659               -0.07117425                0.21076575                0.31571171               -0.24170102               -0.24672587
               8.85882071                7.88760189               98.15465338                1.00000000               -0.03577140               -0.10012580                0.14957768                0.18142014               -0.14938897               -0.08339986
               9.85866931                7.88247162               98.15962438                0.33140595               -0.01514004               -0.01710381                0.02844034                0.03118749               -0.02971598                0.02587153
              -0.12974562                8.92344323               98.09781795                0.67163908               -0.03433932               -0.01527587                0.07233397               -0.00051569               -0.00087008               -0.07089885
               0.86991099                8.91799548               98.10515035                0.01982402               -0.09844496               -0.03607317                0.14841051                0.04442454               -0.20104236               -0.03482594
               1.86828548                8.91334959               98.10860075                0.01000000               -0.09859361               -0.04830814                0.31339256                0.14491333               -0.25185199               -0.01477410
               2.86793912                8.90784330               98.11689456                0.71459959               -0.03012798               -0.02646647                0.09221903               -0.04455190                0.00474398               -0.03825239
               3.86768293                8.90320019               98.12444236                0.76532930               -0.01332023               -0.02632333                0.08278911                0.00150912                0.01319988               -0.04496478
               4.86767271                8.89846728               98.13266068                0.99999999               -0.00330351               -0.07182831                0.15445055               -0.00244868                0.12855787               -0.12113726
               5.86761686                8.89375982               98.14238415                0.51146909               -0.08055062               -0.08776157                0.18797116                0.16437758                0.06397705               -0.12727550
               6.86606170                8.89177884               98.14910188                0.82056819               -0.13663195               -0.03505664                0.15060856                0.20140314               -0.04074094               -0.18379737
               7.86488422                8.88974300               98.15422375                0.99999999               -0.09883977               -0.03489296                0.14917537                0.17949724               -0.08074909               -0.15140334
               8.86408491                8.88679948               98.15933143                0.15393187               -0.05871738               -0.05865235                0.10469682                0.09469457               -0.04187352               -0.04341670
               9.86370987                8.88248579               98.16462219                0.01000001               -0.03750378                0.00600587                0.04214992                0.03928755               -0.02285619               -0.01859606
              -0.12418784                9.92329842               98.09993873                0.75053486               -0.02803405               -0.01448169                0.04929517               -0.01504342               -0.01829087               -0.04976016
               0.87553182                9.91759021               98.10734548                0.44271058                0.03904759               -0.04052720                0.15088353                0.01273887               -0.18366083               -0.01321060
               1.87659311                9.91231154               98.11175918                0.33190628               -0.14972707               -0.10380494                0.34994203                0.33010201               -0.33775385                0.08425352
               2.87253728                9.90757700               98.11835614                0.70587088               -0.21080145               -0.02663009                0.10732320               -0.01140627               -0.08493627               -0.04045386
               3.87237708                9.90288710               98.12593337                0.99999999               -0.01509061               -0.03130894                0.07059581               -0.01016478                0.01863656               -0.02501249
               4.87223546                9.89798540               98.13440904                1.00000000               -0.02301885               -0.04818869                0.09992474               -0.00306218                0.11089778                0.00310835
               5.87191670                9.89370036               98.14379070                1.00000000               -0.19756681               -0.00594539                0.09517727                0.12844545                0.20243459               -0.05988918
               6.86828413                9.89195461               98.15285701                0.99999999               -0.19813299                0.01757691               -0.02905273                0.01680581                0.22465385               -0.04511914
               7.86795404                9.88959163               98.15881132                0.33142188               -0.01561587               -0.01513692                0.02670988                0.03069437                0.02521545               -0.02943002
               8.86797181                9.88642884               98.16421727                0.01000270                0.00642006               -0.03706403                0.04088577                0.03869587               -0.01869281               -0.02344781
               9.86808244                9.88259174               98.16945666                0.20516845                0.01106350                0.01059465                0.22329996                0.05354725                0.01554107                0.01510054
              -0.17584864               -0.07895421               99.07864196                0.60185380               -0.04361639               -0.04431215                0.09115292                0.00373957                0.00370598                0.00205486
               0.82371520               -0.08305871               99.08275768                0.46612822               -0.05187948               -0.03427433                0.12091008               -0.01506979               -0.01133415                0.04040442
               1.82311377               -0.08775131               99.08650170                0.59650073               -0.00313684               -0.02091864                0.06915820               -0.06880192               -0.07570899                0.07663786
               2.82365246               -0.09305528               99.08817944                0.67141482                0.04686731               -0.01925153                0.04171508               -0.09634078               -0.14035282                0.05853393
               3.82405112               -0.09736372               99.09035606                0.51146982                0.03105674               -0.02589925                0.06452544               -0.03720697               -0.10606465                0.02460050
               4.82427359               -0.10103377               99.09313479                0.45208890                0.00824946               -0.03799087                0.11860570               -0.01975869               -0.04345055               -0.03506760
               5.82421611               -0.10457832               99.09666306                0.52691569               -0.00083099               -0.05432909                0.15215812                0.00075323               -0.08364684               -0.13240674
               6.82425698               -0.10784619               99.09846390                0.55125877                0.00474135               -0.08772485                0.11014013                0.00713619               -0.13157029                0.02087479
               7.82431093               -0.11114868               99.10005252                0.58916640               -0.00397706               -0.04707460                0.08782830                0.00253592               -0.11416708                0.00978831
               8.82417743               -0.11429693               99.10196295                0.60829938               -0.01641821               -0.04337690                0.06962455                0.00295147               -0.07362582                0.00132698
               9.82398257               -0.11728100               99.10437592                0.77849942               -0.01948644               -0.05268393                0.06942065               -0.00942402               -0.04705643               -0.00041919
              -0.17170674                0.92060267               99.08235003                0.46139842               -0.03302064               -0.05444643                0.12105409               -0.01730863                0.04014824               -0.01744472
               0.82796305                0.91659855               99.08688545                0.50096905               -0.04346105               -0.04533535                0.16570844               -0.03258233                0.06608236                0.06446500
               1.82742404                0.91203950               99.09183906                0.66811094               -0.02338994               -0.00498039                0.13450336               -0.06020136               -0.00860678                0.11331646
               2.82749525                0.90675220               99.09364919                0.96678561                0.01221277               -0.00941312                0.06911145               -0.09189778               -0.13318235                0.08693280
               3.82766829                0.90237729               99.09564515                0.85804731                0.00940272               -0.01162125                0.05494035               -0.05027569               -0.09081371                0.02803690
               4.82768331                0.89858632               99.09799445                0.44614073               -0.00192239               -0.02758901                0.07533656               -0.04069838               -0.04018315               -0.01984595
               5.82762985                0.89487839               99.10103332                0.54754015               -0.00348963               -0.04763867                0.15968986               -0.03233442                0.04800715               -0.10010294
               6.82761352                0.89127656               99.10510469                0.45148206               -0.00340923               -0.06928229                0.16339098                0.00270181                0.02058123               -0.11056048
               7.82756166                0.88838057               99.10730066                0.16504031               -0.01702035               -0.08902572                0.13922791                0.01049030               -0.01712211               -0.09996559
               8.82727311                0.88526930               99.10980127                0.35979190               -0.03446294               -0.17118107                0.17885192                0.00880796                0.01464943               -0.01583110
               9.82687240                0.88219216               99.11261247                0.80071744               -0.04007065               -0.19576593                0.17838751                0.00726007                0.01650291               -0.01859946
              -0.16818656                1.91995687               99.08559039                0.59970383               -0.01867143               -0.00596959                0.06646027               -0.07030566                0.07543691               -0.08496216
               0.83162672                1.91603458               99.09137654                0.66772003               -0.00286743               -0.02401854                0.13191548               -0.06128370                0.11283937               -0.01444459
               1.83175609                1.91214908               99.09741087                0.01000000               -0.00750043               -0.00747911                0.13431061               -0.10763302                0.03439228                0.02827853
               2.83147672                1.90675646               99.09984267                0.52876361               -0.02723000                0.00051255                0.05924076               -0.13366673               -0.04704344                0.18148234
               3.83121149                1.90240386               99.10154137                0.99999999               -0.02590939                0.04054673                0.09929791               -0.07179829               -0.05639326                0.17965433
               4.83095853                1.89841445               99.10404792                0.95767168               -0.01661584               -0.01397599                0.06900084               -0.05112496               -0.02836933                0.05627112
               5.83087917                1.89446891               99.10651058                0.47934182               -0.00748513               -0.02083781                0.06558060               -0.04298092               -0.02681882               -0.03439752
               6.83080883                1.89076816               99.10890309                0.62104111               -0.01755876               -0.02454932                0.13430851               -0.04440993                0.01582422               -0.10871821
               7.83052800                1.88707081               99.11232503                0.60539068               -0.01334085               -0.07235672                0.18995177               -0.10400867                0.14008282               -0.13073259
               8.83054201                1.88227945               99.11743839                0.52582770               -0.01229694               -0.11037470                0.34477159               -0.08955727                0.10138216               -0.12205935
               9.83028206                1.87880368               99.12049742                0.78204348               -0.02599492               -0.15133611                0.35320720               -0.02479660                0.05182470               -0.32777157
              -0.16526829                2.92048328               99.08671961                0.68059178               -0.01865426                0.04450243                0.04241926               -0.09495696                0.05777480               -0.14389845
               0.83454517                2.91611818               99.09264884                0.98155933               -0.00911012                0.01207504                0.06996618               -0.09128032                0.08648241               -0.13765519
               1.83454951                2.91188992               99.09929903                0.52975012                0.00109874               -0.02532686                0.05848293               -0.13467490                0.18593375               -0.05433099
               2.83456714                2.90676245               99.10754328                0.66417802                0.00124157                0.00263501                0.22996066               -0.04857246                0.10797492                0.10111974
               3.83457434                2.90318822               99.10980136                0.01000003                0.00143090                0.01495632                0.08861682               -0.04929275               -0.10780521                0.29503603
               4.83459576                2.89830680               99.11115414                0.63538970               -0.00789153                0.02329811                0.03485205               -0.10669711               -0.04963748                0.24303269
               5.83441651                2.89446163               99.11349872                0.99999999               -0.02361713                0.02531921                0.05069787               -0.04020736               -0.00425045                0.10483067
               6.83412342                2.89078558               99.11593639                0.98199522               -0.02231533                0.01039864                0.04631274               -0.03657725               -0.01058213                0.03175072
               7.83397020                2.88693344               99.11806559                0.55126463               -0.01871639               -0.00065729                0.06759596               -0.03844415               -0.01157488               -0.04828784
               8.83374909                2.88306181               99.12023456                0.87304546               -0.03210947                0.03531946                0.10867006               -0.04773964                0.00578654               -0.20077793
               9.83332801                2.87916544               99.12272069                0.99135090               -0.04210774                0.01819221                0.11187036               -0.04769748                0.03892370               -0.27908675
              -0.16135549                3.92084691               99.08852475                0.50537868               -0.02500255                0.02858069                0.06414319               -0.03578952                0.02285323               -0.10146860
               0.83839448                3.91627609               99.09425459                0.86158424               -0.01130957                0.00816436                0.05548692               -0.04831420                0.02749063               -0.08926721
               1.83841832                3.91164254               99.10059565                0.99999999                0.04062394               -0.02507304                0.10107270               -0.07022049                0.18148486               -0.05640436
               2.83920696                3.90680916               99.10932702                0.01000000                0.01314881                0.00514235                0.08742132               -0.05077654                0.29985367               -0.11248466
               3.83868129                3.90270298               99.11829933                0.68400013               -0.08278918               -0.07852950                0.26185256                0.02550018                0.15887337                0.15735267
               4.83755118                3.89888041               99.12175605                0.77098479               -0.05425225                0.00113120                0.17102105                0.00649546               -0.11075331                0.27503788
               5.83759625                3.89497529               99.12250147                0.99999999                0.00271477                0.04296284                0.04787976               -0.01924535               -0.12109188                0.19209436
               6.83760547                3.89097614               99.12412907                0.99999998               -0.00566833                0.04602816                0.05375284               -0.03918093               -0.05611728                0.17488616
               7.83748288                3.88705766               99.12564385                0.65765711               -0.01251269                0.03297797                0.06871795               -0.05677096               -0.04845630                0.12705183
               8.83735522                3.88298584               99.12725531                0.70976226               -0.01810133               -0.01676750                0.08476723               -0.03758405               -0.01989737                0.02822345
               9.83712085                3.87916752               99.12922273                0.89601971               -0.02343645               -0.01584004                0.07367005               -0.01468258                0.01427998               -0.02023584
              -0.15684242                4.92105490               99.09094578                0.44972588               -0.03743213                0.00581548                0.12263088               -0.02232991               -0.03577693               -0.03364676
               0.84278326                4.91628146               99.09622874                0.44553948               -0.02727754               -0.00304661                0.07544726               -0.04191455               -0.02070688               -0.03593903
               1.84261203                4.91138846               99.10272910                0.96267019               -0.01460436               -0.01646599                0.07020343               -0.05022479                0.05646546               -0.02656529
               2.84249117                4.90686530               99.11027874                0.62495805                0.02005316               -0.00575777                0.03402679               -0.10731864                0.24586370               -0.05231251
               3.84301309                4.90161763               99.12139376                0.77763732               -0.00189040               -0.05195656                0.17340644                0.00660666                0.27920622               -0.10953728
               4.84245336                4.89832942               99.12791550                0.91272339               -0.05386098               -0.05227447                0.17806871                0.18973894                0.05453312                0.05866248
               5.84193587                4.89532089               99.13222463                0.54447993               -0.05979664               -0.01601611                0.14810365                0.13658048               -0.05541147                0.23859506
               6.84125743                4.89170614               99.13445957                0.01000000               -0.05553959               -0.07085715                0.10076888                0.03377548               -0.10390412                0.33073895
               7.84082508                4.88759300               99.13572108                0.01000001               -0.01849422               -0.11457950                0.07912258               -0.07394332               -0.15589470                0.39835765
               8.84088754                4.88272646               99.13552017                0.83362214               -0.00770434               -0.02559932                0.10846042               -0.07883347               -0.10081488                0.08612459
               9.84067099                4.87884864               99.13714740                0.99999999               -0.02165520               -0.03193374                0.06836521               -0.01628388                0.00332469                0.04522296
              -0.15225523                5.92096322               99.09426859                0.52883980               -0.05221406               -0.00369685                0.15775420                0.00058773               -0.14188350               -0.07483853
               0.84722263                5.91621515               99.09895774                0.55267074               -0.04573928               -0.00475761                0.16179777               -0.03226582               -0.10500439                0.05405557
               1.84682998                5.91131322               99.10484777                0.48113675               -0.01956093               -0.00689023                0.06454573               -0.04091622               -0.03486851               -0.02488586
               2.84683141                5.90669400               99.11227946                0.99999998                0.02596605               -0.02339301                0.05142164               -0.04068465                0.10979153               -0.00403668
               3.84734931                5.90166385               99.12179687                0.99999998                0.04056446                0.00410820                0.04921666               -0.01832613                0.19228166               -0.12230845
               4.84764270                5.89783492               99.13187258                0.53633592               -0.01990833               -0.05876313                0.14930887                0.13795643                0.23468771               -0.05329067
               5.84695114                5.89465497               99.14039611                0.99999999               -0.08169143               -0.08173416                0.24088900               -0.00845182                0.16450969                0.16465753
               6.84600887                5.88955899               99.14613951                0.95986011               -0.09837230               -0.11757234                0.29654866               -0.06469655                0.03905304                0.25128969
               7.84498369                5.88476607               99.14939414                0.57843979               -0.07429795               -0.12492278                0.35378422                0.04748237               -0.35315479                0.28940023
               8.84452291                5.88247385               99.14439450                0.99999997               -0.02164350               -0.01987228                0.06556884                0.08912162               -0.32860216                0.05210710
               9.84455082                5.87852885               99.14567441                0.99999999                0.00279104               -0.03865319                0.02045931                0.02878727               -0.03676246                0.06022178
              -0.14733452                6.92098096               99.09572816                0.54712174               -0.08775318                0.00263677                0.11117196                0.01018367                0.01971138               -0.12758072
               0.85178794                6.91618631               99.10274012                0.45383572               -0.06753097               -0.00527830                0.16374944                0.00552367               -0.11245768                0.02550514
               1.85131486                6.91125065               99.10689764                0.61917961               -0.02305485               -0.01696627                0.13384817               -0.04155245               -0.10969750                0.01756681
               2.85132685                6.90639744               99.11436944                0.97976726                0.00953973               -0.02210720                0.04848787               -0.03649623                0.03285538               -0.01012939
               3.85150565                6.90169980               99.12302945                0.99999999                0.04472637               -0.00321820                0.04540773               -0.04104140                0.16679984               -0.05938039
               4.85222137                6.89715416               99.13372805                0.01151941               -0.07314463               -0.05607320                0.10378831                0.03194495                0.32629777               -0.10522247
               5.85004276                6.89368621               99.14577598                0.95280955               -0.11844891               -0.10156775                0.29852679               -0.06495461                0.25033679                0.03447325
               6.84985240                6.88935469               99.14976513                0.22058379               -0.05914456               -0.06088090                0.22293895               -0.04089165               -0.15529511               -0.15695392
               7.84885987                6.88509454               99.15159796                0.80059355               -0.04725992                0.02063272                0.16922602                0.09295614               -0.23066257               -0.24682024
               8.84890720                6.88232901               99.15143186                1.00000000                0.01384397               -0.02313426                0.08087698                0.12369449               -0.16840773               -0.04233766
               9.84913675                6.87807557               99.15360066                0.67913779                0.02295491               -0.03923193               -0.03087662                0.04666565               -0.08247678                0.15064438
              -0.14246227                7.92101596               99.09696808                0.58692878               -0.04743259               -0.00561125                0.08980014                0.00355285                0.00985205               -0.11159076
               0.85706341                7.91610959               99.10459133                0.16969830               -0.08749635               -0.01849629                0.13974462                0.01428471               -0.10071281               -0.01585507
               1.85578781                7.91097390               99.10997372                0.61059604               -0.07055340               -0.01302288                0.18836507               -0.10001253               -0.13344125                0.13997581
               2.85565234                7.90625186               99.11613145                0.56232758               -0.00080238               -0.01793058                0.06767179               -0.03736568               -0.04852608               -0.01174440
               3.85577176                7.90159949               99.12413517                0.66550726                0.03214250               -0.01168317                0.06794922               -0.05834365                0.12477459               -0.05483657
               4.85629519                7.89671345               99.13458040                0.01000002               -0.11601236               -0.01764235                0.08099573               -0.07958736                0.39310671               -0.16292652
               5.85345151                7.89262361               99.14855665                0.58450002               -0.12562452               -0.07295585                0.35173125                0.04708908                0.28552767               -0.35796375
               6.85378270                7.88834138               99.15116632                0.80178382                0.02084902               -0.04713977                0.16815940                0.09555023               -0.24477768               -0.23274977
               7.85386849                7.88517872               99.15335307                0.98555201                0.01165366                0.01173853                0.07601776                0.18485905               -0.18406238               -0.18562751
               8.85401577                7.88201117               99.15595044                0.72883829                0.00612627               -0.02738888                0.08726731                0.11576537               -0.09288127               -0.08022395
               9.85399102                7.87774421               99.15968560                0.57260996               -0.00247549               -0.02202978                0.00959427                0.04091767               -0.04133631                0.06629776
              -0.13745072                8.92086873               99.09851516                0.60967603               -0.04335759               -0.01731831                0.07051395                0.00328802                0.00181603               -0.07200904
               0.86211570                8.91581639               99.10672134                0.35774602               -0.16884707               -0.03471664                0.17901618                0.01227320               -0.01732363                0.01448064
               1.85917234                8.91099019               99.11467947                0.52716814               -0.10808802               -0.01256710                0.33851091               -0.08708853               -0.12458172                0.10136362
               2.85995394                8.90603883               99.11788940                0.86707070                0.03524219               -0.03175068                0.10745793               -0.04712737               -0.19955817                0.00397709
               3.85987718                8.90146613               99.12528452                0.70827504               -0.01742201               -0.01821049                0.08468473               -0.03846924                0.02526234               -0.02496954
               4.85960550                8.89680131               99.13387888                0.83942016               -0.02602814               -0.00592760                0.10813430               -0.07954488                0.08475095               -0.10566871
               5.85935662                8.89222709               99.14314516                0.99999997               -0.01986062               -0.01836329                0.06826897                0.08913164                0.05452681               -0.33079776
               6.85920829                8.88841190               99.15059436                0.99999999               -0.02346807                0.01542795                0.08123944                0.12345608               -0.04065534               -0.16968525
               7.85888726                8.88532931               99.15552717                0.73787569               -0.02756352                0.00638084                0.08769353                0.11573440               -0.07928564               -0.09406734
               8.85865702                8.88178124               99.16023374                0.35552207               -0.01991203               -0.01990837                0.07061141                0.04975918               -0.03227206               -0.03235613
               9.85848902                8.87763498               99.16502191                0.95736309               -0.01680032                0.03827569                0.06597569                0.06577814               -0.01676850                0.21776587
              -0.13229181                9.92066959               99.10055683                0.77964631               -0.05207766               -0.01991397                0.06907868               -0.00954291               -0.00048575               -0.04563910
               0.86718741                9.91541525               99.10914561                0.79480811               -0.19422964               -0.04011324                0.17672724                0.00981895               -0.01958624                0.01594775
               1.86382359                9.91072255               99.11736234                0.76670457               -0.14767789               -0.02676407                0.35034380               -0.02479472               -0.32590347                0.05075917
               2.86423385                9.90561684               99.11994542                0.97371118                0.02081489               -0.04219860                0.10889803               -0.04637259               -0.27927667                0.03513503
               3.86423989                9.90123528               99.12682244                0.87315743               -0.01452577               -0.02308565                0.06950508               -0.01482578               -0.02078041                0.01076486
               4.86394334                9.89659490               99.13512189                0.99977310               -0.03081664               -0.02064091                0.06535602               -0.01516284                0.04407788                0.00325922
               5.86362356                9.89225635               99.14401647                0.99999999               -0.03968710                0.00292582                0.02145836                0.02944596                0.06055134               -0.03725711
               6.86314960                9.88864994               99.15236658                0.68148109               -0.04048595                0.02380391               -0.03247008                0.04663044                0.15297920               -0.08289997
               7.86281384                9.88530634               99.15886306                0.56493975               -0.02221508               -0.00229733                0.00887601                0.04081181                0.06674622               -0.04146838
               8.86270529                9.88161300               99.16461139                0.94739925                0.03926296               -0.01682351                0.06367186                0.06499680                0.21806949               -0.01603156
               9.86359910                9.87850973               99.17414492                0.99999997                0.08938056                0.08747478                0.39610063                0.20068084                0.32142506                0.32180672
              -0.18009217               -0.08279880              100.07953635                1.00000000               -0.02813235               -0.02778168                0.08943840               -0.00254600                0.02669129                0.02615555
               0.81962651               -0.08692918              100.08404679                1.00000000                0.01281879               -0.02828348                0.12891105               -0.08690756               -0.02208200                0.05242961
               1.82016421               -0.09272377              100.08727209                1.00000000                0.04716407               -0.00426021                0.07703894               -0.12212956               -0.05695341                0.00823479
               2.82056979               -0.09819616              100.08880686                1.00000000                0.02838362               -0.05391362                0.06274135               -0.07935964               -0.10610942                0.00681999
               3.82073188               -0.10264990              100.09131525                1.00000000                0.01958651               -0.07697254                0.09591865                0.01102780               -0.03085091               -0.04683282
               4.82096152               -0.10624873              100.09482832                1.00000000                0.03315346               -0.10340663                0.16935213                0.01427927               -0.01556942               -0.09853655
               5.82139495               -0.10994880              100.09762801                1.00000000                0.03295454               -0.08310393                0.09649489               -0.06672809               -0.03605347               -0.00381695
               6.82162061               -0.11424243              100.09974957                1.00000000                0.00550148               -0.02220050                0.12856628               -0.10028587               -0.09482252               -0.05087507
               7.82150498               -0.11844872              100.10100429                1.00000000               -0.01414083               -0.03448195                0.09517738               -0.05882811               -0.13450070                0.06069361
               8.82133779               -0.12260986              100.10267146                1.00000000               -0.01386349               -0.04829705                0.07085163               -0.03144669               -0.07680236                0.08312051
               9.82122771               -0.12601497              100.10514753                1.00000000               -0.01100850               -0.02930211                0.07716086               -0.05059793               -0.02787966                0.04801353
              -0.17598725                0.91692338              100.08364250                1.00000000               -0.02928340                0.01451518                0.12924707               -0.09008829                0.05185462               -0.02784839
               0.82371991                0.91278799              100.08844156                1.00000000                0.02818275                0.03061100                0.15561063               -0.14833481                0.00990550                0.00884816
               1.82457640                0.90723363              100.09232689                1.00000000                0.05096713                0.04828708                0.04878316               -0.21608747               -0.00604478                0.00806272
               2.82473926                0.90126470              100.09401594                1.00000000                0.01460180               -0.04955094                0.03667480               -0.09598372               -0.08528961                0.01980116
               3.82486844                0.89658038              100.09613310                1.00000000                0.00072528               -0.05716959                0.04879502               -0.02386131               -0.02788727               -0.03819014
               4.82475376                0.89271721              100.09905790                1.00000000               -0.00719610               -0.08999954                0.10634551               -0.00247958                0.04840649               -0.09816737
               5.82472452                0.88922016              100.10296032                1.00000000                0.00569744               -0.11251827                0.19270057               -0.02088893                0.03842444               -0.08016645
               6.82486771                0.88553557              100.10563705                1.00000000                0.01879475               -0.05245153                0.05323582               -0.08613448                0.02296691               -0.01859500
               7.82510041                0.88120646              100.10891127                1.00000000               -0.00306304               -0.02628346                0.16106095               -0.13307450                0.06280240               -0.07638583
               8.82480645                0.87690717              100.11181560                1.00000000               -0.04867868                0.03682535                0.20143312               -0.08526186                0.02585217               -0.06211207
               9.82412684                0.87369201              100.11436163                1.00000000               -0.06796118                0.03066815                0.17491627               -0.02653954               -0.01995327               -0.01165377
              -0.17362314                1.91749150              100.08633797                1.00000000               -0.00272944                0.04591831                0.07475732               -0.12540276                0.00703325               -0.06097831
               0.82634956                1.91368304              100.09184488                1.00000000                0.04944435                0.05056059                0.04683443               -0.21863959                0.00763955               -0.00601915
               1.82736574                1.90824197              100.09704508                1.00000000                0.14769026                0.14540578               -0.03657846               -0.46428080               -0.02238460               -0.02570282
               2.82930337                1.90081282              100.10017788                1.00000000                0.07182021                0.08958058                0.03352164               -0.31979766                0.03767418                0.08481515
               3.82880215                1.89620671              100.10214527                1.00000000               -0.05156118               -0.02978127                0.06038912               -0.10056836               -0.01966905                0.04326032
               4.82827214                1.89195128              100.10460319                1.00000000               -0.03216695               -0.05846772                0.05552749               -0.03969821               -0.00884500               -0.02055046
               5.82815881                1.88780084              100.10734114                1.00000000               -0.01802610               -0.10698447                0.08305601               -0.00225026                0.04078661               -0.10879336
               6.82791162                1.88470854              100.11085965                1.00000000               -0.03434618               -0.12592760                0.19565631                0.00462496                0.03446299               -0.07099087
               7.82747188                1.88102561              100.11382481                1.00000000               -0.03823074               -0.06816870                0.14997773                0.00040104                0.05908033               -0.10844301
               8.82714701                1.87812665              100.11815349                1.00000000               -0.01723229               -0.00367609                0.07150985                0.00896403                0.06499718                0.06390056
               9.82712724                1.87459839              100.12191475                1.00000000               -0.00197678               -0.04497080                0.14173347                0.01422076                0.06064441                0.02600360
              -0.17087839                2.91784175              100.08735367                1.00000000               -0.05249656                0.02275408                0.06340502               -0.07871288                0.00605052               -0.10743127
               0.82859665                2.91379920              100.09302427                1.00000000               -0.04803024                0.01030396                0.03754286               -0.09563525                0.01881710               -0.08722591
               1.82816101                2.91014175              100.09962704                1.00000000                0.08909583                0.06932222                0.03280143               -0.31681927                0.08991279                0.03300809
               2.83037857                2.90305631              100.10759952                1.00000000                0.17787988                0.17760858                0.00562345               -0.59612257                0.06941976                0.06636120
               3.83171861                2.89598475              100.10939259                1.00000000                0.09935539                0.07442166               -0.04087702               -0.35295595               -0.08688790                0.10629731
               4.83236567                2.89154785              100.11157322                1.00000000                0.01018217                0.01773849                0.04190799               -0.11240203                0.01339140                0.17993207
               5.83192225                2.88708047              100.11412059                1.00000000               -0.03151193               -0.06195493                0.06218706               -0.05963077               -0.01126283                0.02759014
               6.83173543                2.88301702              100.11633648                1.00000000               -0.01159624               -0.10910170                0.04000911                0.01775976               -0.00318793               -0.09630164
               7.83169033                2.87984309              100.11883280                1.00000000               -0.01612438               -0.11590076                0.07672133                0.09575966                0.02514931               -0.08349993
               8.83141295                2.87683365              100.12139922                1.00000000               -0.01112824               -0.12181325                0.11646557                0.06446344               -0.01064042               -0.12496327
               9.83146776                2.87279259              100.12329228                1.00000000                0.00548139               -0.12529027                0.05715890                0.01466300                0.00328081               -0.24723883
              -0.16711230                3.91794658              100.08947241                1.00000000               -0.07508404                0.01272086                0.09476559                0.01395739               -0.04908948               -0.02161874
               0.83213686                3.91388912              100.09473832                1.00000000               -0.05577273               -0.00289620                0.04837356               -0.02269714               -0.03930349               -0.02509978
               1.83177224                3.90962842              100.10120159                1.00000000               -0.02994744               -0.05290526                0.06059345               -0.09934769                0.04434617               -0.01834128
               2.83153791                3.90436499              100.10891739                1.00000000                0.07396225                0.09700046               -0.04096237               -0.35027665                0.10692310               -0.08950110
               3.83325149                3.89769514              100.11867815                1.00000000                0.16952368                0.16819000                0.03788276               -0.38420350                0.09713607                0.09819180
               4.83492838                3.89230605              100.12171972                1.00000000                0.11227700                0.09416758               -0.00363268               -0.31705487               -0.06342421                0.15575223
               5.83549703                3.88656174              100.12265526                1.00000000                0.02879098               -0.00026440                0.01537921               -0.17995067               -0.07237099                0.05205069
               6.83550420                3.88252651              100.12447074                1.00000000                0.00367077               -0.06055953                0.03416703               -0.01972749               -0.02611430                0.05833693
               7.83557044                3.87870760              100.12633552                1.00000000               -0.00087172               -0.09399168                0.06916673                0.05827409               -0.00925355                0.01601077
               8.83548677                3.87569038              100.12811055                1.00000000               -0.00339177               -0.09133217                0.08552340                0.07293778               -0.01783763                0.02314235
               9.83550261                3.87209259              100.12971567                1.00000000                0.00158405               -0.07797483                0.04929337                0.02899470               -0.00131271                0.01559318
              -0.16248431                4.91809616              100.09272195                1.00000000               -0.10548187                0.02707683                0.17761746                0.02097502               -0.10676404               -0.00912159
               0.83646087                4.91374127              100.09729620                1.00000000               -0.09087514               -0.01197735                0.10674669                0.00186345               -0.10391312                0.05380146
               1.83569819                4.90908364              100.10328846                1.00000000               -0.05772822               -0.03383172                0.05593638               -0.03929266               -0.02130275               -0.00735022
               2.83530631                4.90499632              100.11069783                1.00000000                0.01976443                0.00978968                0.04190867               -0.11366538                0.18569568                0.01254887
               3.83609348                4.89934855              100.12137211                1.00000000                0.09258386                0.11304849               -0.00216585               -0.31631187                0.16499598               -0.06448778
               4.83715798                4.89343120              100.12783698                1.00000000                0.10046526                0.10336405               -0.00785198               -0.40856323                0.00129264                0.00619410
               5.83810278                4.88707518              100.13198871                1.00000000                0.10185215                0.10075690               -0.02359122               -0.32860704               -0.05503410                0.06000358
               6.83919503                4.88180582              100.13440248                1.00000000                0.07945760                0.16191039               -0.00570940               -0.14345143               -0.01301864                0.09816560
               7.83969193                4.87796325              100.13585315                1.00000000                0.01458416                0.20350643                0.01320708                0.02152819               -0.01078963                0.21043056
               8.83948671                4.87500701              100.13645298                1.00000000               -0.02243444               -0.00858974                0.09328157                0.06767006               -0.04504012                0.07247959
               9.83924324                4.87123310              100.13775401                1.00000000               -0.02434661               -0.04413729                0.06066138                0.00205455               -0.01267161                0.04642354
              -0.15798302                5.91848812              100.09520744                1.00000000               -0.08303305                0.03000836                0.09388532               -0.06390302               -0.00404929               -0.03161139
               0.84118665                5.91364957              100.10089474                1.00000000               -0.11428188                0.00170312                0.19369983               -0.01521679               -0.08075915                0.04093485
               1.83973134                5.90895178              100.10566422                1.00000000               -0.10934801               -0.01873583                0.08164473                0.00312716               -0.10928446                0.04219380
               2.83899969                5.90456078              100.11290633                1.00000000               -0.06204869               -0.03055982                0.06268702               -0.05864137                0.02994515               -0.00907258
               3.83849037                5.89995611              100.12192656                1.00000000                0.00153982                0.03159407                0.01296938               -0.18177841                0.05079184               -0.07207479
               4.83903049                5.89437333              100.13164004                1.00000000                0.10299483                0.10310767               -0.02325414               -0.33032515                0.05978759               -0.05404691
               5.84055026                5.88857688              100.14034674                1.00000000                0.13583093                0.13724555               -0.00493649               -0.04051054                0.08964468                0.08653044
               6.84174710                5.88576472              100.14623468                1.00000000                0.11247805                0.20444211                0.00951747                0.05043978                0.04666723                0.39224768
               7.84279983                5.88277772              100.14980362                1.00000000                0.09116099                0.21539449                0.04094795               -0.13509595               -0.28016847                0.59247923
               8.84357032                5.87551859              100.14499905                1.00000000                0.01458445                0.06961497                0.06045483               -0.18934045               -0.29167910                0.05983442
               9.84309151                5.87120984              100.14587521                1.00000000               -0.04788090                0.02982343                0.02008006               -0.05111427               -0.05831394                0.05257119
              -0.15408528                6.91869633              100.09703994                1.00000000               -0.02218528                0.00484968                0.13117781               -0.09907366               -0.05446270               -0.09164960
               0.84569287                6.91377534              100.10324606                1.00000000               -0.05326017                0.01818905                0.05059436               -0.08221379               -0.01874336                0.02465387
               1.84484952                6.90870892              100.10885522                1.00000000               -0.12818611               -0.03281997                0.19575782                0.01060819               -0.06969598                0.03542888
               2.84312915                6.90438512              100.11478281                1.00000000               -0.11020813               -0.01046480                0.04133730                0.02093823               -0.09522639               -0.00191668
               3.84264536                6.89998043              100.12334608                1.00000000               -0.05992143                0.00528255                0.03166385               -0.01823553                0.05879068               -0.02773939
               4.84193072                6.89549336              100.13367921                1.00000000                0.16279143                0.08196339               -0.00488366               -0.14530558                0.09740584               -0.01283584
               5.84590119                6.88982010              100.14587551                1.00000000                0.20361267                0.11751318                0.00995295                0.04581921                0.39368164                0.04426213
               6.84600297                6.88589467              100.14983599                1.00000000                0.06674774                0.07033983                0.00708628                0.06256072               -0.09474654               -0.09546026
               7.84723614                6.88227114              100.15167942                1.00000000                0.06324044               -0.00649981                0.00814605               -0.06879063               -0.07616211               -0.10324638
               8.84726778                6.87639930              100.15156020                1.00000000               -0.01988461                0.08384704                0.01283366               -0.16906707               -0.07574016               -0.02298680
               9.84683845                6.87182957              100.15344345                1.00000000               -0.04293333                0.05832419               -0.01572127               -0.09293683               -0.04150480                0.07245170
              -0.15012250                7.91858511              100.09794370                1.00000000               -0.03477173               -0.01410167                0.09756230               -0.05899406                0.06058305               -0.13366998
               0.84952978                7.91401335              100.10620977                1.00000000               -0.02718903               -0.00222591                0.16184352               -0.12911952               -0.07773532                0.06460709
               1.84933372                7.90829538              100.11145625                1.00000000               -0.06914184               -0.03603359                0.14825249                0.00572009               -0.11126586                0.05793640
               2.84814694                7.90435149              100.11689263                1.00000000               -0.11581457               -0.01381222                0.07611774                0.09900717               -0.08282703                0.02300838
               3.84701743                7.90006177              100.12481050                1.00000000               -0.09311157                0.00165515                0.06753283                0.06072217                0.01518161               -0.01427373
               4.84628471                7.89601260              100.13470493                1.00000000                0.20239561                0.01595317                0.01245327                0.02208734                0.20663749               -0.01287786
               5.85106534                7.89092714              100.14896421                1.00000000                0.21312791                0.09319722                0.04075526               -0.13751810                0.58841252               -0.27594625
               6.85054727                7.88717151              100.15124553                1.00000000               -0.00729817                0.06451046                0.00792083               -0.07079006               -0.10247842               -0.07245239
               7.85091938                7.88264773              100.15338550                1.00000000                0.00416442                0.00402615                0.00324220               -0.17765017               -0.03725170               -0.03818996
               8.85063056                7.87719553              100.15639873                1.00000000               -0.02735595                0.05460512                0.04482923               -0.17972299               -0.01698307               -0.02239116
               9.85037226                7.87237633              100.15981626                1.00000000               -0.02583033                0.02761124                0.01306601               -0.13393449               -0.02012293                0.08812404
              -0.14612164                8.91841430              100.09922823                1.00000000               -0.04781529               -0.01414074                0.07130656               -0.03097849                0.08315246               -0.07661338
               0.85340021                8.91373082              100.10873067                1.00000000                0.03737136               -0.04763678                0.20093349               -0.08106190               -0.06441251                0.02495592
               1.85462579                8.90798825              100.11537097                1.00000000               -0.00286489               -0.01671917                0.06914922                0.01597888                0.06099780                0.06529634
               2.85334291                8.90410888              100.11904372                1.00000000               -0.12135508               -0.00919112                0.11543243                0.06849905               -0.12284868               -0.01092128
               3.85219869                8.90001354              100.12613605                1.00000000               -0.09179089               -0.00176021                0.08515353                0.07355581                0.02113290               -0.01961097
               4.85150709                8.89581242              100.13482337                1.00000000               -0.01033878               -0.02240130                0.09444831                0.06543875                0.07083317               -0.04832744
               5.85199191                8.89168404              100.14374953                1.00000000                0.06797448                0.01427245                0.06043747               -0.19049221                0.05869480               -0.29152200
               6.85286658                8.88718488              100.15072667                1.00000000                0.08336044               -0.02096673                0.01323105               -0.16912586               -0.02276636               -0.07459778
               7.85365912                8.88235167              100.15597762                1.00000000                0.05390703               -0.02786213                0.04504473               -0.17843435               -0.02196425               -0.01759766
               8.85394472                8.87749141              100.16074366                1.00000000                0.00695214                0.00786964                0.05099135               -0.17745486                0.02697467                0.02561578
               9.85379816                8.87238179              100.16594170                1.00000000               -0.01465600               -0.07972351                0.09197890               -0.25738024                0.05071913                0.35280179
              -0.14137511                9.91830230              100.10132030                1.00000000               -0.02903010               -0.01120000                0.07634703               -0.04951523                0.04764232               -0.02752222
               0.85833459                9.91306062              100.11088002                1.00000000                0.03251716               -0.06701997                0.17344152               -0.02362686               -0.01299439               -0.02052829
               1.85927523                9.90796100              100.11876606                1.00000000               -0.04214740               -0.00272514                0.14037239                0.02029670                0.02786767                0.06335414
               2.85749164                9.90416766              100.12053410                1.00000000               -0.12451148                0.00587839                0.05886857                0.01815099               -0.24635048                0.00412013
               3.85678500                9.90002656              100.12732348                1.00000000               -0.07843278                0.00130242                0.05010386                0.02847709                0.01361412               -0.00212937
               4.85592299                9.89556457              100.13571616                1.00000000               -0.04509827               -0.02478454                0.05942784                0.00089053                0.04278416               -0.01375297
               5.85588304                9.89121259              100.14421987                1.00000000                0.02870713               -0.04714519                0.02033917               -0.05150721                0.05052027               -0.05734269
               6.85649713                9.88675218              100.15220761                1.00000000                0.05805595               -0.04326983               -0.01589642               -0.09305061                0.07320194               -0.04168172
               7.85704416                9.88209049              100.15898884                1.00000000                0.02771047               -0.02611803                0.01257838               -0.13145914                0.08718614               -0.02046329
               8.85705134                9.87735292              100.16549070                1.00000000               -0.08001365               -0.01384853                0.08793158               -0.25477006                0.35409575                0.04869664
               9.85544388                9.87078186              100.17737867                1.00000000               -0.16074533               -0.15999342                0.32337516               -0.49253447                0.37327505                0.37091015
         1          2         13         12        122        123        134        133  
         2          3         14         13        123        124        135        134  
         3          4         15         14        124        125        136        135  
         4          5         16         15        125        126        137        136  
         5          6         17         16        126        127        138        137  
         6          7         18         17        127        128        139        138  
         7          8         19         18        128        129        140        139  
         8          9         20         19        129        130        141        140  
         9         10         21         20        130        131        142        141  
        10         11         22         21        131        132        143        142  
        12         13         24         23        133        134        145        144  
        13         14         25         24        134        135        146        145  
        14         15         26         25        135        136        147        146  
        15         16         27         26        136        137        148        147  
        16         17         28         27        137        138        149        148  
        17         18         29         28        138        139        150        149  
        18         19         30         29        139        140        151        150  
        19         20         31         30        140        141        152        151  
        20         21         32         31        141        142        153        152  
        21         22         33         32        142        143        154        153  
        23         24         35         34        144        145        156        155  
        24         25         36         35        145        146        157        156  
        25         26         37         36        146        147        158        157  
        26         27         38         37        147        148        159        158  
        27         28         39         38        148        149        160        159  
        28         29         40         39        149        150        161        160  
        29         30         41         40        150        151        162        161  
        30         31         42         41        151        152        163        162  
        31         32         43         42        152        153        164        163  
        32         33         44         43        153        154        165        164  
        34         35         46         45        155        156        167        166  
        35         36         47         46        156        157        168        167  
        36         37         48         47        157        158        169        168  
        37         38         49         48        158        159        170        169  
        38         39         50         49        159        160        171        170  
        39         40         51         50        160        161        172        171  
        40         41         52         51        161        162        173        172  
        41         42         53         52        162        163        174        173  
        42         43         54         53        163        164        175        174  
        43         44         55         54        164        165        176        175  
        45         46         57         56        166        167        178        177  
        46         47         58         57        167        168        179        178  
        47         48         59         58        168        169        180        179  
        48         49         60         59        169        170        181        180  
        49         50         61         60        170        171        182        181  
        50         51         62         61        171        172        183        182  
        51         52         63         62        172        173        184        183  
        52         53         64         63        173        174        185        184  
        53         54         65         64        174        175        186        185  
        54         55         66         65        175        176        187        186  
        56         57         68         67        177        178        189        188  
        57         58         69         68        178        179        190        189  
        58         59         70         69        179        180        191        190  
        59         60         71         70        180        181        192        191  
        60         61         72         71        181        182        193        192  
        61         62         73         72        182        183        194        193  
        62         63         74         73        183        184        195        194  
        63         64         75         74        184        185        196        195  
        64         65         76         75        185        186        197        196  
        65         66         77         76        186        187        198        197  
        67         68         79         78        188        189        200        199  
        68         69         80         79        189        190        201        200  
        69         70         81         80        190        191        202        201  
        70         71         82         81        191        192        203        202  
        71         72         83         82        192        193        204        203  
        72         73         84         83        193        194        205        204  
        73         74         85         84        194        195        206        205  
        74         75         86         85        195        196        207        206  
        75         76         87         86        196        197        208        207  
        76         77         88         87        197        198        209        208  
        78         79         90         89        199        200        211        210  
        79         80         91         90        200        201        212        211  
        80         81         92         91        201        202        213        212  
        81         82         93         92        202        203        214        213  
        82         83         94         93        203        204        215        214  
        83         84         95         94        204        205        216        215  
        84         85         96         95        205        206        217        216  
        85         86         97         96        206        207        218        217  
        86         87         98         97        207        208        219        218  
        87         88         99         98        208        209        220        219  
        89         90        101        100        210        211        222        221  
        90         91        102        101        211        212        223        222  
        91         92        103        102        212        213        224        223  
        92         93        104        103        213        214        225        224  
        93         94        105        104        214        215        226        225  
        94         95        106        105        215        216        227        226  
        95         96        107        106        216        217        228        227  
        96         97        108        107        217        218        229        228  
        97         98        109        108        218        219        230        229  
        98         99        110        109        219        220        231        230  
       100        101        112        111        221        222        233        232  
       101        102        113        112        222        223        234        233  
       102        103        114        113        223        224        235        234  
       103        104        115        114        224        225        236        235  
       104        105        116        115        225        226        237        236  
       105        106        117        116        226        227        238        237  
       106        107        118        117        227        228        239        238  
       107        108        119        118        228        229        240        239  
       108        109        120        119        229        230        241        240  
       109        110        121        120        230        231        242        241  
       122        123        134        133        243        244        255        254  
       123        124        135        134        244        245        256        255  
       124        125        136        135        245        246        257        256  
       125        126        137        136        246        247        258        257  
       126        127        138        137        247        248        259        258  
       127        128        139        138        248        249        260        259  
       128        129        140        139        249        250        261        260  
       129        130        141        140        250        251        262        261  
       130        131        142        141        251        252        263        262  
       131        132        143        142        252        253        264        263  
       133        134        145        144        254        255        266        265  
       134        135        146        145        255        256        267        266  
       135        136        147        146        256        257        268        267  
       136        137        148        147        257        258        269        268  
       137        138        149        148        258        259        270        269  
       138        139        150        149        259        260        271        270  
       139        140        151        150        260        261        272        271  
       140        141        152        151        261        262        273        272  
       141        142        153        152        262        263        274        273  
       142        143        154        153        263        264        275        274  
       144        145        156        155        265        266        277        276  
       145        146        157        156        266        267        278        277  
       146        147        158        157        267        268        279        278  
       147        148        159        158        268        269        280        279  
       148        149        160        159        269        270        281        280  
       149        150        161        160        270        271        282        281  
       150        151        162        161        271        272        283        282  
       151        152        163        162        272        273        284        283  
       152        153        164        163        273        274        285        284  
       153        154        165        164        274        275        286        285  
       155        156        167        166        276        277        288        287  
       156        157        168        167        277        278        289        288  
       157        158        169        168        278        279        290        289  
       158        159        170        169        279        280        291        290  
       159        160        171        170        280        281        292        291  
       160        161        172        171        281        282        293        292  
       161        162        173        172        282        283        294        293  
       162        163        174        173        283        284        295        294  
       163        164        175        174        284        285        296        295  
       164        165        176        175        285        286        297        296  
       166        167        178        177        287        288        299        298  
       167        168        179        178        288        289        300        299  
       168        169        180        179        289        290        301        300  
       169        170        181        180        290        291        302        301  
       170        171        182        181        291        292        303        302  
       171        172        183        182        292        293        304        303  
       172        173        184        183        293        294        305        304  
       173        174        185        184        294        295        306        305  
       174        175        186        185        295        296        307        306  
       175        176        187        186        296        297        308        307  
       177        178        189        188        298        299        310        309  
       178        179        190        189        299        300        311        310  
       179        180        191        190        300        301        312        311  
       180        181        192        191        301        302        313        312  
       181        182        193        192        302        303        314        313  
       182        183        194        193        303        304        315        314  
       183        184        195        194        304        305        316        315  
       184        185        196        195        305        306        317        316  
       185        186        197        196        306        307        318        317  
       186        187        198        197        307        308        319        318  
       188        189        200        199        309        310        321        320  
       189        190        201        200        310        311        322        321  
       190        191        202        201        311        312        323        322  
       191        192        203        202        312        313        324        323  
       192        193        204        203        313        314        325        324  
       193        194        205        204        314        315        326        325  
       194        195        206        205        315        316        327        326  
       195        196        207        206        316        317        328        327  
       196        197        208        207        317        318        329        328  
       197        198        209        208        318        319        330        329  
       199        200        211        210        320        321        332        331  
       200        201        212        211        321        322        333        332  
       201        202        213        212        322        323        334        333  
       202        203        214        213        323        324        335        334  
       203        204        215        214        324        325        336        335  
       204        205        216        215        325        326        337        336  
       205        206        217        216        326        327        338        337  
       206        207        218        217        327        328        339        338  
       207        208        219        218        328        329        340        339  
       208        209        220        219        329        330        341        340  
       210        211        222        221        331        332        343        342  
       211        212        223        222        332        333        344        343  
       212        213        224        223        333        334        345        344  
       213        214        225        224        334        335        346        345  
       214        215        226        225        335        336        347        346  
       215        216        227        226        336        337        348        347  
       216        217        228        227        337        338        349        348  
       217        218        229        228        338        339        350        349  
       218        219        230        229        339        340        351        350  
       219        220        231        230        340        341        352        351  
       221        222        233        232        342        343        354        353  
       222        223        234        233        343        344        355        354  
       223        224        235        234        344        345        356        355  
       224        225        236        235        345        346        357        356  
       225        226        237        236        346        347        358        357  
       226        227        238        237        347        348        359        358  
       227        228        239        238        348        349        360        359  
       228        229        240        239        349        350        361        360  
       229        230        241        240        350        351        362        361  
       230        231        242        241        351        352        363        362  
       243        244        255        254        364        365        376        375  
       244        245        256        255        365        366        377        376  
       245        246        257        256        366        367        378        377  
       246        247        258        257        367        368        379        378  
       247        248        259        258        368        369        380        379  
       248        249        260        259        369        370        381        380  
       249        250        261        260        370        371        382        381  
       250        251        262        261        371        372        383        382  
       251        252        263        262        372        373        384        383  
       252        253        264        263        373        374        385        384  
       254        255        266        265        375        376        387        386  
       255        256        267        266        376        377        388        387  
       256        257        268        267        377        378        389        388  
       257        258        269        268        378        379        390        389  
       258        259        270        269        379        380        391        390  
       259        260        271        270        380        381        392        391  
       260        261        272        271        381        382        393        392  
       261        262        273        272        382        383        394        393  
       262        263        274        273        383        384        395        394  
       263        264        275        274        384        385        396        395  
       265        266        277        276        386        387        398        397  
       266        267        278        277        387        388        399        398  
       267        268        279        278        388        389        400        399  
       268        269        280        279        389        390        401        400  
       269        270        281        280        390        391        402        401  
       270        271        282        281        391        392        403        402  
       271        272        283        282        392        393        404        403  
       272        273        284        283        393        394        405        404  
       273        274        285        284        394        395        406        405  
       274        275        286        285        395        396        407        406  
       276        277        288        287        397        398        409        408  
       277        278        289        288        398        399        410        409  
       278        279        290        289        399        400        411        410  
       279        280        291        290        400        401        412        411  
       280        281        292        291        401        402        413        412  
       281        282        293        292        402        403        414        413  
       282        283        294        293        403        404        415        414  
       283        284        295        294        404        405        416        415  
       284        285        296        295        405        406        417        416  
       285        286        297        296        406        407        418        417  
       287        288        299        298        408        409        420        419  
       288        289        300        299        409        410        421        420  
       289        290        301        300        410        411        422        421  
       290        291        302        301        411        412        423        422  
       291        292        303        302        412        413        424        423  
       292        293        304        303        413        414        425        424  
       293        294        305        304        414        415        426        425  
       294        295        306        305        415        416        427        426  
       295        296        307        306        416        417        428        427  
       296        297        308        307        417        418        429        428  
       298        299        310        309        419        420        431        430  
       299        300        311        310        420        421        432        431  
       300        301        312        311        421        422        433        432  
       301        302        313        312        422        423        434        433  
       302        303        314        313        423        424        435        434  
       303        304        315        314        424        425        436        435  
       304        305        316        315        425        426        437        436  
       305        306        317        316        426        427        438        437  
       306        307        318        317        427        428        439        438  
       307        308        319        318        428        429        440        439  
       309        310        321        320        430        431        442        441  
       310        311        322        321        431        432        443        442  
       311        312        323        322        432        433        444        443  
       312        313        324        323        433        434        445        444  
       313        314        325        324        434        435        446        445  
       314        315        326        325        435        436        447        446  
       315        316        327        326        436        437        448        447  
       316        317        328        327        437        438        449        448  
       317        318        329        328        438        439        450        449  
       318        319        330        329        439        440        451        450  
       320        321        332        331        441        442        453        452  
       321        322        333        332        442        443        454        453  
       322        323        334        333        443        444        455        454  
       323        324        335        334        444        445        456        455  
       324        325        336        335        445        446        457        456  
       325        326        337        336        446        447        458        457  
       326        327        338        337        447        448        459        458  
       327        328        339        338        448        449        460        459  
       328        329        340        339        449        450        461        460  
       329        330        341        340        450        451        462        461  
       331        332        343        342        452        453        464        463  
       332        333        344        343        453        454        465        464  
       333        334        345        344        454        455        466        465  
       334        335        346        345        455        456        467        466  
       335        336        347        346        456        457        468        467  
       336        337        348        347        457        458        469        468  
       337        338        349        348        458        459        470        469  
       338        339        350        349        459        460        471        470  
       339        340        351        350        460        461        472        471  
       340        341        352        351        461        462        473        472  
       342        343        354        353        463        464        475        474  
       343        344        355        354        464        465        476        475  
       344        345        356        355        465        466        477        476  
       345        346        357        356        466        467        478        477  
       346        347        358        357        467        468        479        478  
       347        348        359        358        468        469        480        479  
       348        349        360        359        469        470        481        480  
       349        350        361        360        470        471        482        481  
       350        351        362        361        471        472        483        482  
       351        352        363        362        472        473        484        483  
       364        365        376        375        485        486        497        496  
       365        366        377        376        486        487        498        497  
       366        367        378        377        487        488        499        498  
       367        368        379        378        488        489        500        499  
       368        369        380        379        489        490        501        500  
       369        370        381        380        490        491        502        501  
       370        371        382        381        491        492        503        502  
       371        372        383        382        492        493        504        503  
       372        373        384        383        493        494        505        504  
       373        374        385        384        494        495        506        505  
       375        376        387        386        496        497        508        507  
       376        377        388        387        497        498        509        508  
       377        378        389        388        498        499        510        509  
       378        379        390        389        499        500        511        510  
       379        380        391        390        500        501        512        511  
       380        381        392        391        501        502        513        512  
       381        382        393        392        502        503        514        513  
       382        383        394        393        503        504        515        514  
       383        384        395        394        504        505        516        515  
       384        385        396        395        505        506        517        516  
       386        387        398        397        507        508        519        518  
       387        388        399        398        508        509        520        519  
       388        389        400        399        509        510        521        520  
       389        390        401        400        510        511        522        521  
       390        391        402        401        511        512        523        522  
       391        392        403        402        512        513        524        523  
       392        393        404        403        513        514        525        524  
       393        394        405        404        514        515        526        525  
       394        395        406        405        515        516        527        526  
       395        396        407        406        516        517        528        527  
       397        398        409        408        518        519        530        529  
       398        399        410        409        519        520        531        530  
       399        400        411        410        520        521        532        531  
       400        401        412        411        521        522        533        532  
       401        402        413        412        522        523        534        533  
       402        403        414        413        523        524        535        534  
       403        404        415        414        524        525        536        535  
       404        405        416        415        525        526        537        536  
       405        406        417        416        526        527        538        537  
       406        407        418        417        527        528        539        538  
       408        409        420        419        529        530        541        540  
       409        410        421        420        530        531        542        541  
       410        411        422        421        531        532        543        542  
       411        412        423        422        532        533        544        543  
       412        413        424        423        533        534        545        544  
       413        414        425        424        534        535        546        545  
       414        415        426        425        535        536        547        546  
       415        416        427        426        536        537        548        547  
       416        417        428        427        537        538        549        548  
       417        418        429        428        538        539        550        549  
       419        420        431        430        540        541        552        551  
       420        421        432        431        541        542        553        552  
       421        422        433        432        542        543        554        553  
       422        423        434        433        543        544        555        554  
       423        424        435        434        544        545        556        555  
       424        425        436        435        545        546        557        556  
       425        426        437        436        546        547        558        557  
       426        427        438        437        547        548        559        558  
       427        428        439        438        548        549        560        559  
       428        429        440        439        549        550        561        560  
       430        431        442        441        551        552        563        562  
       431        432        443        442        552        553        564        563  
       432        433        444        443        553        554        565        564  
       433        434        445        444        554        555        566        565  
       434        435        446        445        555        556        567        566  
       435        436        447        446        556        557        568        567  
       436        437        448        447        557        558        569        568  
       437        438        449        448        558        559        570        569  
       438        439        450        449        559        560        571        570  
       439        440        451        450        560        561        572        571  
       441        442        453        452        562        563        574        573  
       442        443        454        453        563        564        575        574  
       443        444        455        454        564        565        576        575  
       444        445        456        455        565        566        577        576  
       445        446        457        456        566        567        578        577  
       446        447        458        457        567        568        579        578  
       447        448        459        458        568        569        580        579  
       448        449        460        459        569        570        581        580  
       449        450        461        460        570        571        582        581  
       450        451        462        461        571        572        583        582  
       452        453        464        463        573        574        585        584  
       453        454        465        464        574        575        586        585  
       454        455        466        465        575        576        587        586  
       455        456        467        466        576        577        588        587  
       456        457        468        467        577        578        589        588  
       457        458        469        468        578        579        590        589  
       458        459        470        469        579        580        591        590  
       459        460        471        470        580        581        592        591  
       460        461        472        471        581        582        593        592  
       461        462        473        472        582        583        594        593  
       463        464        475        474        584        585        596        595  
       464        465        476        475        585        586        597        596  
       465        466        477        476        586        587        598        597  
       466        467        478        477        587        588        599        598  
       467        468        479        478        588        589        600        599  
       468        469        480        479        589        590        601        600  
       469        470        481        480        590        591        602        601  
       470        471        482        481        591        592        603        602  
       471        472        483        482        592        593        604        603  
       472        473        484        483        593        594        605        604  
       485        486        497        496        606        607        618        617  
       486        487        498        497        607        608        619        618  
       487        488        499        498        608        609        620        619  
       488        489        500        499        609        610        621        620  
       489        490        501        500        610        611        622        621  
       490        491        502        501        611        612        623        622  
       491        492        503        502        612        613        624        623  
       492        493        504        503        613        614        625        624  
       493        494        505        504        614        615        626        625  
       494        495        506        505        615        616        627        626  
       496        497        508        507        617        618        629        628  
       497        498        509        508        618        619        630        629  
       498        499        510        509        619        620        631        630  
       499        500        511        510        620        621        632        631  
       500        501        512        511        621        622        633        632  
       501        502        513        512        622        623        634        633  
       502        503        514        513        623        624        635        634  
       503        504        515        514        624        625        636        635  
       504        505        516        515        625        626        637        636  
       505        506        517        516        626        627        638        637  
       507        508        519        518        628        629        640        639  
       508        509        520        519        629        630        641        640  
       509        510        521        520        630        631        642        641  
       510        511        522        521        631        632        643        642  
       511        512        523        522        632        633        644        643  
       512        513        524        523        633        634        645        644  
       513        514        525        524        634        635        646        645  
       514        515        526        525        635        636        647        646  
       515        516        527        526        636        637        648        647  
       516        517        528        527        637        638        649        648  
       518        519        530        529        639        640        651        650  
       519        520        531        530        640        641        652        651  
       520        521        532        531        641        642        653        652  
       521        522        533        532        642        643        654        653  
       522        523        534        533        643        644        655        654  
       523        524        535        534        644        645        656        655  
       524        525        536        535        645        646        657        656  
       525        526        537        536        646        647        658        657  
       526        527        538        537        647        648        659        658  
       527        528        539        538        648        649        660        659  
       529        530        541        540        650        651        662        661  
       530        531        542        541        651        652        663        662  
       531        532        543        542        652        653        664        663  
       532        533        544        543        653        654        665        664  
       533        534        545        544        654        655        666        665  
       534        535        546        545        655        656        667        666  
       535        536        547        546        656        657        668        667  
       536        537        548        547        657        658        669        668  
       537        538        549        548        658        659        670        669  
       538        539        550        549        659        660        671        670  
       540        541        552        551        661        662        673        672  
       541        542        553        552        662        663        674        673  
       542        543        554        553        663        664        675        674  
       543        544        555        554        664        665        676        675  
       544        545        556        555        665        666        677        676  
       545        546        557        556        666        667        678        677  
       546        547        558        557        667        668        679        678  
       547        548        559        558        668        669        680        679  
       548        549        560        559        669        670        681        680  
       549        550        561        560        670        671        682        681  
       551        552        563        562        672        673        684        683  
       552        553        564        563        673        674        685        684  
       553        554        565        564        674        675        686        685  
       554        555        566        565        675        676        687        686  
       555        556        567        566        676        677        688        687  
       556        557        568        567        677        678        689        688  
       557        558        569        568        678        679        690        689  
       558        559        570        569        679        680        691        690  
       559        560        571        570        680        681        692        691  
       560        561        572        571        681        682        693        692  
       562        563        574        573        683        684        695        694  
       563        564        575        574        684        685        696        695  
       564        565        576        575        685        686        697        696  
       565        566        577        576        686        687        698        697  
       566        567        578        577        687        688        699        698  
       567        568        579        578        688        689        700        699  
       568        569        580        579        689        690        701        700  
       569        570        581        580        690        691        702        701  
       570        571        582        581        691        692        703        702  
       571        572        583        582        692        693        704        703  
       573        574        585        584        694        695        706        705  
       574        575        586        585        695        696        707        706  
       575        576        587        586        696        697        708        707  
       576        577        588        587        697        698        709        708  
       577        578        589        588        698        699        710        709  
       578        579        590        589        699        700        711        710  
       579        580        591        590        700        701        712        711  
       580        581        592        591        701        702        713        712  
       581        582        593        592        702        703        714        713  
       582        583        594        593        703        704        715        714  
       584        585        596        595        705        706        717        716  
       585        586        597        596        706        707        718        717  
       586        587        598        597        707        708        719        718  
       587        588        599        598        708        709        720        719  
       588        589        600        599        709        710        721        720  
       589        590        601        600        710        711        722        721  
       590        591        602        601        711        712        723        722  
       591        592        603        602        712        713        724        723  
       592        593        604        603        713        714        725        724  
       593        594        605        604        714        715        726        725  
       606        607        618        617        727        728        739        738  
       607        608        619        618        728        729        740        739  
       608        609        620        619        729        730        741        740  
       609        610        621        620        730        731        742        741  
       610        611        622        621        731        732        743        742  
       611        612        623        622        732        733        744        743  
       612        613        624        623        733        734        745        744  
       613        614        625        624        734        735        746        745  
       614        615        626        625        735        736        747        746  
       615        616        627        626        736        737        748        747  
       617        618        629        628        738        739        750        749  
       618        619        630        629        739        740        751        750  
       619        620        631        630        740        741        752        751  
       620        621        632        631        741        742        753        752  
       621        622        633        632        742        743        754        753  
       622        623        634        633        743        744        755        754  
       623        624        635        634        744        745        756        755  
       624        625        636        635        745        746        757        756  
       625        626        637        636        746        747        758        757  
       626        627        638        637        747        748        759        758  
       628        629        640        639        749        750        761        760  
       629        630        641        640        750        751        762        761  
       630        631        642        641        751        752        763        762  
       631        632        643        642        752        753        764        763  
       632        633        644        643        753        754        765        764  
       633        634        645        644        754        755        766        765  
       634        635        646        645        755        756        767        766  
       635        636        647        646        756        757        768        767  
       636        637        648        647        757        758        769        768  
       637        638        649        648        758        759        770        769  
       639        640        651        650        760        761        772        771  
       640        641        652        651        761        762        773        772  
       641        642        653        652        762        763        774        773  
       642        643        654        653        763        764        775        774  
       643        644        655        654        764        765        776        775  
       644        645        656        655        765        766        777        776  
       645        646        657        656        766        767        778        777  
       646        647        658        657        767        768        779        778  
       647        648        659        658        768        769        780        779  
       648        649        660        659        769        770        781        780  
       650        651        662        661        771        772        783        782  
       651        652        663        662        772        773        784        783  
       652        653        664        663        773        774        785        784  
       653        654        665        664        774        775        786        785  
       654        655        666        665        775        776        787        786  
       655        656        667        666        776        777        788        787  
       656        657        668        667        777        778        789        788  
       657        658        669        668        778        779        790        789  
       658        659        670        669        779        780        791        790  
       659        660        671        670        780        781        792        791  
       661        662        673        672        782        783        794        793  
       662        663        674        673        783        784        795        794  
       663        664        675        674        784        785        796        795  
       664        665        676        675        785        786        797        796  
       665        666        677        676        786        787        798        797  
       666        667        678        677        787        788        799        798  
       667        668        679        678        788        789        800        799  
       668        669        680        679        789        790        801        800  
       669        670        681        680        790        791        802        801  
       670        671        682        681        791        792        803        802  
       672        673        684        683        793        794        805        804  
       673        674        685        684        794        795        806        805  
       674        675        686        685        795        796        807        806  
       675        676        687        686        796        797        808        807  
       676        677        688        687        797        798        809        808  
       677        678        689        688        798        799        810        809  
       678        679        690        689        799        800        811        810  
       679        680        691        690        800        801        812        811  
       680        681        692        691        801        802        813        812  
       681        682        693        692        802        803        814        813  
       683        684        695        694        804        805        816        815  
       684        685        696        695        805        806        817        816  
       685        686        697        696        806        807        818        817  
       686        687        698        697        807        808        819        818  
       687        688        699        698        808        809        820        819  
       688        689        700        699        809        810        821        820  
       689        690        701        700        810        811        822        821  
       690        691        702        701        811        812        823        822  
       691        692        703        702        812        813        824        823  
       692        693        704        703        813        814        825        824  
       694        695        706        705        815        816        827        826  
       695        696        707        706        816        817        828        827  
       696        697        708        707        817        818        829        828  
       697        698        709        708        818        819        830        829  
       698        699        710        709        819        820        831        830  
       699        700        711        710        820        821        832        831  
       700        701        712        711        821        822        833        832  
       701        702        713        712        822        823        834        833  
       702        703        714        713        823        824        835        834  
       703        704        715        714        824        825        836        835  
       705        706        717        716        826        827        838        837  
       706        707        718        717        827        828        839        838  
       707        708        719        718        828        829        840        839  
       708        709        720        719        829        830        841        840  
       709        710        721        720        830        831        842        841  
       710        711        722        721        831        832        843        842  
       711        712        723        722        832        833        844        843  
       712        713        724        723        833        834        845        844  
       713        714        725        724        834        835        846        845  
       714        715        726        725        835        836        847        846  
       727        728        739        738        848        849        860        859  
       728        729        740        739        849        850        861        860  
       729        730        741        740        850        851        862        861  
       730        731        742        741        851        852        863        862  
       731        732        743        742        852        853        864        863  
       732        733        744        743        853        854        865        864  
       733        734        745        744        854        855        866        865  
       734        735        746        745        855        856        867        866  
       735        736        747        746        856        857        868        867  
       736        737        748        747        857        858        869        868  
       738        739        750        749        859        860        871        870  
       739        740        751        750        860        861        872        871  
       740        741        752        751        861        862        873        872  
       741        742        753        752        862        863        874        873  
       742        743        754        753        863        864        875        874  
       743        744        755        754        864        865        876        875  
       744        745        756        755        865        866        877        876  
       745        746        757        756        866        867        878        877  
       746        747        758        757        867        868        879        878  
       747        748        759        758        868        869        880        879  
       749        750        761        760        870        871        882        881  
       750        751        762        761        871        872        883        882  
       751        752        763        762        872        873        884        883  
       752        753        764        763        873        874        885        884  
       753        754        765        764        874        875        886        885  
       754        755        766        765        875        876        887        886  
       755        756        767        766        876        877        888        887  
       756        757        768        767        877        878        889        888  
       757        758        769        768        878        879        890        889  
       758        759        770        769        879        880        891        890  
       760        761        772        771        881        882        893        892  
       761        762        773        772        882        883        894        893  
       762        763        774        773        883        884        895        894  
       763        764        775        774        884        885        896        895  
       764        765        776        775        885        886        897        896  
       765        766        777        776        886        887        898        897  
       766        767        778        777        887        888        899        898  
       767        768        779        778        888        889        900        899  
       768        769        780        779        889        890        901        900  
       769        770        781        780        890        891        902        901  
       771        772        783        782        892        893        904        903  
       772        773        784        783        893        894        905        904  
       773        774        785        784        894        895        906        905  
       774        775        786        785        895        896        907        906  
       775        776        787        786        896        897        908        907  
       776        777        788        787        897        898        909        908  
       777        778        789        788        898        899        910        909  
       778        779        790        789        899        900        911        910  
       779        780        791        790        900        901        912        911  
       780        781        792        791        901        902        913        912  
       782        783        794        793        903        904        915        914  
       783        784        795        794        904        905        916        915  
       784        785        796        795        905        906        917        916  
       785        786        797        796        906        907        918        917  
       786        787        798        797        907        908        919        918  
       787        788        799        798        908        909        920        919  
       788        789        800        799        909        910        921        920  
       789        790        801        800        910        911        922        921  
       790        791        802        801        911        912        923        922  
       791        792        803        802        912        913        924        923  
       793        794        805        804        914        915        926        925  
       794        795        806        805        915        916        927        926  
       795        796        807        806        916        917        928        927  
       796        797        808        807        917        918        929        928  
       797        798        809        808        918        919        930        929  
       798        799        810        809        919        920        931        930  
       799        800        811        810        920        921        932        931  
       800        801        812        811        921        922        933        932  
       801        802        813        812        922        923        934        933  
       802        803        814        813        923        924        935        934  
       804        805        816        815        925        926        937        936  
       805        806        817        816        926        927        938        937  
       806        807        818        817        927        928        939        938  
       807        808        819        818        928        929        940        939  
       808        809        820        819        929        930        941        940  
       809        810        821        820        930        931        942        941  
       810        811        822        821        931        932        943        942  
       811        812        823        822        932        933        944        943  
       812        813        824        823        933        934        945        944  
       813        814        825        824        934        935        946        945  
       815        816        827        826        936        937        948        947  
       816        817        828        827        937        938        949        948  
       817        818        829        828        938        939        950        949  
       818        819        830        829        939        940        951        950  
       819        820        831        830        940        941        952        951  
       820        821        832        831        941        942        953        952  
       821        822        833        832        942        943        954        953  
       822        823        834        833        943        944        955        954  
       823        824        835        834        944        945        956        955  
       824        825        836        835        945        946        957        956  
       826        827        838        837        947        948        959        958  
       827        828        839        838        948        949        960        959  
       828        829        840        839        949        950        961        960  
       829        830        841        840        950        951        962        961  
       830        831        842        841        951        952        963        962  
       831        832        843        842        952        953        964        963  
       832        833        844        843        953        954        965        964  
       833        834        845        844        954        955        966        965  
       834        835        846        845        955        956        967        966  
       835        836        847        846        956        957        968        967  
       848        849        860        859        969        970        981        980  
       849        850        861        860        970        971        982        981  
       850        851        862        861        971        972        983        982  
       851        852        863        862        972        973        984        983  
       852        853        864        863        973        974        985        984  
       853        854        865        864        974        975        986        985  
       854        855        866        865        975        976        987        986  
       855        856        867        866        976        977        988        987  
       856        857        868        867        977        978        989        988  
       857        858        869        868        978        979        990        989  
       859        860        871        870        980        981        992        991  
       860        861        872        871        981        982        993        992  
       861        862        873        872        982        983        994        993  
       862        863        874        873        983        984        995        994  
       863        864        875        874        984        985        996        995  
       864        865        876        875        985        986        997        996  
       865        866        877        876        986        987        998        997  
       866        867        878        877        987        988        999        998  
       867        868        879        878        988        989       1000        999  
       868        869        880        879        989        990       1001       1000  
       870        871        882        881        991        992       1003       1002  
       871        872        883        882        992        993       1004       1003  
       872        873        884        883        993        994       1005       1004  
       873        874        885        884        994        995       1006       1005  
       874        875        886        885        995        996       1007       1006  
       875        876        887        886        996        997       1008       1007  
       876        877        888        887        997        998       1009       1008  
       877        878        889        888        998        999       1010       1009  
       878        879        890        889        999       1000       1011       1010  
       879        880        891        890       1000       1001       1012       1011  
       881        882        893        892       1002       1003       1014       1013  
       882        883        894        893       1003       1004       1015       1014  
       883        884        895        894       1004       1005       1016       1015  
       884        885        896        895       1005       1006       1017       1016  
       885        886        897        896       1006       1007       1018       1017  
       886        887        898        897       1007       1008       1019       1018  
       887        888        899        898       1008       1009       1020       1019  
       888        889        900        899       1009       1010       1021       1020  
       889        890        901        900       1010       1011       1022       1021  
       890        891        902        901       1011       1012       1023       1022  
       892        893        904        903       1013       1014       1025       1024  
       893        894        905        904       1014       1015       1026       1025  
       894        895        906        905       1015       1016       1027       1026  
       895        896        907        906       1016       1017       1028       1027  
       896        897        908        907       1017       1018       1029       1028  
       897        898        909        908       1018       1019       1030       1029  
       898        899        910        909       1019       1020       1031       1030  
       899        900        911        910       1020       1021       1032       1031  
       900        901        912        911       1021       1022       1033       1032  
       901        902        913        912       1022       1023       1034       1033  
       903        904        915        914       1024       1025       1036       1035  
       904        905        916        915       1025       1026       1037       1036  
       905        906        917        916       1026       1027       1038       1037  
       906        907        918        917       1027       1028       1039       1038  
       907        908        919        918       1028       1029       1040       1039  
       908        909        920        919       1029       1030       1041       1040  
       909        910        921        920       1030       1031       1042       1041  
       910        911        922        921       1031       1032       1043       1042  
       911        912        923        922       1032       1033       1044       1043  
       912        913        924        923       1033       1034       1045       1044  
       914        915        926        925       1035       1036       1047       1046  
       915        916        927        926       1036       1037       1048       1047  
       916        917        928        927       1037       1038       1049       1048  
       917        918        929        928       1038       1039       1050       1049  
       918        919        930        929       1039       1040       1051       1050  
       919        920        931        930       1040       1041       1052       1051  
       920        921        932        931       1041       1042       1053       1052  
       921        922        933        932       1042       1043       1054       1053  
       922        923        934        933       1043       1044       1055       1054  
       923        924        935        934       1044       1045       1056       1055  
       925        926        937        936       1046       1047       1058       1057  
       926        927        938        937       1047       1048       1059       1058  
       927        928        939        938       1048       1049       1060       1059  
       928        929        940        939       1049       1050       1061       1060  
       929        930        941        940       1050       1051       1062       1061  
       930        931        942        941       1051       1052       1063       1062  
       931        932        943        942       1052       1053       1064       1063  
       932        933        944        943       1053       1054       1065       1064  
       933        934        945        944       1054       1055       1066       1065  
       934        935        946        945       1055       1056       1067       1066  
       936        937        948        947       1057       1058       1069       1068  
       937        938        949        948       1058       1059       1070       1069  
       938        939        950        949       1059       1060       1071       1070  
       939        940        951        950       1060       1061       1072       1071  
       940        941        952        951       1061       1062       1073       1072  
       941        942        953        952       1062       1063       1074       1073  
       942        943        954        953       1063       1064       1075       1074  
       943        944        955        954       1064       1065       1076       1075  
       944        945        956        955       1065       1066       1077       1076  
       945        946        957        956       1066       1067       1078       1077  
       947        948        959        958       1068       1069       1080       1079  
       948        949        960        959       1069       1070       1081       1080  
       949        950        961        960       1070       1071       1082       1081  
       950        951        962        961       1071       1072       1083       1082  
       951        952        963        962       1072       1073       1084       1083  
       952        953        964        963       1073       1074       1085       1084  
       953        954        965        964       1074       1075       1086       1085  
       954        955        966        965       1075       1076       1087       1086  
       955        956        967        966       1076       1077       1088       1087  
       956        957        968        967       1077       1078       1089       1088  
       969        970        981        980       1090       1091       1102       1101  
       970        971        982        981       1091       1092       1103       1102  
       971        972        983        982       1092       1093       1104       1103  
       972        973        984        983       1093       1094       1105       1104  
       973        974        985        984       1094       1095       1106       1105  
       974        975        986        985       1095       1096       1107       1106  
       975        976        987        986       1096       1097       1108       1107  
       976        977        988        987       1097       1098       1109       1108  
       977        978        989        988       1098       1099       1110       1109  
       978        979        990        989       1099       1100       1111       1110  
       980        981        992        991       1101       1102       1113       1112  
       981        982        993        992       1102       1103       1114       1113  
       982        983        994        993       1103       1104       1115       1114  
       983        984        995        994       1104       1105       1116       1115  
       984        985        996        995       1105       1106       1117       1116  
       985        986        997        996       1106       1107       1118       1117  
       986        987        998        997       1107       1108       1119       1118  
       987        988        999        998       1108       1109       1120       1119  
       988        989       1000        999       1109       1110       1121       1120  
       989        990       1001       1000       1110       1111       1122       1121  
       991        992       1003       1002       1112       1113       1124       1123  
       992        993       1004       1003       1113       1114       1125       1124  
       993        994       1005       1004       1114       1115       1126       1125  
       994        995       1006       1005       1115       1116       1127       1126  
       995        996       1007       1006       1116       1117       1128       1127  
       996        997       1008       1007       1117       1118       1129       1128  
       997        998       1009       1008       1118       1119       1130       1129  
       998        999       1010       1009       1119       1120       1131       1130  
       999       1000       1011       1010       1120       1121       1132       1131  
      1000       1001       1012       1011       1121       1122       1133       1132  
      1002       1003       1014       1013       1123       1124       1135       1134  
      1003       1004       1015       1014       1124       1125       1136       1135  
      1004       1005       1016       1015       1125       1126       1137       1136  
      1005       1006       1017       1016       1126       1127       1138       1137  
      1006       1007       1018       1017       1127       1128       1139       1138  
      1007       1008       1019       1018       1128       1129       1140       1139  
      1008       1009       1020       1019       1129       1130       1141       1140  
      1009       1010       1021       1020       1130       1131       1142       1141  
      1010       1011       1022       1021       1131       1132       1143       1142  
      1011       1012       1023       1022       1132       1133       1144       1143  
      1013       1014       1025       1024       1134       1135       1146       1145  
      1014       1015       1026       1025       1135       1136       1147       1146  
      1015       1016       1027       1026       1136       1137       1148       1147  
      1016       1017       1028       1027       1137       1138       1149       1148  
      1017       1018       1029       1028       1138       1139       1150       1149  
      1018       1019       1030       1029       1139       1140       1151       1150  
      1019       1020       1031       1030       1140       1141       1152       1151  
      1020       1021       1032       1031       1141       1142       1153       1152  
      1021       1022       1033       1032       1142       1143       1154       1153  
      1022       1023       1034       1033       1143       1144       1155       1154  
      1024       1025       1036       1035       1145       1146       1157       1156  
      1025       1026       1037       1036       1146       1147       1158       1157  
      1026       1027       1038       1037       1147       1148       1159       1158  
      1027       1028       1039       1038       1148       1149       1160       1159  
      1028       1029       1040       1039       1149       1150       1161       1160  
      1029       1030       1041       1040       1150       1151       1162       1161  
      1030       1031       1042       1041       1151       1152       1163       1162  
      1031       1032       1043       1042       1152       1153       1164       1163  
      1032       1033       1044       1043       1153       1154       1165       1164  
      1033       1034       1045       1044       1154       1155       1166       1165  
      1035       1036       1047       1046       1156       1157       1168       1167  
      1036       1037       1048       1047       1157       1158       1169       1168  
      1037       1038       1049       1048       1158       1159       1170       1169  
      1038       1039       1050       1049       1159       1160       1171       1170  
      1039       1040       1051       1050       1160       1161       1172       1171  
      1040       1041       1052       1051       1161       1162       1173       1172  
      1041       1042       1053       1052       1162       1163       1174       1173  
      1042       1043       1054       1053       1163       1164       1175       1174  
      1043       1044       1055       1054       1164       1165       1176       1175  
      1044       1045       1056       1055       1165       1166       1177       1176  
      1046       1047       1058       1057       1167       1168       1179       1178  
      1047       1048       1059       1058       1168       1169       1180       1179  
      1048       1049       1060       1059       1169       1170       1181       1180  
      1049       1050       1061       1060       1170       1171       1182       1181  
      1050       1051       1062       1061       1171       1172       1183       1182  
      1051       1052       1063       1062       1172       1173       1184       1183  
      1052       1053       1064       1063       1173       1174       1185       1184  
      1053       1054       1065       1064       1174       1175       1186       1185  
      1054       1055       1066       1065       1175       1176       1187       1186  
      1055       1056       1067       1066       1176       1177       1188       1187  
      1057       1058       1069       1068       1178       1179       1190       1189  
      1058       1059       1070       1069       1179       1180       1191       1190  
      1059       1060       1071       1070       1180       1181       1192       1191  
      1060       1061       1072       1071       1181       1182       1193       1192  
      1061       1062       1073       1072       1182       1183       1194       1193  
      1062       1063       1074       1073       1183       1184       1195       1194  
      1063       1064       1075       1074       1184       1185       1196       1195  
      1064       1065       1076       1075       1185       1186       1197       1196  
      1065       1066       1077       1076       1186       1187       1198       1197  
      1066       1067       1078       1077       1187       1188       1199       1198  
      1068       1069       1080       1079       1189       1190       1201       1200  
      1069       1070       1081       1080       1190       1191       1202       1201  
      1070       1071       1082       1081       1191       1192       1203       1202  
      1071       1072       1083       1082       1192       1193       1204       1203  
      1072       1073       1084       1083       1193       1194       1205       1204  
      1073       1074       1085       1084       1194       1195       1206       1205  
      1074       1075       1086       1085       1195       1196       1207       1206  
      1075       1076       1087       1086       1196       1197       1208       1207  
      1076       1077       1088       1087       1197       1198       1209       1208  
      1077       1078       1089       1088       1198       1199       1210       1209  
      1090       1091       1102       1101       1211       1212       1223       1222  
      1091       1092       1103       1102       1212       1213       1224       1223  
      1092       1093       1104       1103       1213       1214       1225       1224  
      1093       1094       1105       1104       1214       1215       1226       1225  
      1094       1095       1106       1105       1215       1216       1227       1226  
      1095       1096       1107       1106       1216       1217       1228       1227  
      1096       1097       1108       1107       1217       1218       1229       1228  
      1097       1098       1109       1108       1218       1219       1230       1229  
      1098       1099       1110       1109       1219       1220       1231       1230  
      1099       1100       1111       1110       1220       1221       1232       1231  
      1101       1102       1113       1112       1222       1223       1234       1233  
      1102       1103       1114       1113       1223       1224       1235       1234  
      1103       1104       1115       1114       1224       1225       1236       1235  
      1104       1105       1116       1115       1225       1226       1237       1236  
      1105       1106       1117       1116       1226       1227       1238       1237  
      1106       1107       1118       1117       1227       1228       1239       1238  
      1107       1108       1119       1118       1228       1229       1240       1239  
      1108       1109       1120       1119       1229       1230       1241       1240  
      1109       1110       1121       1120       1230       1231       1242       1241  
      1110       1111       1122       1121       1231       1232       1243       1242  
      1112       1113       1124       1123       1233       1234       1245       1244  
      1113       1114       1125       1124       1234       1235       1246       1245  
      1114       1115       1126       1125       1235       1236       1247       1246  
      1115       1116       1127       1126       1236       1237       1248       1247  
      1116       1117       1128       1127       1237       1238       1249       1248  
      1117       1118       1129       1128       1238       1239       1250       1249  
      1118       1119       1130       1129       1239       1240       1251       1250  
      1119       1120       1131       1130       1240       1241       1252       1251  
      1120       1121       1132       1131       1241       1242       1253       1252  
      1121       1122       1133       1132       1242       1243       1254       1253  
      1123       1124       1135       1134       1244       1245       1256       1255  
      1124       1125       1136       1135       1245       1246       1257       1256  
      1125       1126       1137       1136       1246       1247       1258       1257  
      1126       1127       1138       1137       1247       1248       1259       1258  
      1127       1128       1139       1138       1248       1249       1260       1259  
      1128       1129       1140       1139       1249       1250       1261       1260  
      1129       1130       1141       1140       1250       1251       1262       1261  
      1130       1131       1142       1141       1251       1252       1263       1262  
      1131       1132       1143       1142       1252       1253       1264       1263  
      1132       1133       1144       1143       1253       1254       1265       1264  
      1134       1135       1146       1145       1255       1256       1267       1266  
      1135       1136       1147       1146       1256       1257       1268       1267  
      1136       1137       1148       1147       1257       1258       1269       1268  
      1137       1138       1149       1148       1258       1259       1270       1269  
      1138       1139       1150       1149       1259       1260       1271       1270  
      1139       1140       1151       1150       1260       1261       1272       1271  
      1140       1141       1152       1151       1261       1262       1273       1272  
      1141       1142       1153       1152       1262       1263       1274       1273  
      1142       1143       1154       1153       1263       1264       1275       1274  
      1143       1144       1155       1154       1264       1265       1276       1275  
      1145       1146       1157       1156       1266       1267       1278       1277  
      1146       1147       1158       1157       1267       1268       1279       1278  
      1147       1148       1159       1158       1268       1269       1280       1279  
      1148       1149       1160       1159       1269       1270       1281       1280  
      1149       1150       1161       1160       1270       1271       1282       1281  
      1150       1151       1162       1161       1271       1272       1283       1282  
      1151       1152       1163       1162       1272       1273       1284       1283  
      1152       1153       1164       1163       1273       1274       1285       1284  
      1153       1154       1165       1164       1274       1275       1286       1285  
      1154       1155       1166       1165       1275       1276       1287       1286  
      1156       1157       1168       1167       1277       1278       1289       1288  
      1157       1158       1169       1168       1278       1279       1290       1289  
      1158       1159       1170       1169       1279       1280       1291       1290  
      1159       1160       1171       1170       1280       1281       1292       1291  
      1160       1161       1172       1171       1281       1282       1293       1292  
      1161       1162       1173       1172       1282       1283       1294       1293  
      1162       1163       1174       1173       1283       1284       1295       1294  
      1163       1164       1175       1174       1284       1285       1296       1295  
      1164       1165       1176       1175       1285       1286       1297       1296  
      1165       1166       1177       1176       1286       1287       1298       1297  
      1167       1168       1179       1178       1288       1289       1300       1299  
      1168       1169       1180       1179       1289       1290       1301       1300  
      1169       1170       1181       1180       1290       1291       1302       1301  
      1170       1171       1182       1181       1291       1292       1303       1302  
      1171       1172       1183       1182       1292       1293       1304       1303  
      1172       1173       1184       1183       1293       1294       1305       1304  
      1173       1174       1185       1184       1294       1295       1306       1305  
      1174       1175       1186       1185       1295       1296       1307       1306  
      1175       1176       1187       1186       1296       1297       1308       1307  
      1176       1177       1188       1187       1297       1298       1309       1308  
      1178       1179       1190       1189       1299       1300       1311       1310  
      1179       1180       1191       1190       1300       1301       1312       1311  
      1180       1181       1192       1191       1301       1302       1313       1312  
      1181       1182       1193       1192       1302       1303       1314       1313  
      1182       1183       1194       1193       1303       1304       1315       1314  
      1183       1184       1195       1194       1304       1305       1316       1315  
      1184       1185       1196       1195       1305       1306       1317       1316  
      1185       1186       1197       1196       1306       1307       1318       1317  
      1186       1187       1198       1197       1307       1308       1319       1318  
      1187       1188       1199       1198       1308       1309       1320       1319  
      1189       1190       1201       1200       1310       1311       1322       1321  
      1190       1191       1202       1201       1311       1312       1323       1322  
      1191       1192       1203       1202       1312       1313       1324       1323  
      1192       1193       1204       1203       1313       1314       1325       1324  
      1193       1194       1205       1204       1314       1315       1326       1325  
      1194       1195       1206       1205       1315       1316       1327       1326  
      1195       1196       1207       1206       1316       1317       1328       1327  
      1196       1197       1208       1207       1317       1318       1329       1328  
      1197       1198       1209       1208       1318       1319       1330       1329  
      1198       1199       1210       1209       1319       1320       1331       1330  
      1211       1212       1223       1222       1332       1333       1344       1343  
      1212       1213       1224       1223       1333       1334       1345       1344  
      1213       1214       1225       1224       1334       1335       1346       1345  
      1214       1215       1226       1225       1335       1336       1347       1346  
      1215       1216       1227       1226       1336       1337       1348       1347  
      1216       1217       1228       1227       1337       1338       1349       1348  
      1217       1218       1229       1228       1338       1339       1350       1349  
      1218       1219       1230       1229       1339       1340       1351       1350  
      1219       1220       1231       1230       1340       1341       1352       1351  
      1220       1221       1232       1231       1341       1342       1353       1352  
      1222       1223       1234       1233       1343       1344       1355       1354  
      1223       1224       1235       1234       1344       1345       1356       1355  
      1224       1225       1236       1235       1345       1346       1357       1356  
      1225       1226       1237       1236       1346       1347       1358       1357  
      1226       1227       1238       1237       1347       1348       1359       1358  
      1227       1228       1239       1238       1348       1349       1360       1359  
      1228       1229       1240       1239       1349       1350       1361       1360  
      1229       1230       1241       1240       1350       1351       1362       1361  
      1230       1231       1242       1241       1351       1352       1363       1362  
      1231       1232       1243       1242       1352       1353       1364       1363  
      1233       1234       1245       1244       1354       1355       1366       1365  
      1234       1235       1246       1245       1355       1356       1367       1366  
      1235       1236       1247       1246       1356       1357       1368       1367  
      1236       1237       1248       1247       1357       1358       1369       1368  
      1237       1238       1249       1248       1358       1359       1370       1369  
      1238       1239       1250       1249       1359       1360       1371       1370  
      1239       1240       1251       1250       1360       1361       1372       1371  
      1240       1241       1252       1251       1361       1362       1373       1372  
      1241       1242       1253       1252       1362       1363       1374       1373  
      1242       1243       1254       1253       1363       1364       1375       1374  
      1244       1245       1256       1255       1365       1366       1377       1376  
      1245       1246       1257       1256       1366       1367       1378       1377  
      1246       1247       1258       1257       1367       1368       1379       1378  
      1247       1248       1259       1258       1368       1369       1380       1379  
      1248       1249       1260       1259       1369       1370       1381       1380  
      1249       1250       1261       1260       1370       1371       1382       1381  
      1250       1251       1262       1261       1371       1372       1383       1382  
      1251       1252       1263       1262       1372       1373       1384       1383  
      1252       1253       1264       1263       1373       1374       1385       1384  
      1253       1254       1265       1264       1374       1375       1386       1385  
      1255       1256       1267       1266       1376       1377       1388       1387  
      1256       1257       1268       1267       1377       1378       1389       1388  
      1257       1258       1269       1268       1378       1379       1390       1389  
      1258       1259       1270       1269       1379       1380       1391       1390  
      1259       1260       1271       1270       1380       1381       1392       1391  
      1260       1261       1272       1271       1381       1382       1393       1392  
      1261       1262       1273       1272       1382       1383       1394       1393  
      1262       1263       1274       1273       1383       1384       1395       1394  
      1263       1264       1275       1274       1384       1385       1396       1395  
      1264       1265       1276       1275       1385       1386       1397       1396  
      1266       1267       1278       1277       1387       1388       1399       1398  
      1267       1268       1279       1278       1388       1389       1400       1399  
      1268       1269       1280       1279       1389       1390       1401       1400  
      1269       1270       1281       1280       1390       1391       1402       1401  
      1270       1271       1282       1281       1391       1392       1403       1402  
      1271       1272       1283       1282       1392       1393       1404       1403  
      1272       1273       1284       1283       1393       1394       1405       1404  
      1273       1274       1285       1284       1394       1395       1406       1405  
      1274       1275       1286       1285       1395       1396       1407       1406  
      1275       1276       1287       1286       1396       1397       1408       1407  
      1277       1278       1289       1288       1398       1399       1410       1409  
      1278       1279       1290       1289       1399       1400       1411       1410  
      1279       1280       1291       1290       1400       1401       1412       1411  
      1280       1281       1292       1291       1401       1402       1413       1412  
      1281       1282       1293       1292       1402       1403       1414       1413  
      1282       1283       1294       1293       1403       1404       1415       1414  
      1283       1284       1295       1294       1404       1405       1416       1415  
      1284       1285       1296       1295       1405       1406       1417       1416  
      1285       1286       1297       1296       1406       1407       1418       1417  
      1286       1287       1298       1297       1407       1408       1419       1418  
      1288       1289       1300       1299       1409       1410       1421       1420  
      1289       1290       1301       1300       1410       1411       1422       1421  
      1290       1291       1302       1301       1411       1412       1423       1422  
      1291       1292       1303       1302       1412       1413       1424       1423  
      1292       1293       1304       1303       1413       1414       1425       1424  
      1293       1294       1305       1304       1414       1415       1426       1425  
      1294       1295       1306       1305       1415       1416       1427       1426  
      1295       1296       1307       1306       1416       1417       1428       1427  
      1296       1297       1308       1307       1417       1418       1429       1428  
      1297       1298       1309       1308       1418       1419       1430       1429  
      1299       1300       1311       1310       1420       1421       1432       1431  
      1300       1301       1312       1311       1421       1422       1433       1432  
      1301       1302       1313       1312       1422       1423       1434       1433  
      1302       1303       1314       1313       1423       1424       1435       1434  
      1303       1304       1315       1314       1424       1425       1436       1435  
      1304       1305       1316       1315       1425       1426       1437       1436  
      1305       1306       1317       1316       1426       1427       1438       1437  
      1306       1307       1318       1317       1427       1428       1439       1438  
      1307       1308       1319       1318       1428       1429       1440       1439  
      1308       1309       1320       1319       1429       1430       1441       1440  
      1310       1311       1322       1321       1431       1432       1443       1442  
      1311       1312       1323       1322       1432       1433       1444       1443  
      1312       1313       1324       1323       1433       1434       1445       1444  
      1313       1314       1325       1324       1434       1435       1446       1445  
      1314       1315       1326       1325       1435       1436       1447       1446  
      1315       1316       1327       1326       1436       1437       1448       1447  
      1316       1317       1328       1327       1437       1438       1449       1448  
      1317       1318       1329       1328       1438       1439       1450       1449  
      1318       1319       1330       1329       1439       1440       1451       1450  
      1319       1320       1331       1330       1440       1441       1452       1451  
      1332       1333       1344       1343       1453       1454       1465       1464  
      1333       1334       1345       1344       1454       1455       1466       1465  
      1334       1335       1346       1345       1455       1456       1467       1466  
      1335       1336       1347       1346       1456       1457       1468       1467  
      1336       1337       1348       1347       1457       1458       1469       1468  
      1337       1338       1349       1348       1458       1459       1470       1469  
      1338       1339       1350       1349       1459       1460       1471       1470  
      1339       1340       1351       1350       1460       1461       1472       1471  
      1340       1341       1352       1351       1461       1462       1473       1472  
      1341       1342       1353       1352       1462       1463       1474       1473  
      1343       1344       1355       1354       1464       1465       1476       1475  
      1344       1345       1356       1355       1465       1466       1477       1476  
      1345       1346       1357       1356       1466       1467       1478       1477  
      1346       1347       1358       1357       1467       1468       1479       1478  
      1347       1348       1359       1358       1468       1469       1480       1479  
      1348       1349       1360       1359       1469       1470       1481       1480  
      1349       1350       1361       1360       1470       1471       1482       1481  
      1350       1351       1362       1361       1471       1472       1483       1482  
      1351       1352       1363       1362       1472       1473       1484       1483  
      1352       1353       1364       1363       1473       1474       1485       1484  
      1354       1355       1366       1365       1475       1476       1487       1486  
      1355       1356       1367       1366       1476       1477       1488       1487  
      1356       1357       1368       1367       1477       1478       1489       1488  
      1357       1358       1369       1368       1478       1479       1490       1489  
      1358       1359       1370       1369       1479       1480       1491       1490  
      1359       1360       1371       1370       1480       1481       1492       1491  
      1360       1361       1372       1371       1481       1482       1493       1492  
      1361       1362       1373       1372       1482       1483       1494       1493  
      1362       1363       1374       1373       1483       1484       1495       1494  
      1363       1364       1375       1374       1484       1485       1496       1495  
      1365       1366       1377       1376       1486       1487       1498       1497  
      1366       1367       1378       1377       1487       1488       1499       1498  
      1367       1368       1379       1378       1488       1489       1500       1499  
      1368       1369       1380       1379       1489       1490       1501       1500  
      1369       1370       1381       1380       1490       1491       1502       1501  
      1370       1371       1382       1381       1491       1492       1503       1502  
      1371       1372       1383       1382       1492       1493       1504       1503  
      1372       1373       1384       1383       1493       1494       1505       1504  
      1373       1374       1385       1384       1494       1495       1506       1505  
      1374       1375       1386       1385       1495       1496       1507       1506  
      1376       1377       1388       1387       1497       1498       1509       1508  
      1377       1378       1389       1388       1498       1499       1510       1509  
      1378       1379       1390       1389       1499       1500       1511       1510  
      1379       1380       1391       1390       1500       1501       1512       1511  
      1380       1381       1392       1391       1501       1502       1513       1512  
      1381       1382       1393       1392       1502       1503       1514       1513  
      1382       1383       1394       1393       1503       1504       1515       1514  
      1383       1384       1395       1394       1504       1505       1516       1515  
      1384       1385       1396       1395       1505       1506       1517       1516  
      1385       1386       1397       1396       1506       1507       1518       1517  
      1387       1388       1399       1398       1508       1509       1520       1519  
      1388       1389       1400       1399       1509       1510       1521       1520  
      1389       1390       1401       1400       1510       1511       1522       1521  
      1390       1391       1402       1401       1511       1512       1523       1522  
      1391       1392       1403       1402       1512       1513       1524       1523  
      1392       1393       1404       1403       1513       1514       1525       1524  
      1393       1394       1405       1404       1514       1515       1526       1525  
      1394       1395       1406       1405       1515       1516       1527       1526  
      1395       1396       1407       1406       1516       1517       1528       1527  
      1396       1397       1408       1407       1517       1518       1529       1528  
      1398       1399       1410       1409       1519       1520       1531       1530  
      1399       1400       1411       1410       1520       1521       1532       1531  
      1400       1401       1412       1411       1521       1522       1533       1532  
      1401       1402       1413       1412       1522       1523       1534       1533  
      1402       1403       1414       1413       1523       1524       1535       1534  
      1403       1404       1415       1414       1524       1525       1536       1535  
      1404       1405       1416       1415       1525       1526       1537       1536  
      1405       1406       1417       1416       1526       1527       1538       1537  
      1406       1407       1418       1417       1527       1528       1539       1538  
      1407       1408       1419       1418       1528       1529       1540       1539  
      1409       1410       1421       1420       1530       1531       1542       1541  
      1410       1411       1422       1421       1531       1532       1543       1542  
      1411       1412       1423       1422       1532       1533       1544       1543  
      1412       1413       1424       1423       1533       1534       1545       1544  
      1413       1414       1425       1424       1534       1535       1546       1545  
      1414       1415       1426       1425       1535       1536       1547       1546  
      1415       1416       1427       1426       1536       1537       1548       1547  
      1416       1417       1428       1427       1537       1538       1549       1548  
      1417       1418       1429       1428       1538       1539       1550       1549  
      1418       1419       1430       1429       1539       1540       1551       1550  
      1420       1421       1432       1431       1541       1542       1553       1552  
      1421       1422       1433       1432       1542       1543       1554       1553  
      1422       1423       1434       1433       1543       1544       1555       1554  
      1423       1424       1435       1434       1544       1545       1556       1555  
      1424       1425       1436       1435       1545       1546       1557       1556  
      1425       1426       1437       1436       1546       1547       1558       1557  
      1426       1427       1438       1437       1547       1548       1559       1558  
      1427       1428       1439       1438       1548       1549       1560       1559  
      1428       1429       1440       1439       1549       1550       1561       1560  
      1429       1430       1441       1440       1550       1551       1562       1561  
      1431       1432       1443       1442       1552       1553       1564       1563  
      1432       1433       1444       1443       1553       1554       1565       1564  
      1433       1434       1445       1444       1554       1555       1566       1565  
      1434       1435       1446       1445       1555       1556       1567       1566  
      1435       1436       1447       1446       1556       1557       1568       1567  
      1436       1437       1448       1447       1557       1558       1569       1568  
      1437       1438       1449       1448       1558       1559       1570       1569  
      1438       1439       1450       1449       1559       1560       1571       1570  
      1439       1440       1451       1450       1560       1561       1572       1571  
      1440       1441       1452       1451       1561       1562       1573       1572  
      1453       1454       1465       1464       1574       1575       1586       1585  
      1454       1455       1466       1465       1575       1576       1587       1586  
      1455       1456       1467       1466       1576       1577       1588       1587  
      1456       1457       1468       1467       1577       1578       1589       1588  
      1457       1458       1469       1468       1578       1579       1590       1589  
      1458       1459       1470       1469       1579       1580       1591       1590  
      1459       1460       1471       1470       1580       1581       1592       1591  
      1460       1461       1472       1471       1581       1582       1593       1592  
      1461       1462       1473       1472       1582       1583       1594       1593  
      1462       1463       1474       1473       1583       1584       1595       1594  
      1464       1465       1476       1475       1585       1586       1597       1596  
      1465       1466       1477       1476       1586       1587       1598       1597  
      1466       1467       1478       1477       1587       1588       1599       1598  
      1467       1468       1479       1478       1588       1589       1600       1599  
      1468       1469       1480       1479       1589       1590       1601       1600  
      1469       1470       1481       1480       1590       1591       1602       1601  
      1470       1471       1482       1481       1591       1592       1603       1602  
      1471       1472       1483       1482       1592       1593       1604       1603  
      1472       1473       1484       1483       1593       1594       1605       1604  
      1473       1474       1485       1484       1594       1595       1606       1605  
      1475       1476       1487       1486       1596       1597       1608       1607  
      1476       1477       1488       1487       1597       1598       1609       1608  
      1477       1478       1489       1488       1598       1599       1610       1609  
      1478       1479       1490       1489       1599       1600       1611       1610  
      1479       1480       1491       1490       1600       1601       1612       1611  
      1480       1481       1492       1491       1601       1602       1613       1612  
      1481       1482       1493       1492       1602       1603       1614       1613  
      1482       1483       1494       1493       1603       1604       1615       1614  
      1483       1484       1495       1494       1604       1605       1616       1615  
      1484       1485       1496       1495       1605       1606       1617       1616  
      1486       1487       1498       1497       1607       1608       1619       1618  
      1487       1488       1499       1498       1608       1609       1620       1619  
      1488       1489       1500       1499       1609       1610       1621       1620  
      1489       1490       1501       1500       1610       1611       1622       1621  
      1490       1491       1502       1501       1611       1612       1623       1622  
      1491       1492       1503       1502       1612       1613       1624       1623  
      1492       1493       1504       1503       1613       1614       1625       1624  
      1493       1494       1505       1504       1614       1615       1626       1625  
      1494       1495       1506       1505       1615       1616       1627       1626  
      1495       1496       1507       1506       1616       1617       1628       1627  
      1497       1498       1509       1508       1618       1619       1630       1629  
      1498       1499       1510       1509       1619       1620       1631       1630  
      1499       1500       1511       1510       1620       1621       1632       1631  
      1500       1501       1512       1511       1621       1622       1633       1632  
      1501       1502       1513       1512       1622       1623       1634       1633  
      1502       1503       1514       1513       1623       1624       1635       1634  
      1503       1504       1515       1514       1624       1625       1636       1635  
      1504       1505       1516       1515       1625       1626       1637       1636  
      1505       1506       1517       1516       1626       1627       1638       1637  
      1506       1507       1518       1517       1627       1628       1639       1638  
      1508       1509       1520       1519       1629       1630       1641       1640  
      1509       1510       1521       1520       1630       1631       1642       1641  
      1510       1511       1522       1521       1631       1632       1643       1642  
      1511       1512       1523       1522       1632       1633       1644       1643  
      1512       1513       1524       1523       1633       1634       1645       1644  
      1513       1514       1525       1524       1634       1635       1646       1645  
      1514       1515       1526       1525       1635       1636       1647       1646  
      1515       1516       1527       1526       1636       1637       1648       1647  
      1516       1517       1528       1527       1637       1638       1649       1648  
      1517       1518       1529       1528       1638       1639       1650       1649  
      1519       1520       1531       1530       1640       1641       1652       1651  
      1520       1521       1532       1531       1641       1642       1653       1652  
      1521       1522       1533       1532       1642       1643       1654       1653  
      1522       1523       1534       1533       1643       1644       1655       1654  
      1523       1524       1535       1534       1644       1645       1656       1655  
      1524       1525       1536       1535       1645       1646       1657       1656  
      1525       1526       1537       1536       1646       1647       1658       1657  
      1526       1527       1538       1537       1647       1648       1659       1658  
      1527       1528       1539       1538       1648       1649       1660       1659  
      1528       1529       1540       1539       1649       1650       1661       1660  
      1530       1531       1542       1541       1651       1652       1663       1662  
      1531       1532       1543       1542       1652       1653       1664       1663  
      1532       1533       1544       1543       1653       1654       1665       1664  
      1533       1534       1545       1544       1654       1655       1666       1665  
      1534       1535       1546       1545       1655       1656       1667       1666  
      1535       1536       1547       1546       1656       1657       1668       1667  
      1536       1537       1548       1547       1657       1658       1669       1668  
      1537       1538       1549       1548       1658       1659       1670       1669  
      1538       1539       1550       1549       1659       1660       1671       1670  
      1539       1540       1551       1550       1660       1661       1672       1671  
      1541       1542       1553       1552       1662       1663       1674       1673  
      1542       1543       1554       1553       1663       1664       1675       1674  
      1543       1544       1555       1554       1664       1665       1676       1675  
      1544       1545       1556       1555       1665       1666       1677       1676  
      1545       1546       1557       1556       1666       1667       1678       1677  
      1546       1547       1558       1557       1667       1668       1679       1678  
      1547       1548       1559       1558       1668       1669       1680       1679  
      1548       1549       1560       1559       1669       1670       1681       1680  
      1549       1550       1561       1560       1670       1671       1682       1681  
      1550       1551       1562       1561       1671       1672       1683       1682  
      1552       1553       1564       1563       1673       1674       1685       1684  
      1553       1554       1565       1564       1674       1675       1686       1685  
      1554       1555       1566       1565       1675       1676       1687       1686  
      1555       1556       1567       1566       1676       1677       1688       1687  
      1556       1557       1568       1567       1677       1678       1689       1688  
      1557       1558       1569       1568       1678       1679       1690       1689  
      1558       1559       1570       1569       1679       1680       1691       1690  
      1559       1560       1571       1570       1680       1681       1692       1691  
      1560       1561       1572       1571       1681       1682       1693       1692  
      1561       1562       1573       1572       1682       1683       1694       1693  
      1574       1575       1586       1585       1695       1696       1707       1706  
      1575       1576       1587       1586       1696       1697       1708       1707  
      1576       1577       1588       1587       1697       1698       1709       1708  
      1577       1578       1589       1588       1698       1699       1710       1709  
      1578       1579       1590       1589       1699       1700       1711       1710  
      1579       1580       1591       1590       1700       1701       1712       1711  
      1580       1581       1592       1591       1701       1702       1713       1712  
      1581       1582       1593       1592       1702       1703       1714       1713  
      1582       1583       1594       1593       1703       1704       1715       1714  
      1583       1584       1595       1594       1704       1705       1716       1715  
      1585       1586       1597       1596       1706       1707       1718       1717  
      1586       1587       1598       1597       1707       1708       1719       1718  
      1587       1588       1599       1598       1708       1709       1720       1719  
      1588       1589       1600       1599       1709       1710       1721       1720  
      1589       1590       1601       1600       1710       1711       1722       1721  
      1590       1591       1602       1601       1711       1712       1723       1722  
      1591       1592       1603       1602       1712       1713       1724       1723  
      1592       1593       1604       1603       1713       1714       1725       1724  
      1593       1594       1605       1604       1714       1715       1726       1725  
      1594       1595       1606       1605       1715       1716       1727       1726  
      1596       1597       1608       1607       1717       1718       1729       1728  
      1597       1598       1609       1608       1718       1719       1730       1729  
      1598       1599       1610       1609       1719       1720       1731       1730  
      1599       1600       1611       1610       1720       1721       1732       1731  
      1600       1601       1612       1611       1721       1722       1733       1732  
      1601       1602       1613       1612       1722       1723       1734       1733  
      1602       1603       1614       1613       1723       1724       1735       1734  
      1603       1604       1615       1614       1724       1725       1736       1735  
      1604       1605       1616       1615       1725       1726       1737       1736  
      1605       1606       1617       1616       1726       1727       1738       1737  
      1607       1608       1619       1618       1728       1729       1740       1739  
      1608       1609       1620       1619       1729       1730       1741       1740  
      1609       1610       1621       1620       1730       1731       1742       1741  
      1610       1611       1622       1621       1731       1732       1743       1742  
      1611       1612       1623       1622       1732       1733       1744       1743  
      1612       1613       1624       1623       1733       1734       1745       1744  
      1613       1614       1625       1624       1734       1735       1746       1745  
      1614       1615       1626       1625       1735       1736       1747       1746  
      1615       1616       1627       1626       1736       1737       1748       1747  
      1616       1617       1628       1627       1737       1738       1749       1748  
      1618       1619       1630       1629       1739       1740       1751       1750  
      1619       1620       1631       1630       1740       1741       1752       1751  
      1620       1621       1632       1631       1741       1742       1753       1752  
      1621       1622       1633       1632       1742       1743       1754       1753  
      1622       1623       1634       1633       1743       1744       1755       1754  
      1623       1624       1635       1634       1744       1745       1756       1755  
      1624       1625       1636       1635       1745       1746       1757       1756  
      1625       1626       1637       1636       1746       1747       1758       1757  
      1626       1627       1638       1637       1747       1748       1759       1758  
      1627       1628       1639       1638       1748       1749       1760       1759  
      1629       1630       1641       1640       1750       1751       1762       1761  
      1630       1631       1642       1641       1751       1752       1763       1762  
      1631       1632       1643       1642       1752       1753       1764       1763  
      1632       1633       1644       1643       1753       1754       1765       1764  
      1633       1634       1645       1644       1754       1755       1766       1765  
      1634       1635       1646       1645       1755       1756       1767       1766  
      1635       1636       1647       1646       1756       1757       1768       1767  
      1636       1637       1648       1647       1757       1758       1769       1768  
      1637       1638       1649       1648       1758       1759       1770       1769  
      1638       1639       1650       1649       1759       1760       1771       1770  
      1640       1641       1652       1651       1761       1762       1773       1772  
      1641       1642       1653       1652       1762       1763       1774       1773  
      1642       1643       1654       1653       1763       1764       1775       1774  
      1643       1644       1655       1654       1764       1765       1776       1775  
      1644       1645       1656       1655       1765       1766       1777       1776  
      1645       1646       1657       1656       1766       1767       1778       1777  
      1646       1647       1658       1657       1767       1768       1779       1778  
      1647       1648       1659       1658       1768       1769       1780       1779  
      1648       1649       1660       1659       1769       1770       1781       1780  
      1649       1650       1661       1660       1770       1771       1782       1781  
      1651       1652       1663       1662       1772       1773       1784       1783  
      1652       1653       1664       1663       1773       1774       1785       1784  
      1653       1654       1665       1664       1774       1775       1786       1785  
      1654       1655       1666       1665       1775       1776       1787       1786  
      1655       1656       1667       1666       1776       1777       1788       1787  
      1656       1657       1668       1667       1777       1778       1789       1788  
      1657       1658       1669       1668       1778       1779       1790       1789  
      1658       1659       1670       1669       1779       1780       1791       1790  
      1659       1660       1671       1670       1780       1781       1792       1791  
      1660       1661       1672       1671       1781       1782       1793       1792  
      1662       1663       1674       1673       1783       1784       1795       1794  
      1663       1664       1675       1674       1784       1785       1796       1795  
      1664       1665       1676       1675       1785       1786       1797       1796  
      1665       1666       1677       1676       1786       1787       1798       1797  
      1666       1667       1678       1677       1787       1788       1799       1798  
      1667       1668       1679       1678       1788       1789       1800       1799  
      1668       1669       1680       1679       1789       1790       1801       1800  
      1669       1670       1681       1680       1790       1791       1802       1801  
      1670       1671       1682       1681       1791       1792       1803       1802  
      1671       1672       1683       1682       1792       1793       1804       1803  
      1673       1674       1685       1684       1794       1795       1806       1805  
      1674       1675       1686       1685       1795       1796       1807       1806  
      1675       1676       1687       1686       1796       1797       1808       1807  
      1676       1677       1688       1687       1797       1798       1809       1808  
      1677       1678       1689       1688       1798       1799       1810       1809  
      1678       1679       1690       1689       1799       1800       1811       1810  
      1679       1680       1691       1690       1800       1801       1812       1811  
      1680       1681       1692       1691       1801       1802       1813       1812  
      1681       1682       1693       1692       1802       1803       1814       1813  
      1682       1683       1694       1693       1803       1804       1815       1814  
      1695       1696       1707       1706       1816       1817       1828       1827  
      1696       1697       1708       1707       1817       1818       1829       1828  
      1697       1698       1709       1708       1818       1819       1830       1829  
      1698       1699       1710       1709       1819       1820       1831       1830  
      1699       1700       1711       1710       1820       1821       1832       1831  
      1700       1701       1712       1711       1821       1822       1833       1832  
      1701       1702       1713       1712       1822       1823       1834       1833  
      1702       1703       1714       1713       1823       1824       1835       1834  
      1703       1704       1715       1714       1824       1825       1836       1835  
      1704       1705       1716       1715       1825       1826       1837       1836  
      1706       1707       1718       1717       1827       1828       1839       1838  
      1707       1708       1719       1718       1828       1829       1840       1839  
      1708       1709       1720       1719       1829       1830       1841       1840  
      1709       1710       1721       1720       1830       1831       1842       1841  
      1710       1711       1722       1721       1831       1832       1843       1842  
      1711       1712       1723       1722       1832       1833       1844       1843  
      1712       1713       1724       1723       1833       1834       1845       1844  
      1713       1714       1725       1724       1834       1835       1846       1845  
      1714       1715       1726       1725       1835       1836       1847       1846  
      1715       1716       1727       1726       1836       1837       1848       1847  
      1717       1718       1729       1728       1838       1839       1850       1849  
      1718       1719       1730       1729       1839       1840       1851       1850  
      1719       1720       1731       1730       1840       1841       1852       1851  
      1720       1721       1732       1731       1841       1842       1853       1852  
      1721       1722       1733       1732       1842       1843       1854       1853  
      1722       1723       1734       1733       1843       1844       1855       1854  
      1723       1724       1735       1734       1844       1845       1856       1855  
      1724       1725       1736       1735       1845       1846       1857       1856  
      1725       1726       1737       1736       1846       1847       1858       1857  
      1726       1727       1738       1737       1847       1848       1859       1858  
      1728       1729       1740       1739       1849       1850       1861       1860  
      1729       1730       1741       1740       1850       1851       1862       1861  
      1730       1731       1742       1741       1851       1852       1863       1862  
      1731       1732       1743       1742       1852       1853       1864       1863  
      1732       1733       1744       1743       1853       1854       1865       1864  
      1733       1734       1745       1744       1854       1855       1866       1865  
      1734       1735       1746       1745       1855       1856       1867       1866  
      1735       1736       1747       1746       1856       1857       1868       1867  
      1736       1737       1748       1747       1857       1858       1869       1868  
      1737       1738       1749       1748       1858       1859       1870       1869  
      1739       1740       1751       1750       1860       1861       1872       1871  
      1740       1741       1752       1751       1861       1862       1873       1872  
      1741       1742       1753       1752       1862       1863       1874       1873  
      1742       1743       1754       1753       1863       1864       1875       1874  
      1743       1744       1755       1754       1864       1865       1876       1875  
      1744       1745       1756       1755       1865       1866       1877       1876  
      1745       1746       1757       1756       1866       1867       1878       1877  
      1746       1747       1758       1757       1867       1868       1879       1878  
      1747       1748       1759       1758       1868       1869       1880       1879  
      1748       1749       1760       1759       1869       1870       1881       1880  
      1750       1751       1762       1761       1871       1872       1883       1882  
      1751       1752       1763       1762       1872       1873       1884       1883  
      1752       1753       1764       1763       1873       1874       1885       1884  
      1753       1754       1765       1764       1874       1875       1886       1885  
      1754       1755       1766       1765       1875       1876       1887       1886  
      1755       1756       1767       1766       1876       1877       1888       1887  
      1756       1757       1768       1767       1877       1878       1889       1888  
      1757       1758       1769       1768       1878       1879       1890       1889  
      1758       1759       1770       1769       1879       1880       1891       1890  
      1759       1760       1771       1770       1880       1881       1892       1891  
      1761       1762       1773       1772       1882       1883       1894       1893  
      1762       1763       1774       1773       1883       1884       1895       1894  
      1763       1764       1775       1774       1884       1885       1896       1895  
      1764       1765       1776       1775       1885       1886       1897       1896  
      1765       1766       1777       1776       1886       1887       1898       1897  
      1766       1767       1778       1777       1887       1888       1899       1898  
      1767       1768       1779       1778       1888       1889       1900       1899  
      1768       1769       1780       1779       1889       1890       1901       1900  
      1769       1770       1781       1780       1890       1891       1902       1901  
      1770       1771       1782       1781       1891       1892       1903       1902  
      1772       1773       1784       1783       1893       1894       1905       1904  
      1773       1774       1785       1784       1894       1895       1906       1905  
      1774       1775       1786       1785       1895       1896       1907       1906  
      1775       1776       1787       1786       1896       1897       1908       1907  
      1776       1777       1788       1787       1897       1898       1909       1908  
      1777       1778       1789       1788       1898       1899       1910       1909  
      1778       1779       1790       1789       1899       1900       1911       1910  
      1779       1780       1791       1790       1900       1901       1912       1911  
      1780       1781       1792       1791       1901       1902       1913       1912  
      1781       1782       1793       1792       1902       1903       1914       1913  
      1783       1784       1795       1794       1904       1905       1916       1915  
      1784       1785       1796       1795       1905       1906       1917       1916  
      1785       1786       1797       1796       1906       1907       1918       1917  
      1786       1787       1798       1797       1907       1908       1919       1918  
      1787       1788       1799       1798       1908       1909       1920       1919  
      1788       1789       1800       1799       1909       1910       1921       1920  
      1789       1790       1801       1800       1910       1911       1922       1921  
      1790       1791       1802       1801       1911       1912       1923       1922  
      1791       1792       1803       1802       1912       1913       1924       1923  
      1792       1793       1804       1803       1913       1914       1925       1924  
      1794       1795       1806       1805       1915       1916       1927       1926  
      1795       1796       1807       1806       1916       1917       1928       1927  
      1796       1797       1808       1807       1917       1918       1929       1928  
      1797       1798       1809       1808       1918       1919       1930       1929  
      1798       1799       1810       1809       1919       1920       1931       1930  
      1799       1800       1811       1810       1920       1921       1932       1931  
      1800       1801       1812       1811       1921       1922       1933       1932  
      1801       1802       1813       1812       1922       1923       1934       1933  
      1802       1803       1814       1813       1923       1924       1935       1934  
      1803       1804       1815       1814       1924       1925       1936       1935  
      1816       1817       1828       1827       1937       1938       1949       1948  
      1817       1818       1829       1828       1938       1939       1950       1949  
      1818       1819       1830       1829       1939       1940       1951       1950  
      1819       1820       1831       1830       1940       1941       1952       1951  
      1820       1821       1832       1831       1941       1942       1953       1952  
      1821       1822       1833       1832       1942       1943       1954       1953  
      1822       1823       1834       1833       1943       1944       1955       1954  
      1823       1824       1835       1834       1944       1945       1956       1955  
      1824       1825       1836       1835       1945       1946       1957       1956  
      1825       1826       1837       1836       1946       1947       1958       1957  
      1827       1828       1839       1838       1948       1949       1960       1959  
      1828       1829       1840       1839       1949       1950       1961       1960  
      1829       1830       1841       1840       1950       1951       1962       1961  
      1830       1831       1842       1841       1951       1952       1963       1962  
      1831       1832       1843       1842       1952       1953       1964       1963  
      1832       1833       1844       1843       1953       1954       1965       1964  
      1833       1834       1845       1844       1954       1955       1966       1965  
      1834       1835       1846       1845       1955       1956       1967       1966  
      1835       1836       1847       1846       1956       1957       1968       1967  
      1836       1837       1848       1847       1957       1958       1969       1968  
      1838       1839       1850       1849       1959       1960       1971       1970  
      1839       1840       1851       1850       1960       1961       1972       1971  
      1840       1841       1852       1851       1961       1962       1973       1972  
      1841       1842       1853       1852       1962       1963       1974       1973  
      1842       1843       1854       1853       1963       1964       1975       1974  
      1843       1844       1855       1854       1964       1965       1976       1975  
      1844       1845       1856       1855       1965       1966       1977       1976  
      1845       1846       1857       1856       1966       1967       1978       1977  
      1846       1847       1858       1857       1967       1968       1979       1978  
      1847       1848       1859       1858       1968       1969       1980       1979  
      1849       1850       1861       1860       1970       1971       1982       1981  
      1850       1851       1862       1861       1971       1972       1983       1982  
      1851       1852       1863       1862       1972       1973       1984       1983  
      1852       1853       1864       1863       1973       1974       1985       1984  
      1853       1854       1865       1864       1974       1975       1986       1985  
      1854       1855       1866       1865       1975       1976       1987       1986  
      1855       1856       1867       1866       1976       1977       1988       1987  
      1856       1857       1868       1867       1977       1978       1989       1988  
      1857       1858       1869       1868       1978       1979       1990       1989  
      1858       1859       1870       1869       1979       1980       1991       1990  
      1860       1861       1872       1871       1981       1982       1993       1992  
      1861       1862       1873       1872       1982       1983       1994       1993  
      1862       1863       1874       1873       1983       1984       1995       1994  
      1863       1864       1875       1874       1984       1985       1996       1995  
      1864       1865       1876       1875       1985       1986       1997       1996  
      1865       1866       1877       1876       1986       1987       1998       1997  
      1866       1867       1878       1877       1987       1988       1999       1998  
      1867       1868       1879       1878       1988       1989       2000       1999  
      1868       1869       1880       1879       1989       1990       2001       2000  
      1869       1870       1881       1880       1990       1991       2002       2001  
      1871       1872       1883       1882       1992       1993       2004       2003  
      1872       1873       1884       1883       1993       1994       2005       2004  
      1873       1874       1885       1884       1994       1995       2006       2005  
      1874       1875       1886       1885       1995       1996       2007       2006  
      1875       1876       1887       1886       1996       1997       2008       2007  
      1876       1877       1888       1887       1997       1998       2009       2008  
      1877       1878       1889       1888       1998       1999       2010       2009  
      1878       1879       1890       1889       1999       2000       2011       2010  
      1879       1880       1891       1890       2000       2001       2012       2011  
      1880       1881       1892       1891       2001       2002       2013       2012  
      1882       1883       1894       1893       2003       2004       2015       2014  
      1883       1884       1895       1894       2004       2005       2016       2015  
      1884       1885       1896       1895       2005       2006       2017       2016  
      1885       1886       1897       1896       2006       2007       2018       2017  
      1886       1887       1898       1897       2007       2008       2019       2018  
      1887       1888       1899       1898       2008       2009       2020       2019  
      1888       1889       1900       1899       2009       2010       2021       2020  
      1889       1890       1901       1900       2010       2011       2022       2021  
      1890       1891       1902       1901       2011       2012       2023       2022  
      1891       1892       1903       1902       2012       2013       2024       2023  
      1893       1894       1905       1904       2014       2015       2026       2025  
      1894       1895       1906       1905       2015       2016       2027       2026  
      1895       1896       1907       1906       2016       2017       2028       2027  
      1896       1897       1908       1907       2017       2018       2029       2028  
      1897       1898       1909       1908       2018       2019       2030       2029  
      1898       1899       1910       1909       2019       2020       2031       2030  
      1899       1900       1911       1910       2020       2021       2032       2031  
      1900       1901       1912       1911       2021       2022       2033       2032  
      1901       1902       1913       1912       2022       2023       2034       2033  
      1902       1903       1914       1913       2023       2024       2035       2034  
      1904       1905       1916       1915       2025       2026       2037       2036  
      1905       1906       1917       1916       2026       2027       2038       2037  
      1906       1907       1918       1917       2027       2028       2039       2038  
      1907       1908       1919       1918       2028       2029       2040       2039  
      1908       1909       1920       1919       2029       2030       2041       2040  
      1909       1910       1921       1920       2030       2031       2042       2041  
      1910       1911       1922       1921       2031       2032       2043       2042  
      1911       1912       1923       1922       2032       2033       2044       2043  
      1912       1913       1924       1923       2033       2034       2045       2044  
      1913       1914       1925       1924       2034       2035       2046       2045  
      1915       1916       1927       1926       2036       2037       2048       2047  
      1916       1917       1928       1927       2037       2038       2049       2048  
      1917       1918       1929       1928       2038       2039       2050       2049  
      1918       1919       1930       1929       2039       2040       2051       2050  
      1919       1920       1931       1930       2040       2041       2052       2051  
      1920       1921       1932       1931       2041       2042       2053       2052  
      1921       1922       1933       1932       2042       2043       2054       2053  
      1922       1923       1934       1933       2043       2044       2055       2054  
      1923       1924       1935       1934       2044       2045       2056       2055  
      1924       1925       1936       1935       2045       2046       2057       2056  
      1937       1938       1949       1948       2058       2059       2070       2069  
      1938       1939       1950       1949       2059       2060       2071       2070  
      1939       1940       1951       1950       2060       2061       2072       2071  
      1940       1941       1952       1951       2061       2062       2073       2072  
      1941       1942       1953       1952       2062       2063       2074       2073  
      1942       1943       1954       1953       2063       2064       2075       2074  
      1943       1944       1955       1954       2064       2065       2076       2075  
      1944       1945       1956       1955       2065       2066       2077       2076  
      1945       1946       1957       1956       2066       2067       2078       2077  
      1946       1947       1958       1957       2067       2068       2079       2078  
      1948       1949       1960       1959       2069       2070       2081       2080  
      1949       1950       1961       1960       2070       2071       2082       2081  
      1950       1951       1962       1961       2071       2072       2083       2082  
      1951       1952       1963       1962       2072       2073       2084       2083  
      1952       1953       1964       1963       2073       2074       2085       2084  
      1953       1954       1965       1964       2074       2075       2086       2085  
      1954       1955       1966       1965       2075       2076       2087       2086  
      1955       1956       1967       1966       2076       2077       2088       2087  
      1956       1957       1968       1967       2077       2078       2089       2088  
      1957       1958       1969       1968       2078       2079       2090       2089  
      1959       1960       1971       1970       2080       2081       2092       2091  
      1960       1961       1972       1971       2081       2082       2093       2092  
      1961       1962       1973       1972       2082       2083       2094       2093  
      1962       1963       1974       1973       2083       2084       2095       2094  
      1963       1964       1975       1974       2084       2085       2096       2095  
      1964       1965       1976       1975       2085       2086       2097       2096  
      1965       1966       1977       1976       2086       2087       2098       2097  
      1966       1967       1978       1977       2087       2088       2099       2098  
      1967       1968       1979       1978       2088       2089       2100       2099  
      1968       1969       1980       1979       2089       2090       2101       2100  
      1970       1971       1982       1981       2091       2092       2103       2102  
      1971       1972       1983       1982       2092       2093       2104       2103  
      1972       1973       1984       1983       2093       2094       2105       2104  
      1973       1974       1985       1984       2094       2095       2106       2105  
      1974       1975       1986       1985       2095       2096       2107       2106  
      1975       1976       1987       1986       2096       2097       2108       2107  
      1976       1977       1988       1987       2097       2098       2109       2108  
      1977       1978       1989       1988       2098       2099       2110       2109  
      1978       1979       1990       1989       2099       2100       2111       2110  
      1979       1980       1991       1990       2100       2101       2112       2111  
      1981       1982       1993       1992       2102       2103       2114       2113  
      1982       1983       1994       1993       2103       2104       2115       2114  
      1983       1984       1995       1994       2104       2105       2116       2115  
      1984       1985       1996       1995       2105       2106       2117       2116  
      1985       1986       1997       1996       2106       2107       2118       2117  
      1986       1987       1998       1997       2107       2108       2119       2118  
      1987       1988       1999       1998       2108       2109       2120       2119  
      1988       1989       2000       1999       2109       2110       2121       2120  
      1989       1990       2001       2000       2110       2111       2122       2121  
      1990       1991       2002       2001       2111       2112       2123       2122  
      1992       1993       2004       2003       2113       2114       2125       2124  
      1993       1994       2005       2004       2114       2115       2126       2125  
      1994       1995       2006       2005       2115       2116       2127       2126  
      1995       1996       2007       2006       2116       2117       2128       2127  
      1996       1997       2008       2007       2117       2118       2129       2128  
      1997       1998       2009       2008       2118       2119       2130       2129  
      1998       1999       2010       2009       2119       2120       2131       2130  
      1999       2000       2011       2010       2120       2121       2132       2131  
      2000       2001       2012       2011       2121       2122       2133       2132  
      2001       2002       2013       2012       2122       2123       2134       2133  
      2003       2004       2015       2014       2124       2125       2136       2135  
      2004       2005       2016       2015       2125       2126       2137       2136  
      2005       2006       2017       2016       2126       2127       2138       2137  
      2006       2007       2018       2017       2127       2128       2139       2138  
      2007       2008       2019       2018       2128       2129       2140       2139  
      2008       2009       2020       2019       2129       2130       2141       2140  
      2009       2010       2021       2020       2130       2131       2142       2141  
      2010       2011       2022       2021       2131       2132       2143       2142  
      2011       2012       2023       2022       2132       2133       2144       2143  
      2012       2013       2024       2023       2133       2134       2145       2144  
      2014       2015       2026       2025       2135       2136       2147       2146  
      2015       2016       2027       2026       2136       2137       2148       2147  
      2016       2017       2028       2027       2137       2138       2149       2148  
      2017       2018       2029       2028       2138       2139       2150       2149  
      2018       2019       2030       2029       2139       2140       2151       2150  
      2019       2020       2031       2030       2140       2141       2152       2151  
      2020       2021       2032       2031       2141       2142       2153       2152  
      2021       2022       2033       2032       2142       2143       2154       2153  
      2022       2023       2034       2033       2143       2144       2155       2154  
      2023       2024       2035       2034       2144       2145       2156       2155  
      2025       2026       2037       2036       2146       2147       2158       2157  
      2026       2027       2038       2037       2147       2148       2159       2158  
      2027       2028       2039       2038       2148       2149       2160       2159  
      2028       2029       2040       2039       2149       2150       2161       2160  
      2029       2030       2041       2040       2150       2151       2162       2161  
      2030       2031       2042       2041       2151       2152       2163       2162  
      2031       2032       2043       2042       2152       2153       2164       2163  
      2032       2033       2044       2043       2153       2154       2165       2164  
      2033       2034       2045       2044       2154       2155       2166       2165  
      2034       2035       2046       2045       2155       2156       2167       2166  
      2036       2037       2048       2047       2157       2158       2169       2168  
      2037       2038       2049       2048       2158       2159       2170       2169  
      2038       2039       2050       2049       2159       2160       2171       2170  
      2039       2040       2051       2050       2160       2161       2172       2171  
      2040       2041       2052       2051       2161       2162       2173       2172  
      2041       2042       2053       2052       2162       2163       2174       2173  
      2042       2043       2054       2053       2163       2164       2175       2174  
      2043       2044       2055       2054       2164       2165       2176       2175  
      2044       2045       2056       2055       2165       2166       2177       2176  
      2045       2046       2057       2056       2166       2167       2178       2177  
      2058       2059       2070       2069       2179       2180       2191       2190  
      2059       2060       2071       2070       2180       2181       2192       2191  
      2060       2061       2072       2071       2181       2182       2193       2192  
      2061       2062       2073       2072       2182       2183       2194       2193  
      2062       2063       2074       2073       2183       2184       2195       2194  
      2063       2064       2075       2074       2184       2185       2196       2195  
      2064       2065       2076       2075       2185       2186       2197       2196  
      2065       2066       2077       2076       2186       2187       2198       2197  
      2066       2067       2078       2077       2187       2188       2199       2198  
      2067       2068       2079       2078       2188       2189       2200       2199  
      2069       2070       2081       2080       2190       2191       2202       2201  
      2070       2071       2082       2081       2191       2192       2203       2202  
      2071       2072       2083       2082       2192       2193       2204       2203  
      2072       2073       2084       2083       2193       2194       2205       2204  
      2073       2074       2085       2084       2194       2195       2206       2205  
      2074       2075       2086       2085       2195       2196       2207       2206  
      2075       2076       2087       2086       2196       2197       2208       2207  
      2076       2077       2088       2087       2197       2198       2209       2208  
      2077       2078       2089       2088       2198       2199       2210       2209  
      2078       2079       2090       2089       2199       2200       2211       2210  
      2080       2081       2092       2091       2201       2202       2213       2212  
      2081       2082       2093       2092       2202       2203       2214       2213  
      2082       2083       2094       2093       2203       2204       2215       2214  
      2083       2084       2095       2094       2204       2205       2216       2215  
      2084       2085       2096       2095       2205       2206       2217       2216  
      2085       2086       2097       2096       2206       2207       2218       2217  
      2086       2087       2098       2097       2207       2208       2219       2218  
      2087       2088       2099       2098       2208       2209       2220       2219  
      2088       2089       2100       2099       2209       2210       2221       2220  
      2089       2090       2101       2100       2210       2211       2222       2221  
      2091       2092       2103       2102       2212       2213       2224       2223  
      2092       2093       2104       2103       2213       2214       2225       2224  
      2093       2094       2105       2104       2214       2215       2226       2225  
      2094       2095       2106       2105       2215       2216       2227       2226  
      2095       2096       2107       2106       2216       2217       2228       2227  
      2096       2097       2108       2107       2217       2218       2229       2228  
      2097       2098       2109       2108       2218       2219       2230       2229  
      2098       2099       2110       2109       2219       2220       2231       2230  
      2099       2100       2111       2110       2220       2221       2232       2231  
      2100       2101       2112       2111       2221       2222       2233       2232  
      2102       2103       2114       2113       2223       2224       2235       2234  
      2103       2104       2115       2114       2224       2225       2236       2235  
      2104       2105       2116       2115       2225       2226       2237       2236  
      2105       2106       2117       2116       2226       2227       2238       2237  
      2106       2107       2118       2117       2227       2228       2239       2238  
      2107       2108       2119       2118       2228       2229       2240       2239  
      2108       2109       2120       2119       2229       2230       2241       2240  
      2109       2110       2121       2120       2230       2231       2242       2241  
      2110       2111       2122       2121       2231       2232       2243       2242  
      2111       2112       2123       2122       2232       2233       2244       2243  
      2113       2114       2125       2124       2234       2235       2246       2245  
      2114       2115       2126       2125       2235       2236       2247       2246  
      2115       2116       2127       2126       2236       2237       2248       2247  
      2116       2117       2128       2127       2237       2238       2249       2248  
      2117       2118       2129       2128       2238       2239       2250       2249  
      2118       2119       2130       2129       2239       2240       2251       2250  
      2119       2120       2131       2130       2240       2241       2252       2251  
      2120       2121       2132       2131       2241       2242       2253       2252  
      2121       2122       2133       2132       2242       2243       2254       2253  
      2122       2123       2134       2133       2243       2244       2255       2254  
      2124       2125       2136       2135       2245       2246       2257       2256  
      2125       2126       2137       2136       2246       2247       2258       2257  
      2126       2127       2138       2137       2247       2248       2259       2258  
      2127       2128       2139       2138       2248       2249       2260       2259  
      2128       2129       2140       2139       2249       2250       2261       2260  
      2129       2130       2141       2140       2250       2251       2262       2261  
      2130       2131       2142       2141       2251       2252       2263       2262  
      2131       2132       2143       2142       2252       2253       2264       2263  
      2132       2133       2144       2143       2253       2254       2265       2264  
      2133       2134       2145       2144       2254       2255       2266       2265  
      2135       2136       2147       2146       2256       2257       2268       2267  
      2136       2137       2148       2147       2257       2258       2269       2268  
      2137       2138       2149       2148       2258       2259       2270       2269  
      2138       2139       2150       2149       2259       2260       2271       2270  
      2139       2140       2151       2150       2260       2261       2272       2271  
      2140       2141       2152       2151       2261       2262       2273       2272  
      2141       2142       2153       2152       2262       2263       2274       2273  
      2142       2143       2154       2153       2263       2264       2275       2274  
      2143       2144       2155       2154       2264       2265       2276       2275  
      2144       2145       2156       2155       2265       2266       2277       2276  
      2146       2147       2158       2157       2267       2268       2279       2278  
      2147       2148       2159       2158       2268       2269       2280       2279  
      2148       2149       2160       2159       2269       2270       2281       2280  
      2149       2150       2161       2160       2270       2271       2282       2281  
      2150       2151       2162       2161       2271       2272       2283       2282  
      2151       2152       2163       2162       2272       2273       2284       2283  
      2152       2153       2164       2163       2273       2274       2285       2284  
      2153       2154       2165       2164       2274       2275       2286       2285  
      2154       2155       2166       2165       2275       2276       2287       2286  
      2155       2156       2167       2166       2276       2277       2288       2287  
      2157       2158       2169       2168       2278       2279       2290       2289  
      2158       2159       2170       2169       2279       2280       2291       2290  
      2159       2160       2171       2170       2280       2281       2292       2291  
      2160       2161       2172       2171       2281       2282       2293       2292  
      2161       2162       2173       2172       2282       2283       2294       2293  
      2162       2163       2174       2173       2283       2284       2295       2294  
      2163       2164       2175       2174       2284       2285       2296       2295  
      2164       2165       2176       2175       2285       2286       2297       2296  
      2165       2166       2177       2176       2286       2287       2298       2297  
      2166       2167       2178       2177       2287       2288       2299       2298  
      2179       2180       2191       2190       2300       2301       2312       2311  
      2180       2181       2192       2191       2301       2302       2313       2312  
      2181       2182       2193       2192       2302       2303       2314       2313  
      2182       2183       2194       2193       2303       2304       2315       2314  
      2183       2184       2195       2194       2304       2305       2316       2315  
      2184       2185       2196       2195       2305       2306       2317       2316  
      2185       2186       2197       2196       2306       2307       2318       2317  
      2186       2187       2198       2197       2307       2308       2319       2318  
      2187       2188       2199       2198       2308       2309       2320       2319  
      2188       2189       2200       2199       2309       2310       2321       2320  
      2190       2191       2202       2201       2311       2312       2323       2322  
      2191       2192       2203       2202       2312       2313       2324       2323  
      2192       2193       2204       2203       2313       2314       2325       2324  
      2193       2194       2205       2204       2314       2315       2326       2325  
      2194       2195       2206       2205       2315       2316       2327       2326  
      2195       2196       2207       2206       2316       2317       2328       2327  
      2196       2197       2208       2207       2317       2318       2329       2328  
      2197       2198       2209       2208       2318       2319       2330       2329  
      2198       2199       2210       2209       2319       2320       2331       2330  
      2199       2200       2211       2210       2320       2321       2332       2331  
      2201       2202       2213       2212       2322       2323       2334       2333  
      2202       2203       2214       2213       2323       2324       2335       2334  
      2203       2204       2215       2214       2324       2325       2336       2335  
      2204       2205       2216       2215       2325       2326       2337       2336  
      2205       2206       2217       2216       2326       2327       2338       2337  
      2206       2207       2218       2217       2327       2328       2339       2338  
      2207       2208       2219       2218       2328       2329       2340       2339  
      2208       2209       2220       2219       2329       2330       2341       2340  
      2209       2210       2221       2220       2330       2331       2342       2341  
      2210       2211       2222       2221       2331       2332       2343       2342  
      2212       2213       2224       2223       2333       2334       2345       2344  
      2213       2214       2225       2224       2334       2335       2346       2345  
      2214       2215       2226       2225       2335       2336       2347       2346  
      2215       2216       2227       2226       2336       2337       2348       2347  
      2216       2217       2228       2227       2337       2338       2349       2348  
      2217       2218       2229       2228       2338       2339       2350       2349  
      2218       2219       2230       2229       2339       2340       2351       2350  
      2219       2220       2231       2230       2340       2341       2352       2351  
      2220       2221       2232       2231       2341       2342       2353       2352  
      2221       2222       2233       2232       2342       2343       2354       2353  
      2223       2224       2235       2234       2344       2345       2356       2355  
      2224       2225       2236       2235       2345       2346       2357       2356  
      2225       2226       2237       2236       2346       2347       2358       2357  
      2226       2227       2238       2237       2347       2348       2359       2358  
      2227       2228       2239       2238       2348       2349       2360       2359  
      2228       2229       2240       2239       2349       2350       2361       2360  
      2229       2230       2241       2240       2350       2351       2362       2361  
      2230       2231       2242       2241       2351       2352       2363       2362  
      2231       2232       2243       2242       2352       2353       2364       2363  
      2232       2233       2244       2243       2353       2354       2365       2364  
      2234       2235       2246       2245       2355       2356       2367       2366  
      2235       2236       2247       2246       2356       2357       2368       2367  
      2236       2237       2248       2247       2357       2358       2369       2368  
      2237       2238       2249       2248       2358       2359       2370       2369  
      2238       2239       2250       2249       2359       2360       2371       2370  
      2239       2240       2251       2250       2360       2361       2372       2371  
      2240       2241       2252       2251       2361       2362       2373       2372  
      2241       2242       2253       2252       2362       2363       2374       2373  
      2242       2243       2254       2253       2363       2364       2375       2374  
      2243       2244       2255       2254       2364       2365       2376       2375  
      2245       2246       2257       2256       2366       2367       2378       2377  
      2246       2247       2258       2257       2367       2368       2379       2378  
      2247       2248       2259       2258       2368       2369       2380       2379  
      2248       2249       2260       2259       2369       2370       2381       2380  
      2249       2250       2261       2260       2370       2371       2382       2381  
      2250       2251       2262       2261       2371       2372       2383       2382  
      2251       2252       2263       2262       2372       2373       2384       2383  
      2252       2253       2264       2263       2373       2374       2385       2384  
      2253       2254       2265       2264       2374       2375       2386       2385  
      2254       2255       2266       2265       2375       2376       2387       2386  
      2256       2257       2268       2267       2377       2378       2389       2388  
      2257       2258       2269       2268       2378       2379       2390       2389  
      2258       2259       2270       2269       2379       2380       2391       2390  
      2259       2260       2271       2270       2380       2381       2392       2391  
      2260       2261       2272       2271       2381       2382       2393       2392  
      2261       2262       2273       2272       2382       2383       2394       2393  
      2262       2263       2274       2273       2383       2384       2395       2394  
      2263       2264       2275       2274       2384       2385       2396       2395  
      2264       2265       2276       2275       2385       2386       2397       2396  
      2265       2266       2277       2276       2386       2387       2398       2397  
      2267       2268       2279       2278       2388       2389       2400       2399  
      2268       2269       2280       2279       2389       2390       2401       2400  
      2269       2270       2281       2280       2390       2391       2402       2401  
      2270       2271       2282       2281       2391       2392       2403       2402  
      2271       2272       2283       2282       2392       2393       2404       2403  
      2272       2273       2284       2283       2393       2394       2405       2404  
      2273       2274       2285       2284       2394       2395       2406       2405  
      2274       2275       2286       2285       2395       2396       2407       2406  
      2275       2276       2287       2286       2396       2397       2408       2407  
      2276       2277       2288       2287       2397       2398       2409       2408  
      2278       2279       2290       2289       2399       2400       2411       2410  
      2279       2280       2291       2290       2400       2401       2412       2411  
      2280       2281       2292       2291       2401       2402       2413       2412  
      2281       2282       2293       2292       2402       2403       2414       2413  
      2282       2283       2294       2293       2403       2404       2415       2414  
      2283       2284       2295       2294       2404       2405       2416       2415  
      2284       2285       2296       2295       2405       2406       2417       2416  
      2285       2286       2297       2296       2406       2407       2418       2417  
      2286       2287       2298       2297       2407       2408       2419       2418  
      2287       2288       2299       2298       2408       2409       2420       2419  
      2300       2301       2312       2311       2421       2422       2433       2432  
      2301       2302       2313       2312       2422       2423       2434       2433  
      2302       2303       2314       2313       2423       2424       2435       2434  
      2303       2304       2315       2314       2424       2425       2436       2435  
      2304       2305       2316       2315       2425       2426       2437       2436  
      2305       2306       2317       2316       2426       2427       2438       2437  
      2306       2307       2318       2317       2427       2428       2439       2438  
      2307       2308       2319       2318       2428       2429       2440       2439  
      2308       2309       2320       2319       2429       2430       2441       2440  
      2309       2310       2321       2320       2430       2431       2442       2441  
      2311       2312       2323       2322       2432       2433       2444       2443  
      2312       2313       2324       2323       2433       2434       2445       2444  
      2313       2314       2325       2324       2434       2435       2446       2445  
      2314       2315       2326       2325       2435       2436       2447       2446  
      2315       2316       2327       2326       2436       2437       2448       2447  
      2316       2317       2328       2327       2437       2438       2449       2448  
      2317       2318       2329       2328       2438       2439       2450       2449  
      2318       2319       2330       2329       2439       2440       2451       2450  
      2319       2320       2331       2330       2440       2441       2452       2451  
      2320       2321       2332       2331       2441       2442       2453       2452  
      2322       2323       2334       2333       2443       2444       2455       2454  
      2323       2324       2335       2334       2444       2445       2456       2455  
      2324       2325       2336       2335       2445       2446       2457       2456  
      2325       2326       2337       2336       2446       2447       2458       2457  
      2326       2327       2338       2337       2447       2448       2459       2458  
      2327       2328       2339       2338       2448       2449       2460       2459  
      2328       2329       2340       2339       2449       2450       2461       2460  
      2329       2330       2341       2340       2450       2451       2462       2461  
      2330       2331       2342       2341       2451       2452       2463       2462  
      2331       2332       2343       2342       2452       2453       2464       2463  
      2333       2334       2345       2344       2454       2455       2466       2465  
      2334       2335       2346       2345       2455       2456       2467       2466  
      2335       2336       2347       2346       2456       2457       2468       2467  
      2336       2337       2348       2347       2457       2458       2469       2468  
      2337       2338       2349       2348       2458       2459       2470       2469  
      2338       2339       2350       2349       2459       2460       2471       2470  
      2339       2340       2351       2350       2460       2461       2472       2471  
      2340       2341       2352       2351       2461       2462       2473       2472  
      2341       2342       2353       2352       2462       2463       2474       2473  
      2342       2343       2354       2353       2463       2464       2475       2474  
      2344       2345       2356       2355       2465       2466       2477       2476  
      2345       2346       2357       2356       2466       2467       2478       2477  
      2346       2347       2358       2357       2467       2468       2479       2478  
      2347       2348       2359       2358       2468       2469       2480       2479  
      2348       2349       2360       2359       2469       2470       2481       2480  
      2349       2350       2361       2360       2470       2471       2482       2481  
      2350       2351       2362       2361       2471       2472       2483       2482  
      2351       2352       2363       2362       2472       2473       2484       2483  
      2352       2353       2364       2363       2473       2474       2485       2484  
      2353       2354       2365       2364       2474       2475       2486       2485  
      2355       2356       2367       2366       2476       2477       2488       2487  
      2356       2357       2368       2367       2477       2478       2489       2488  
      2357       2358       2369       2368       2478       2479       2490       2489  
      2358       2359       2370       2369       2479       2480       2491       2490  
      2359       2360       2371       2370       2480       2481       2492       2491  
      2360       2361       2372       2371       2481       2482       2493       2492  
      2361       2362       2373       2372       2482       2483       2494       2493  
      2362       2363       2374       2373       2483       2484       2495       2494  
      2363       2364       2375       2374       2484       2485       2496       2495  
      2364       2365       2376       2375       2485       2486       2497       2496  
      2366       2367       2378       2377       2487       2488       2499       2498  
      2367       2368       2379       2378       2488       2489       2500       2499  
      2368       2369       2380       2379       2489       2490       2501       2500  
      2369       2370       2381       2380       2490       2491       2502       2501  
      2370       2371       2382       2381       2491       2492       2503       2502  
      2371       2372       2383       2382       2492       2493       2504       2503  
      2372       2373       2384       2383       2493       2494       2505       2504  
      2373       2374       2385       2384       2494       2495       2506       2505  
      2374       2375       2386       2385       2495       2496       2507       2506  
      2375       2376       2387       2386       2496       2497       2508       2507  
      2377       2378       2389       2388       2498       2499       2510       2509  
      2378       2379       2390       2389       2499       2500       2511       2510  
      2379       2380       2391       2390       2500       2501       2512       2511  
      2380       2381       2392       2391       2501       2502       2513       2512  
      2381       2382       2393       2392       2502       2503       2514       2513  
      2382       2383       2394       2393       2503       2504       2515       2514  
      2383       2384       2395       2394       2504       2505       2516       2515  
      2384       2385       2396       2395       2505       2506       2517       2516  
      2385       2386       2397       2396       2506       2507       2518       2517  
      2386       2387       2398       2397       2507       2508       2519       2518  
      2388       2389       2400       2399       2509       2510       2521       2520  
      2389       2390       2401       2400       2510       2511       2522       2521  
      2390       2391       2402       2401       2511       2512       2523       2522  
      2391       2392       2403       2402       2512       2513       2524       2523  
      2392       2393       2404       2403       2513       2514       2525       2524  
      2393       2394       2405       2404       2514       2515       2526       2525  
      2394       2395       2406       2405       2515       2516       2527       2526  
      2395       2396       2407       2406       2516       2517       2528       2527  
      2396       2397       2408       2407       2517       2518       2529       2528  
      2397       2398       2409       2408       2518       2519       2530       2529  
      2399       2400       2411       2410       2520       2521       2532       2531  
      2400       2401       2412       2411       2521       2522       2533       2532  
      2401       2402       2413       2412       2522       2523       2534       2533  
      2402       2403       2414       2413       2523       2524       2535       2534  
      2403       2404       2415       2414       2524       2525       2536       2535  
      2404       2405       2416       2415       2525       2526       2537       2536  
      2405       2406       2417       2416       2526       2527       2538       2537  
      2406       2407       2418       2417       2527       2528       2539       2538  
      2407       2408       2419       2418       2528       2529       2540       2539  
      2408       2409       2420       2419       2529       2530       2541       2540  
      2421       2422       2433       2432       2542       2543       2554       2553  
      2422       2423       2434       2433       2543       2544       2555       2554  
      2423       2424       2435       2434       2544       2545       2556       2555  
      2424       2425       2436       2435       2545       2546       2557       2556  
      2425       2426       2437       2436       2546       2547       2558       2557  
      2426       2427       2438       2437       2547       2548       2559       2558  
      2427       2428       2439       2438       2548       2549       2560       2559  
      2428       2429       2440       2439       2549       2550       2561       2560  
      2429       2430       2441       2440       2550       2551       2562       2561  
      2430       2431       2442       2441       2551       2552       2563       2562  
      2432       2433       2444       2443       2553       2554       2565       2564  
      2433       2434       2445       2444       2554       2555       2566       2565  
      2434       2435       2446       2445       2555       2556       2567       2566  
      2435       2436       2447       2446       2556       2557       2568       2567  
      2436       2437       2448       2447       2557       2558       2569       2568  
      2437       2438       2449       2448       2558       2559       2570       2569  
      2438       2439       2450       2449       2559       2560       2571       2570  
      2439       2440       2451       2450       2560       2561       2572       2571  
      2440       2441       2452       2451       2561       2562       2573       2572  
      2441       2442       2453       2452       2562       2563       2574       2573  
      2443       2444       2455       2454       2564       2565       2576       2575  
      2444       2445       2456       2455       2565       2566       2577       2576  
      2445       2446       2457       2456       2566       2567       2578       2577  
      2446       2447       2458       2457       2567       2568       2579       2578  
      2447       2448       2459       2458       2568       2569       2580       2579  
      2448       2449       2460       2459       2569       2570       2581       2580  
      2449       2450       2461       2460       2570       2571       2582       2581  
      2450       2451       2462       2461       2571       2572       2583       2582  
      2451       2452       2463       2462       2572       2573       2584       2583  
      2452       2453       2464       2463       2573       2574       2585       2584  
      2454       2455       2466       2465       2575       2576       2587       2586  
      2455       2456       2467       2466       2576       2577       2588       2587  
      2456       2457       2468       2467       2577       2578       2589       2588  
      2457       2458       2469       2468       2578       2579       2590       2589  
      2458       2459       2470       2469       2579       2580       2591       2590  
      2459       2460       2471       2470       2580       2581       2592       2591  
      2460       2461       2472       2471       2581       2582       2593       2592  
      2461       2462       2473       2472       2582       2583       2594       2593  
      2462       2463       2474       2473       2583       2584       2595       2594  
      2463       2464       2475       2474       2584       2585       2596       2595  
      2465       2466       2477       2476       2586       2587       2598       2597  
      2466       2467       2478       2477       2587       2588       2599       2598  
      2467       2468       2479       2478       2588       2589       2600       2599  
      2468       2469       2480       2479       2589       2590       2601       2600  
      2469       2470       2481       2480       2590       2591       2602       2601  
      2470       2471       2482       2481       2591       2592       2603       2602  
      2471       2472       2483       2482       2592       2593       2604       2603  
      2472       2473       2484       2483       2593       2594       2605       2604  
      2473       2474       2485       2484       2594       2595       2606       2605  
      2474       2475       2486       2485       2595       2596       2607       2606  
      2476       2477       2488       2487       2597       2598       2609       2608  
      2477       2478       2489       2488       2598       2599       2610       2609  
      2478       2479       2490       2489       2599       2600       2611       2610  
      2479       2480       2491       2490       2600       2601       2612       2611  
      2480       2481       2492       2491       2601       2602       2613       2612  
      2481       2482       2493       2492       2602       2603       2614       2613  
      2482       2483       2494       2493       2603       2604       2615       2614  
      2483       2484       2495       2494       2604       2605       2616       2615  
      2484       2485       2496       2495       2605       2606       2617       2616  
      2485       2486       2497       2496       2606       2607       2618       2617  
      2487       2488       2499       2498       2608       2609       2620       2619  
      2488       2489       2500       2499       2609       2610       2621       2620  
      2489       2490       2501       2500       2610       2611       2622       2621  
      2490       2491       2502       2501       2611       2612       2623       2622  
      2491       2492       2503       2502       2612       2613       2624       2623  
      2492       2493       2504       2503       2613       2614       2625       2624  
      2493       2494       2505       2504       2614       2615       2626       2625  
      2494       2495       2506       2505       2615       2616       2627       2626  
      2495       2496       2507       2506       2616       2617       2628       2627  
      2496       2497       2508       2507       2617       2618       2629       2628  
      2498       2499       2510       2509       2619       2620       2631       2630  
      2499       2500       2511       2510       2620       2621       2632       2631  
      2500       2501       2512       2511       2621       2622       2633       2632  
      2501       2502       2513       2512       2622       2623       2634       2633  
      2502       2503       2514       2513       2623       2624       2635       2634  
      2503       2504       2515       2514       2624       2625       2636       2635  
      2504       2505       2516       2515       2625       2626       2637       2636  
      2505       2506       2517       2516       2626       2627       2638       2637  
      2506       2507       2518       2517       2627       2628       2639       2638  
      2507       2508       2519       2518       2628       2629       2640       2639  
      2509       2510       2521       2520       2630       2631       2642       2641  
      2510       2511       2522       2521       2631       2632       2643       2642  
      2511       2512       2523       2522       2632       2633       2644       2643  
      2512       2513       2524       2523       2633       2634       2645       2644  
      2513       2514       2525       2524       2634       2635       2646       2645  
      2514       2515       2526       2525       2635       2636       2647       2646  
      2515       2516       2527       2526       2636       2637       2648       2647  
      2516       2517       2528       2527       2637       2638       2649       2648  
      2517       2518       2529       2528       2638       2639       2650       2649  
      2518       2519       2530       2529       2639       2640       2651       2650  
      2520       2521       2532       2531       2641       2642       2653       2652  
      2521       2522       2533       2532       2642       2643       2654       2653  
      2522       2523       2534       2533       2643       2644       2655       2654  
      2523       2524       2535       2534       2644       2645       2656       2655  
      2524       2525       2536       2535       2645       2646       2657       2656  
      2525       2526       2537       2536       2646       2647       2658       2657  
      2526       2527       2538       2537       2647       2648       2659       2658  
      2527       2528       2539       2538       2648       2649       2660       2659  
      2528       2529       2540       2539       2649       2650       2661       2660  
      2529       2530       2541       2540       2650       2651       2662       2661  
      2542       2543       2554       2553       2663       2664       2675       2674  
      2543       2544       2555       2554       2664       2665       2676       2675  
      2544       2545       2556       2555       2665       2666       2677       2676  
      2545       2546       2557       2556       2666       2667       2678       2677  
      2546       2547       2558       2557       2667       2668       2679       2678  
      2547       2548       2559       2558       2668       2669       2680       2679  
      2548       2549       2560       2559       2669       2670       2681       2680  
      2549       2550       2561       2560       2670       2671       2682       2681  
      2550       2551       2562       2561       2671       2672       2683       2682  
      2551       2552       2563       2562       2672       2673       2684       2683  
      2553       2554       2565       2564       2674       2675       2686       2685  
      2554       2555       2566       2565       2675       2676       2687       2686  
      2555       2556       2567       2566       2676       2677       2688       2687  
      2556       2557       2568       2567       2677       2678       2689       2688  
      2557       2558       2569       2568       2678       2679       2690       2689  
      2558       2559       2570       2569       2679       2680       2691       2690  
      2559       2560       2571       2570       2680       2681       2692       2691  
      2560       2561       2572       2571       2681       2682       2693       2692  
      2561       2562       2573       2572       2682       2683       2694       2693  
      2562       2563       2574       2573       2683       2684       2695       2694  
      2564       2565       2576       2575       2685       2686       2697       2696  
      2565       2566       2577       2576       2686       2687       2698       2697  
      2566       2567       2578       2577       2687       2688       2699       2698  
      2567       2568       2579       2578       2688       2689       2700       2699  
      2568       2569       2580       2579       2689       2690       2701       2700  
      2569       2570       2581       2580       2690       2691       2702       2701  
      2570       2571       2582       2581       2691       2692       2703       2702  
      2571       2572       2583       2582       2692       2693       2704       2703  
      2572       2573       2584       2583       2693       2694       2705       2704  
      2573       2574       2585       2584       2694       2695       2706       2705  
      2575       2576       2587       2586       2696       2697       2708       2707  
      2576       2577       2588       2587       2697       2698       2709       2708  
      2577       2578       2589       2588       2698       2699       2710       2709  
      2578       2579       2590       2589       2699       2700       2711       2710  
      2579       2580       2591       2590       2700       2701       2712       2711  
      2580       2581       2592       2591       2701       2702       2713       2712  
      2581       2582       2593       2592       2702       2703       2714       2713  
      2582       2583       2594       2593       2703       2704       2715       2714  
      2583       2584       2595       2594       2704       2705       2716       2715  
      2584       2585       2596       2595       2705       2706       2717       2716  
      2586       2587       2598       2597       2707       2708       2719       2718  
      2587       2588       2599       2598       2708       2709       2720       2719  
      2588       2589       2600       2599       2709       2710       2721       2720  
      2589       2590       2601       2600       2710       2711       2722       2721  
      2590       2591       2602       2601       2711       2712       2723       2722  
      2591       2592       2603       2602       2712       2713       2724       2723  
      2592       2593       2604       2603       2713       2714       2725       2724  
      2593       2594       2605       2604       2714       2715       2726       2725  
      2594       2595       2606       2605       2715       2716       2727       2726  
      2595       2596       2607       2606       2716       2717       2728       2727  
      2597       2598       2609       2608       2718       2719       2730       2729  
      2598       2599       2610       2609       2719       2720       2731       2730  
      2599       2600       2611       2610       2720       2721       2732       2731  
      2600       2601       2612       2611       2721       2722       2733       2732  
      2601       2602       2613       2612       2722       2723       2734       2733  
      2602       2603       2614       2613       2723       2724       2735       2734  
      2603       2604       2615       2614       2724       2725       2736       2735  
      2604       2605       2616       2615       2725       2726       2737       2736  
      2605       2606       2617       2616       2726       2727       2738       2737  
      2606       2607       2618       2617       2727       2728       2739       2738  
      2608       2609       2620       2619       2729       2730       2741       2740  
      2609       2610       2621       2620       2730       2731       2742       2741  
      2610       2611       2622       2621       2731       2732       2743       2742  
      2611       2612       2623       2622       2732       2733       2744       2743  
      2612       2613       2624       2623       2733       2734       2745       2744  
      2613       2614       2625       2624       2734       2735       2746       2745  
      2614       2615       2626       2625       2735       2736       2747       2746  
      2615       2616       2627       2626       2736       2737       2748       2747  
      2616       2617       2628       2627       2737       2738       2749       2748  
      2617       2618       2629       2628       2738       2739       2750       2749  
      2619       2620       2631       2630       2740       2741       2752       2751  
      2620       2621       2632       2631       2741       2742       2753       2752  
      2621       2622       2633       2632       2742       2743       2754       2753  
      2622       2623       2634       2633       2743       2744       2755       2754  
      2623       2624       2635       2634       2744       2745       2756       2755  
      2624       2625       2636       2635       2745       2746       2757       2756  
      2625       2626       2637       2636       2746       2747       2758       2757  
      2626       2627       2638       2637       2747       2748       2759       2758  
      2627       2628       2639       2638       2748       2749       2760       2759  
      2628       2629       2640       2639       2749       2750       2761       2760  
      2630       2631       2642       2641       2751       2752       2763       2762  
      2631       2632       2643       2642       2752       2753       2764       2763  
      2632       2633       2644       2643       2753       2754       2765       2764  
      2633       2634       2645       2644       2754       2755       2766       2765  
      2634       2635       2646       2645       2755       2756       2767       2766  
      2635       2636       2647       2646       2756       2757       2768       2767  
      2636       2637       2648       2647       2757       2758       2769       2768  
      2637       2638       2649       2648       2758       2759       2770       2769  
      2638       2639       2650       2649       2759       2760       2771       2770  
      2639       2640       2651       2650       2760       2761       2772       2771  
      2641       2642       2653       2652       2762       2763       2774       2773  
      2642       2643       2654       2653       2763       2764       2775       2774  
      2643       2644       2655       2654       2764       2765       2776       2775  
      2644       2645       2656       2655       2765       2766       2777       2776  
      2645       2646       2657       2656       2766       2767       2778       2777  
      2646       2647       2658       2657       2767       2768       2779       2778  
      2647       2648       2659       2658       2768       2769       2780       2779  
      2648       2649       2660       2659       2769       2770       2781       2780  
      2649       2650       2661       2660       2770       2771       2782       2781  
      2650       2651       2662       2661       2771       2772       2783       2782  
      2663       2664       2675       2674       2784       2785       2796       2795  
      2664       2665       2676       2675       2785       2786       2797       2796  
      2665       2666       2677       2676       2786       2787       2798       2797  
      2666       2667       2678       2677       2787       2788       2799       2798  
      2667       2668       2679       2678       2788       2789       2800       2799  
      2668       2669       2680       2679       2789       2790       2801       2800  
      2669       2670       2681       2680       2790       2791       2802       2801  
      2670       2671       2682       2681       2791       2792       2803       2802  
      2671       2672       2683       2682       2792       2793       2804       2803  
      2672       2673       2684       2683       2793       2794       2805       2804  
      2674       2675       2686       2685       2795       2796       2807       2806  
      2675       2676       2687       2686       2796       2797       2808       2807  
      2676       2677       2688       2687       2797       2798       2809       2808  
      2677       2678       2689       2688       2798       2799       2810       2809  
      2678       2679       2690       2689       2799       2800       2811       2810  
      2679       2680       2691       2690       2800       2801       2812       2811  
      2680       2681       2692       2691       2801       2802       2813       2812  
      2681       2682       2693       2692       2802       2803       2814       2813  
      2682       2683       2694       2693       2803       2804       2815       2814  
      2683       2684       2695       2694       2804       2805       2816       2815  
      2685       2686       2697       2696       2806       2807       2818       2817  
      2686       2687       2698       2697       2807       2808       2819       2818  
      2687       2688       2699       2698       2808       2809       2820       2819  
      2688       2689       2700       2699       2809       2810       2821       2820  
      2689       2690       2701       2700       2810       2811       2822       2821  
      2690       2691       2702       2701       2811       2812       2823       2822  
      2691       2692       2703       2702       2812       2813       2824       2823  
      2692       2693       2704       2703       2813       2814       2825       2824  
      2693       2694       2705       2704       2814       2815       2826       2825  
      2694       2695       2706       2705       2815       2816       2827       2826  
      2696       2697       2708       2707       2817       2818       2829       2828  
      2697       2698       2709       2708       2818       2819       2830       2829  
      2698       2699       2710       2709       2819       2820       2831       2830  
      2699       2700       2711       2710       2820       2821       2832       2831  
      2700       2701       2712       2711       2821       2822       2833       2832  
      2701       2702       2713       2712       2822       2823       2834       2833  
      2702       2703       2714       2713       2823       2824       2835       2834  
      2703       2704       2715       2714       2824       2825       2836       2835  
      2704       2705       2716       2715       2825       2826       2837       2836  
      2705       2706       2717       2716       2826       2827       2838       2837  
      2707       2708       2719       2718       2828       2829       2840       2839  
      2708       2709       2720       2719       2829       2830       2841       2840  
      2709       2710       2721       2720       2830       2831       2842       2841  
      2710       2711       2722       2721       2831       2832       2843       2842  
      2711       2712       2723       2722       2832       2833       2844       2843  
      2712       2713       2724       2723       2833       2834       2845       2844  
      2713       2714       2725       2724       2834       2835       2846       2845  
      2714       2715       2726       2725       2835       2836       2847       2846  
      2715       2716       2727       2726       2836       2837       2848       2847  
      2716       2717       2728       2727       2837       2838       2849       2848  
      2718       2719       2730       2729       2839       2840       2851       2850  
      2719       2720       2731       2730       2840       2841       2852       2851  
      2720       2721       2732       2731       2841       2842       2853       2852  
      2721       2722       2733       2732       2842       2843       2854       2853  
      2722       2723       2734       2733       2843       2844       2855       2854  
      2723       2724       2735       2734       2844       2845       2856       2855  
      2724       2725       2736       2735       2845       2846       2857       2856  
      2725       2726       2737       2736       2846       2847       2858       2857  
      2726       2727       2738       2737       2847       2848       2859       2858  
      2727       2728       2739       2738       2848       2849       2860       2859  
      2729       2730       2741       2740       2850       2851       2862       2861  
      2730       2731       2742       2741       2851       2852       2863       2862  
      2731       2732       2743       2742       2852       2853       2864       2863  
      2732       2733       2744       2743       2853       2854       2865       2864  
      2733       2734       2745       2744       2854       2855       2866       2865  
      2734       2735       2746       2745       2855       2856       2867       2866  
      2735       2736       2747       2746       2856       2857       2868       2867  
      2736       2737       2748       2747       2857       2858       2869       2868  
      2737       2738       2749       2748       2858       2859       2870       2869  
      2738       2739       2750       2749       2859       2860       2871       2870  
      2740       2741       2752       2751       2861       2862       2873       2872  
      2741       2742       2753       2752       2862       2863       2874       2873  
      2742       2743       2754       2753       2863       2864       2875       2874  
      2743       2744       2755       2754       2864       2865       2876       2875  
      2744       2745       2756       2755       2865       2866       2877       2876  
      2745       2746       2757       2756       2866       2867       2878       2877  
      2746       2747       2758       2757       2867       2868       2879       2878  
      2747       2748       2759       2758       2868       2869       2880       2879  
      2748       2749       2760       2759       2869       2870       2881       2880  
      2749       2750       2761       2760       2870       2871       2882       2881  
      2751       2752       2763       2762       2872       2873       2884       2883  
      2752       2753       2764       2763       2873       2874       2885       2884  
      2753       2754       2765       2764       2874       2875       2886       2885  
      2754       2755       2766       2765       2875       2876       2887       2886  
      2755       2756       2767       2766       2876       2877       2888       2887  
      2756       2757       2768       2767       2877       2878       2889       2888  
      2757       2758       2769       2768       2878       2879       2890       2889  
      2758       2759       2770       2769       2879       2880       2891       2890  
      2759       2760       2771       2770       2880       2881       2892       2891  
      2760       2761       2772       2771       2881       2882       2893       2892  
      2762       2763       2774       2773       2883       2884       2895       2894  
      2763       2764       2775       2774       2884       2885       2896       2895  
      2764       2765       2776       2775       2885       2886       2897       2896  
      2765       2766       2777       2776       2886       2887       2898       2897  
      2766       2767       2778       2777       2887       2888       2899       2898  
      2767       2768       2779       2778       2888       2889       2900       2899  
      2768       2769       2780       2779       2889       2890       2901       2900  
      2769       2770       2781       2780       2890       2891       2902       2901  
      2770       2771       2782       2781       2891       2892       2903       2902  
      2771       2772       2783       2782       2892       2893       2904       2903  
      2784       2785       2796       2795       2905       2906       2917       2916  
      2785       2786       2797       2796       2906       2907       2918       2917  
      2786       2787       2798       2797       2907       2908       2919       2918  
      2787       2788       2799       2798       2908       2909       2920       2919  
      2788       2789       2800       2799       2909       2910       2921       2920  
      2789       2790       2801       2800       2910       2911       2922       2921  
      2790       2791       2802       2801       2911       2912       2923       2922  
      2791       2792       2803       2802       2912       2913       2924       2923  
      2792       2793       2804       2803       2913       2914       2925       2924  
      2793       2794       2805       2804       2914       2915       2926       2925  
      2795       2796       2807       2806       2916       2917       2928       2927  
      2796       2797       2808       2807       2917       2918       2929       2928  
      2797       2798       2809       2808       2918       2919       2930       2929  
      2798       2799       2810       2809       2919       2920       2931       2930  
      2799       2800       2811       2810       2920       2921       2932       2931  
      2800       2801       2812       2811       2921       2922       2933       2932  
      2801       2802       2813       2812       2922       2923       2934       2933  
      2802       2803       2814       2813       2923       2924       2935       2934  
      2803       2804       2815       2814       2924       2925       2936       2935  
      2804       2805       2816       2815       2925       2926       2937       2936  
      2806       2807       2818       2817       2927       2928       2939       2938  
      2807       2808       2819       2818       2928       2929       2940       2939  
      2808       2809       2820       2819       2929       2930       2941       2940  
      2809       2810       2821       2820       2930       2931       2942       2941  
      2810       2811       2822       2821       2931       2932       2943       2942  
      2811       2812       2823       2822       2932       2933       2944       2943  
      2812       2813       2824       2823       2933       2934       2945       2944  
      2813       2814       2825       2824       2934       2935       2946       2945  
      2814       2815       2826       2825       2935       2936       2947       2946  
      2815       2816       2827       2826       2936       2937       2948       2947  
      2817       2818       2829       2828       2938       2939       2950       2949  
      2818       2819       2830       2829       2939       2940       2951       2950  
      2819       2820       2831       2830       2940       2941       2952       2951  
      2820       2821       2832       2831       2941       2942       2953       2952  
      2821       2822       2833       2832       2942       2943       2954       2953  
      2822       2823       2834       2833       2943       2944       2955       2954  
      2823       2824       2835       2834       2944       2945       2956       2955  
      2824       2825       2836       2835       2945       2946       2957       2956  
      2825       2826       2837       2836       2946       2947       2958       2957  
      2826       2827       2838       2837       2947       2948       2959       2958  
      2828       2829       2840       2839       2949       2950       2961       2960  
      2829       2830       2841       2840       2950       2951       2962       2961  
      2830       2831       2842       2841       2951       2952       2963       2962  
      2831       2832       2843       2842       2952       2953       2964       2963  
      2832       2833       2844       2843       2953       2954       2965       2964  
      2833       2834       2845       2844       2954       2955       2966       2965  
      2834       2835       2846       2845       2955       2956       2967       2966  
      2835       2836       2847       2846       2956       2957       2968       2967  
      2836       2837       2848       2847       2957       2958       2969       2968  
      2837       2838       2849       2848       2958       2959       2970       2969  
      2839       2840       2851       2850       2960       2961       2972       2971  
      2840       2841       2852       2851       2961       2962       2973       2972  
      2841       2842       2853       2852       2962       2963       2974       2973  
      2842       2843       2854       2853       2963       2964       2975       2974  
      2843       2844       2855       2854       2964       2965       2976       2975  
      2844       2845       2856       2855       2965       2966       2977       2976  
      2845       2846       2857       2856       2966       2967       2978       2977  
      2846       2847       2858       2857       2967       2968       2979       2978  
      2847       2848       2859       2858       2968       2969       2980       2979  
      2848       2849       2860       2859       2969       2970       2981       2980  
      2850       2851       2862       2861       2971       2972       2983       2982  
      2851       2852       2863       2862       2972       2973       2984       2983  
      2852       2853       2864       2863       2973       2974       2985       2984  
      2853       2854       2865       2864       2974       2975       2986       2985  
      2854       2855       2866       2865       2975       2976       2987       2986  
      2855       2856       2867       2866       2976       2977       2988       2987  
      2856       2857       2868       2867       2977       2978       2989       2988  
      2857       2858       2869       2868       2978       2979       2990       2989  
      2858       2859       2870       2869       2979       2980       2991       2990  
      2859       2860       2871       2870       2980       2981       2992       2991  
      2861       2862       2873       2872       2982       2983       2994       2993  
      2862       2863       2874       2873       2983       2984       2995       2994  
      2863       2864       2875       2874       2984       2985       2996       2995  
      2864       2865       2876       2875       2985       2986       2997       2996  
      2865       2866       2877       2876       2986       2987       2998       2997  
      2866       2867       2878       2877       2987       2988       2999       2998  
      2867       2868       2879       2878       2988       2989       3000       2999  
      2868       2869       2880       2879       2989       2990       3001       3000  
      2869       2870       2881       2880       2990       2991       3002       3001  
      2870       2871       2882       2881       2991       2992       3003       3002  
      2872       2873       2884       2883       2993       2994       3005       3004  
      2873       2874       2885       2884       2994       2995       3006       3005  
      2874       2875       2886       2885       2995       2996       3007       3006  
      2875       2876       2887       2886       2996       2997       3008       3007  
      2876       2877       2888       2887       2997       2998       3009       3008  
      2877       2878       2889       2888       2998       2999       3010       3009  
      2878       2879       2890       2889       2999       3000       3011       3010  
      2879       2880       2891       2890       3000       3001       3012       3011  
      2880       2881       2892       2891       3001       3002       3013       3012  
      2881       2882       2893       2892       3002       3003       3014       3013  
      2883       2884       2895       2894       3004       3005       3016       3015  
      2884       2885       2896       2895       3005       3006       3017       3016  
      2885       2886       2897       2896       3006       3007       3018       3017  
      2886       2887       2898       2897       3007       3008       3019       3018  
      2887       2888       2899       2898       3008       3009       3020       3019  
      2888       2889       2900       2899       3009       3010       3021       3020  
      2889       2890       2901       2900       3010       3011       3022       3021  
      2890       2891       2902       2901       3011       3012       3023       3022  
      2891       2892       2903       2902       3012       3013       3024       3023  
      2892       2893       2904       2903       3013       3014       3025       3024  
      2905       2906       2917       2916       3026       3027       3038       3037  
      2906       2907       2918       2917       3027       3028       3039       3038  
      2907       2908       2919       2918       3028       3029       3040       3039  
      2908       2909       2920       2919       3029       3030       3041       3040  
      2909       2910       2921       2920       3030       3031       3042       3041  
      2910       2911       2922       2921       3031       3032       3043       3042  
      2911       2912       2923       2922       3032       3033       3044       3043  
      2912       2913       2924       2923       3033       3034       3045       3044  
      2913       2914       2925       2924       3034       3035       3046       3045  
      2914       2915       2926       2925       3035       3036       3047       3046  
      2916       2917       2928       2927       3037       3038       3049       3048  
      2917       2918       2929       2928       3038       3039       3050       3049  
      2918       2919       2930       2929       3039       3040       3051       3050  
      2919       2920       2931       2930       3040       3041       3052       3051  
      2920       2921       2932       2931       3041       3042       3053       3052  
      2921       2922       2933       2932       3042       3043       3054       3053  
      2922       2923       2934       2933       3043       3044       3055       3054  
      2923       2924       2935       2934       3044       3045       3056       3055  
      2924       2925       2936       2935       3045       3046       3057       3056  
      2925       2926       2937       2936       3046       3047       3058       3057  
      2927       2928       2939       2938       3048       3049       3060       3059  
      2928       2929       2940       2939       3049       3050       3061       3060  
      2929       2930       2941       2940       3050       3051       3062       3061  
      2930       2931       2942       2941       3051       3052       3063       3062  
      2931       2932       2943       2942       3052       3053       3064       3063  
      2932       2933       2944       2943       3053       3054       3065       3064  
      2933       2934       2945       2944       3054       3055       3066       3065  
      2934       2935       2946       2945       3055       3056       3067       3066  
      2935       2936       2947       2946       3056       3057       3068       3067  
      2936       2937       2948       2947       3057       3058       3069       3068  
      2938       2939       2950       2949       3059       3060       3071       3070  
      2939       2940       2951       2950       3060       3061       3072       3071  
      2940       2941       2952       2951       3061       3062       3073       3072  
      2941       2942       2953       2952       3062       3063       3074       3073  
      2942       2943       2954       2953       3063       3064       3075       3074  
      2943       2944       2955       2954       3064       3065       3076       3075  
      2944       2945       2956       2955       3065       3066       3077       3076  
      2945       2946       2957       2956       3066       3067       3078       3077  
      2946       2947       2958       2957       3067       3068       3079       3078  
      2947       2948       2959       2958       3068       3069       3080       3079  
      2949       2950       2961       2960       3070       3071       3082       3081  
      2950       2951       2962       2961       3071       3072       3083       3082  
      2951       2952       2963       2962       3072       3073       3084       3083  
      2952       2953       2964       2963       3073       3074       3085       3084  
      2953       2954       2965       2964       3074       3075       3086       3085  
      2954       2955       2966       2965       3075       3076       3087       3086  
      2955       2956       2967       2966       3076       3077       3088       3087  
      2956       2957       2968       2967       3077       3078       3089       3088  
      2957       2958       2969       2968       3078       3079       3090       3089  
      2958       2959       2970       2969       3079       3080       3091       3090  
      2960       2961       2972       2971       3081       3082       3093       3092  
      2961       2962       2973       2972       3082       3083       3094       3093  
      2962       2963       2974       2973       3083       3084       3095       3094  
      2963       2964       2975       2974       3084       3085       3096       3095  
      2964       2965       2976       2975       3085       3086       3097       3096  
      2965       2966       2977       2976       3086       3087       3098       3097  
      2966       2967       2978       2977       3087       3088       3099       3098  
      2967       2968       2979       2978       3088       3089       3100       3099  
      2968       2969       2980       2979       3089       3090       3101       3100  
      2969       2970       2981       2980       3090       3091       3102       3101  
      2971       2972       2983       2982       3092       3093       3104       3103  
      2972       2973       2984       2983       3093       3094       3105       3104  
      2973       2974       2985       2984       3094       3095       3106       3105  
      2974       2975       2986       2985       3095       3096       3107       3106  
      2975       2976       2987       2986       3096       3097       3108       3107  
      2976       2977       2988       2987       3097       3098       3109       3108  
      2977       2978       2989       2988       3098       3099       3110       3109  
      2978       2979       2990       2989       3099       3100       3111       3110  
      2979       2980       2991       2990       3100       3101       3112       3111  
      2980       2981       2992       2991       3101       3102       3113       3112  
      2982       2983       2994       2993       3103       3104       3115       3114  
      2983       2984       2995       2994       3104       3105       3116       3115  
      2984       2985       2996       2995       3105       3106       3117       3116  
      2985       2986       2997       2996       3106       3107       3118       3117  
      2986       2987       2998       2997       3107       3108       3119       3118  
      2987       2988       2999       2998       3108       3109       3120       3119  
      2988       2989       3000       2999       3109       3110       3121       3120  
      2989       2990       3001       3000       3110       3111       3122       3121  
      2990       2991       3002       3001       3111       3112       3123       3122  
      2991       2992       3003       3002       3112       3113       3124       3123  
      2993       2994       3005       3004       3114       3115       3126       3125  
      2994       2995       3006       3005       3115       3116       3127       3126  
      2995       2996       3007       3006       3116       3117       3128       3127  
      2996       2997       3008       3007       3117       3118       3129       3128  
      2997       2998       3009       3008       3118       3119       3130       3129  
      2998       2999       3010       3009       3119       3120       3131       3130  
      2999       3000       3011       3010       3120       3121       3132       3131  
      3000       3001       3012       3011       3121       3122       3133       3132  
      3001       3002       3013       3012       3122       3123       3134       3133  
      3002       3003       3014       3013       3123       3124       3135       3134  
      3004       3005       3016       3015       3125       3126       3137       3136  
      3005       3006       3017       3016       3126       3127       3138       3137  
      3006       3007       3018       3017       3127       3128       3139       3138  
      3007       3008       3019       3018       3128       3129       3140       3139  
      3008       3009       3020       3019       3129       3130       3141       3140  
      3009       3010       3021       3020       3130       3131       3142       3141  
      3010       3011       3022       3021       3131       3132       3143       3142  
      3011       3012       3023       3022       3132       3133       3144       3143  
      3012       3013       3024       3023       3133       3134       3145       3144  
      3013       3014       3025       3024       3134       3135       3146       3145  
      3026       3027       3038       3037       3147       3148       3159       3158  
      3027       3028       3039       3038       3148       3149       3160       3159  
      3028       3029       3040       3039       3149       3150       3161       3160  
      3029       3030       3041       3040       3150       3151       3162       3161  
      3030       3031       3042       3041       3151       3152       3163       3162  
      3031       3032       3043       3042       3152       3153       3164       3163  
      3032       3033       3044       3043       3153       3154       3165       3164  
      3033       3034       3045       3044       3154       3155       3166       3165  
      3034       3035       3046       3045       3155       3156       3167       3166  
      3035       3036       3047       3046       3156       3157       3168       3167  
      3037       3038       3049       3048       3158       3159       3170       3169  
      3038       3039       3050       3049       3159       3160       3171       3170  
      3039       3040       3051       3050       3160       3161       3172       3171  
      3040       3041       3052       3051       3161       3162       3173       3172  
      3041       3042       3053       3052       3162       3163       3174       3173  
      3042       3043       3054       3053       3163       3164       3175       3174  
      3043       3044       3055       3054       3164       3165       3176       3175  
      3044       3045       3056       3055       3165       3166       3177       3176  
      3045       3046       3057       3056       3166       3167       3178       3177  
      3046       3047       3058       3057       3167       3168       3179       3178  
      3048       3049       3060       3059       3169       3170       3181       3180  
      3049       3050       3061       3060       3170       3171       3182       3181  
      3050       3051       3062       3061       3171       3172       3183       3182  
      3051       3052       3063       3062       3172       3173       3184       3183  
      3052       3053       3064       3063       3173       3174       3185       3184  
      3053       3054       3065       3064       3174       3175       3186       3185  
      3054       3055       3066       3065       3175       3176       3187       3186  
      3055       3056       3067       3066       3176       3177       3188       3187  
      3056       3057       3068       3067       3177       3178       3189       3188  
      3057       3058       3069       3068       3178       3179       3190       3189  
      3059       3060       3071       3070       3180       3181       3192       3191  
      3060       3061       3072       3071       3181       3182       3193       3192  
      3061       3062       3073       3072       3182       3183       3194       3193  
      3062       3063       3074       3073       3183       3184       3195       3194  
      3063       3064       3075       3074       3184       3185       3196       3195  
      3064       3065       3076       3075       3185       3186       3197       3196  
      3065       3066       3077       3076       3186       3187       3198       3197  
      3066       3067       3078       3077       3187       3188       3199       3198  
      3067       3068       3079       3078       3188       3189       3200       3199  
      3068       3069       3080       3079       3189       3190       3201       3200  
      3070       3071       3082       3081       3191       3192       3203       3202  
      3071       3072       3083       3082       3192       3193       3204       3203  
      3072       3073       3084       3083       3193       3194       3205       3204  
      3073       3074       3085       3084       3194       3195       3206       3205  
      3074       3075       3086       3085       3195       3196       3207       3206  
      3075       3076       3087       3086       3196       3197       3208       3207  
      3076       3077       3088       3087       3197       3198       3209       3208  
      3077       3078       3089       3088       3198       3199       3210       3209  
      3078       3079       3090       3089       3199       3200       3211       3210  
      3079       3080       3091       3090       3200       3201       3212       3211  
      3081       3082       3093       3092       3202       3203       3214       3213  
      3082       3083       3094       3093       3203       3204       3215       3214  
      3083       3084       3095       3094       3204       3205       3216       3215  
      3084       3085       3096       3095       3205       3206       3217       3216  
      3085       3086       3097       3096       3206       3207       3218       3217  
      3086       3087       3098       3097       3207       3208       3219       3218  
      3087       3088       3099       3098       3208       3209       3220       3219  
      3088       3089       3100       3099       3209       3210       3221       3220  
      3089       3090       3101       3100       3210       3211       3222       3221  
      3090       3091       3102       3101       3211       3212       3223       3222  
      3092       3093       3104       3103       3213       3214       3225       3224  
      3093       3094       3105       3104       3214       3215       3226       3225  
      3094       3095       3106       3105       3215       3216       3227       3226  
      3095       3096       3107       3106       3216       3217       3228       3227  
      3096       3097       3108       3107       3217       3218       3229       3228  
      3097       3098       3109       3108       3218       3219       3230       3229  
      3098       3099       3110       3109       3219       3220       3231       3230  
      3099       3100       3111       3110       3220       3221       3232       3231  
      3100       3101       3112       3111       3221       3222       3233       3232  
      3101       3102       3113       3112       3222       3223       3234       3233  
      3103       3104       3115       3114       3224       3225       3236       3235  
      3104       3105       3116       3115       3225       3226       3237       3236  
      3105       3106       3117       3116       3226       3227       3238       3237  
      3106       3107       3118       3117       3227       3228       3239       3238  
      3107       3108       3119       3118       3228       3229       3240       3239  
      3108       3109       3120       3119       3229       3230       3241       3240  
      3109       3110       3121       3120       3230       3231       3242       3241  
      3110       3111       3122       3121       3231       3232       3243       3242  
      3111       3112       3123       3122       3232       3233       3244       3243  
      3112       3113       3124       3123       3233       3234       3245       3244  
      3114       3115       3126       3125       3235       3236       3247       3246  
      3115       3116       3127       3126       3236       3237       3248       3247  
      3116       3117       3128       3127       3237       3238       3249       3248  
      3117       3118       3129       3128       3238       3239       3250       3249  
      3118       3119       3130       3129       3239       3240       3251       3250  
      3119       3120       3131       3130       3240       3241       3252       3251  
      3120       3121       3132       3131       3241       3242       3253       3252  
      3121       3122       3133       3132       3242       3243       3254       3253  
      3122       3123       3134       3133       3243       3244       3255       3254  
      3123       3124       3135       3134       3244       3245       3256       3255  
      3125       3126       3137       3136       3246       3247       3258       3257  
      3126       3127       3138       3137       3247       3248       3259       3258  
      3127       3128       3139       3138       3248       3249       3260       3259  
      3128       3129       3140       3139       3249       3250       3261       3260  
      3129       3130       3141       3140       3250       3251       3262       3261  
      3130       3131       3142       3141       3251       3252       3263       3262  
      3131       3132       3143       3142       3252       3253       3264       3263  
      3132       3133       3144       3143       3253       3254       3265       3264  
      3133       3134       3145       3144       3254       3255       3266       3265  
      3134       3135       3146       3145       3255       3256       3267       3266  
      3147       3148       3159       3158       3268       3269       3280       3279  
      3148       3149       3160       3159       3269       3270       3281       3280  
      3149       3150       3161       3160       3270       3271       3282       3281  
      3150       3151       3162       3161       3271       3272       3283       3282  
      3151       3152       3163       3162       3272       3273       3284       3283  
      3152       3153       3164       3163       3273       3274       3285       3284  
      3153       3154       3165       3164       3274       3275       3286       3285  
      3154       3155       3166       3165       3275       3276       3287       3286  
      3155       3156       3167       3166       3276       3277       3288       3287  
      3156       3157       3168       3167       3277       3278       3289       3288  
      3158       3159       3170       3169       3279       3280       3291       3290  
      3159       3160       3171       3170       3280       3281       3292       3291  
      3160       3161       3172       3171       3281       3282       3293       3292  
      3161       3162       3173       3172       3282       3283       3294       3293  
      3162       3163       3174       3173       3283       3284       3295       3294  
      3163       3164       3175       3174       3284       3285       3296       3295  
      3164       3165       3176       3175       3285       3286       3297       3296  
      3165       3166       3177       3176       3286       3287       3298       3297  
      3166       3167       3178       3177       3287       3288       3299       3298  
      3167       3168       3179       3178       3288       3289       3300       3299  
      3169       3170       3181       3180       3290       3291       3302       3301  
      3170       3171       3182       3181       3291       3292       3303       3302  
      3171       3172       3183       3182       3292       3293       3304       3303  
      3172       3173       3184       3183       3293       3294       3305       3304  
      3173       3174       3185       3184       3294       3295       3306       3305  
      3174       3175       3186       3185       3295       3296       3307       3306  
      3175       3176       3187       3186       3296       3297       3308       3307  
      3176       3177       3188       3187       3297       3298       3309       3308  
      3177       3178       3189       3188       3298       3299       3310       3309  
      3178       3179       3190       3189       3299       3300       3311       3310  
      3180       3181       3192       3191       3301       3302       3313       3312  
      3181       3182       3193       3192       3302       3303       3314       3313  
      3182       3183       3194       3193       3303       3304       3315       3314  
      3183       3184       3195       3194       3304       3305       3316       3315  
      3184       3185       3196       3195       3305       3306       3317       3316  
      3185       3186       3197       3196       3306       3307       3318       3317  
      3186       3187       3198       3197       3307       3308       3319       3318  
      3187       3188       3199       3198       3308       3309       3320       3319  
      3188       3189       3200       3199       3309       3310       3321       3320  
      3189       3190       3201       3200       3310       3311       3322       3321  
      3191       3192       3203       3202       3312       3313       3324       3323  
      3192       3193       3204       3203       3313       3314       3325       3324  
      3193       3194       3205       3204       3314       3315       3326       3325  
      3194       3195       3206       3205       3315       3316       3327       3326  
      3195       3196       3207       3206       3316       3317       3328       3327  
      3196       3197       3208       3207       3317       3318       3329       3328  
      3197       3198       3209       3208       3318       3319       3330       3329  
      3198       3199       3210       3209       3319       3320       3331       3330  
      3199       3200       3211       3210       3320       3321       3332       3331  
      3200       3201       3212       3211       3321       3322       3333       3332  
      3202       3203       3214       3213       3323       3324       3335       3334  
      3203       3204       3215       3214       3324       3325       3336       3335  
      3204       3205       3216       3215       3325       3326       3337       3336  
      3205       3206       3217       3216       3326       3327       3338       3337  
      3206       3207       3218       3217       3327       3328       3339       3338  
      3207       3208       3219       3218       3328       3329       3340       3339  
      3208       3209       3220       3219       3329       3330       3341       3340  
      3209       3210       3221       3220       3330       3331       3342       3341  
      3210       3211       3222       3221       3331       3332       3343       3342  
      3211       3212       3223       3222       3332       3333       3344       3343  
      3213       3214       3225       3224       3334       3335       3346       3345  
      3214       3215       3226       3225       3335       3336       3347       3346  
      3215       3216       3227       3226       3336       3337       3348       3347  
      3216       3217       3228       3227       3337       3338       3349       3348  
      3217       3218       3229       3228       3338       3339       3350       3349  
      3218       3219       3230       3229       3339       3340       3351       3350  
      3219       3220       3231       3230       3340       3341       3352       3351  
      3220       3221       3232       3231       3341       3342       3353       3352  
      3221       3222       3233       3232       3342       3343       3354       3353  
      3222       3223       3234       3233       3343       3344       3355       3354  
      3224       3225       3236       3235       3345       3346       3357       3356  
      3225       3226       3237       3236       3346       3347       3358       3357  
      3226       3227       3238       3237       3347       3348       3359       3358  
      3227       3228       3239       3238       3348       3349       3360       3359  
      3228       3229       3240       3239       3349       3350       3361       3360  
      3229       3230       3241       3240       3350       3351       3362       3361  
      3230       3231       3242       3241       3351       3352       3363       3362  
      3231       3232       3243       3242       3352       3353       3364       3363  
      3232       3233       3244       3243       3353       3354       3365       3364  
      3233       3234       3245       3244       3354       3355       3366       3365  
      3235       3236       3247       3246       3356       3357       3368       3367  
      3236       3237       3248       3247       3357       3358       3369       3368  
      3237       3238       3249       3248       3358       3359       3370       3369  
      3238       3239       3250       3249       3359       3360       3371       3370  
      3239       3240       3251       3250       3360       3361       3372       3371  
      3240       3241       3252       3251       3361       3362       3373       3372  
      3241       3242       3253       3252       3362       3363       3374       3373  
      3242       3243       3254       3253       3363       3364       3375       3374  
      3243       3244       3255       3254       3364       3365       3376       3375  
      3244       3245       3256       3255       3365       3366       3377       3376  
      3246       3247       3258       3257       3367       3368       3379       3378  
      3247       3248       3259       3258       3368       3369       3380       3379  
      3248       3249       3260       3259       3369       3370       3381       3380  
      3249       3250       3261       3260       3370       3371       3382       3381  
      3250       3251       3262       3261       3371       3372       3383       3382  
      3251       3252       3263       3262       3372       3373       3384       3383  
      3252       3253       3264       3263       3373       3374       3385       3384  
      3253       3254       3265       3264       3374       3375       3386       3385  
      3254       3255       3266       3265       3375       3376       3387       3386  
      3255       3256       3267       3266       3376       3377       3388       3387  
      3268       3269       3280       3279       3389       3390       3401       3400  
      3269       3270       3281       3280       3390       3391       3402       3401  
      3270       3271       3282       3281       3391       3392       3403       3402  
      3271       3272       3283       3282       3392       3393       3404       3403  
      3272       3273       3284       3283       3393       3394       3405       3404  
      3273       3274       3285       3284       3394       3395       3406       3405  
      3274       3275       3286       3285       3395       3396       3407       3406  
      3275       3276       3287       3286       3396       3397       3408       3407  
      3276       3277       3288       3287       3397       3398       3409       3408  
      3277       3278       3289       3288       3398       3399       3410       3409  
      3279       3280       3291       3290       3400       3401       3412       3411  
      3280       3281       3292       3291       3401       3402       3413       3412  
      3281       3282       3293       3292       3402       3403       3414       3413  
      3282       3283       3294       3293       3403       3404       3415       3414  
      3283       3284       3295       3294       3404       3405       3416       3415  
      3284       3285       3296       3295       3405       3406       3417       3416  
      3285       3286       3297       3296       3406       3407       3418       3417  
      3286       3287       3298       3297       3407       3408       3419       3418  
      3287       3288       3299       3298       3408       3409       3420       3419  
      3288       3289       3300       3299       3409       3410       3421       3420  
      3290       3291       3302       3301       3411       3412       3423       3422  
      3291       3292       3303       3302       3412       3413       3424       3423  
      3292       3293       3304       3303       3413       3414       3425       3424  
      3293       3294       3305       3304       3414       3415       3426       3425  
      3294       3295       3306       3305       3415       3416       3427       3426  
      3295       3296       3307       3306       3416       3417       3428       3427  
      3296       3297       3308       3307       3417       3418       3429       3428  
      3297       3298       3309       3308       3418       3419       3430       3429  
      3298       3299       3310       3309       3419       3420       3431       3430  
      3299       3300       3311       3310       3420       3421       3432       3431  
      3301       3302       3313       3312       3422       3423       3434       3433  
      3302       3303       3314       3313       3423       3424       3435       3434  
      3303       3304       3315       3314       3424       3425       3436       3435  
      3304       3305       3316       3315       3425       3426       3437       3436  
      3305       3306       3317       3316       3426       3427       3438       3437  
      3306       3307       3318       3317       3427       3428       3439       3438  
      3307       3308       3319       3318       3428       3429       3440       3439  
      3308       3309       3320       3319       3429       3430       3441       3440  
      3309       3310       3321       3320       3430       3431       3442       3441  
      3310       3311       3322       3321       3431       3432       3443       3442  
      3312       3313       3324       3323       3433       3434       3445       3444  
      3313       3314       3325       3324       3434       3435       3446       3445  
      3314       3315       3326       3325       3435       3436       3447       3446  
      3315       3316       3327       3326       3436       3437       3448       3447  
      3316       3317       3328       3327       3437       3438       3449       3448  
      3317       3318       3329       3328       3438       3439       3450       3449  
      3318       3319       3330       3329       3439       3440       3451       3450  
      3319       3320       3331       3330       3440       3441       3452       3451  
      3320       3321       3332       3331       3441       3442       3453       3452  
      3321       3322       3333       3332       3442       3443       3454       3453  
      3323       3324       3335       3334       3444       3445       3456       3455  
      3324       3325       3336       3335       3445       3446       3457       3456  
      3325       3326       3337       3336       3446       3447       3458       3457  
      3326       3327       3338       3337       3447       3448       3459       3458  
      3327       3328       3339       3338       3448       3449       3460       3459  
      3328       3329       3340       3339       3449       3450       3461       3460  
      3329       3330       3341       3340       3450       3451       3462       3461  
      3330       3331       3342       3341       3451       3452       3463       3462  
      3331       3332       3343       3342       3452       3453       3464       3463  
      3332       3333       3344       3343       3453       3454       3465       3464  
      3334       3335       3346       3345       3455       3456       3467       3466  
      3335       3336       3347       3346       3456       3457       3468       3467  
      3336       3337       3348       3347       3457       3458       3469       3468  
      3337       3338       3349       3348       3458       3459       3470       3469  
      3338       3339       3350       3349       3459       3460       3471       3470  
      3339       3340       3351       3350       3460       3461       3472       3471  
      3340       3341       3352       3351       3461       3462       3473       3472  
      3341       3342       3353       3352       3462       3463       3474       3473  
      3342       3343       3354       3353       3463       3464       3475       3474  
      3343       3344       3355       3354       3464       3465       3476       3475  
      3345       3346       3357       3356       3466       3467       3478       3477  
      3346       3347       3358       3357       3467       3468       3479       3478  
      3347       3348       3359       3358       3468       3469       3480       3479  
      3348       3349       3360       3359       3469       3470       3481       3480  
      3349       3350       3361       3360       3470       3471       3482       3481  
      3350       3351       3362       3361       3471       3472       3483       3482  
      3351       3352       3363       3362       3472       3473       3484       3483  
      3352       3353       3364       3363       3473       3474       3485       3484  
      3353       3354       3365       3364       3474       3475       3486       3485  
      3354       3355       3366       3365       3475       3476       3487       3486  
      3356       3357       3368       3367       3477       3478       3489       3488  
      3357       3358       3369       3368       3478       3479       3490       3489  
      3358       3359       3370       3369       3479       3480       3491       3490  
      3359       3360       3371       3370       3480       3481       3492       3491  
      3360       3361       3372       3371       3481       3482       3493       3492  
      3361       3362       3373       3372       3482       3483       3494       3493  
      3362       3363       3374       3373       3483       3484       3495       3494  
      3363       3364       3375       3374       3484       3485       3496       3495  
      3364       3365       3376       3375       3485       3486       3497       3496  
      3365       3366       3377       3376       3486       3487       3498       3497  
      3367       3368       3379       3378       3488       3489       3500       3499  
      3368       3369       3380       3379       3489       3490       3501       3500  
      3369       3370       3381       3380       3490       3491       3502       3501  
      3370       3371       3382       3381       3491       3492       3503       3502  
      3371       3372       3383       3382       3492       3493       3504       3503  
      3372       3373       3384       3383       3493       3494       3505       3504  
      3373       3374       3385       3384       3494       3495       3506       3505  
      3374       3375       3386       3385       3495       3496       3507       3506  
      3375       3376       3387       3386       3496       3497       3508       3507  
      3376       3377       3388       3387       3497       3498       3509       3508  
      3389       3390       3401       3400       3510       3511       3522       3521  
      3390       3391       3402       3401       3511       3512       3523       3522  
      3391       3392       3403       3402       3512       3513       3524       3523  
      3392       3393       3404       3403       3513       3514       3525       3524  
      3393       3394       3405       3404       3514       3515       3526       3525  
      3394       3395       3406       3405       3515       3516       3527       3526  
      3395       3396       3407       3406       3516       3517       3528       3527  
      3396       3397       3408       3407       3517       3518       3529       3528  
      3397       3398       3409       3408       3518       3519       3530       3529  
      3398       3399       3410       3409       3519       3520       3531       3530  
      3400       3401       3412       3411       3521       3522       3533       3532  
      3401       3402       3413       3412       3522       3523       3534       3533  
      3402       3403       3414       3413       3523       3524       3535       3534  
      3403       3404       3415       3414       3524       3525       3536       3535  
      3404       3405       3416       3415       3525       3526       3537       3536  
      3405       3406       3417       3416       3526       3527       3538       3537  
      3406       3407       3418       3417       3527       3528       3539       3538  
      3407       3408       3419       3418       3528       3529       3540       3539  
      3408       3409       3420       3419       3529       3530       3541       3540  
      3409       3410       3421       3420       3530       3531       3542       3541  
      3411       3412       3423       3422       3532       3533       3544       3543  
      3412       3413       3424       3423       3533       3534       3545       3544  
      3413       3414       3425       3424       3534       3535       3546       3545  
      3414       3415       3426       3425       3535       3536       3547       3546  
      3415       3416       3427       3426       3536       3537       3548       3547  
      3416       3417       3428       3427       3537       3538       3549       3548  
      3417       3418       3429       3428       3538       3539       3550       3549  
      3418       3419       3430       3429       3539       3540       3551       3550  
      3419       3420       3431       3430       3540       3541       3552       3551  
      3420       3421       3432       3431       3541       3542       3553       3552  
      3422       3423       3434       3433       3543       3544       3555       3554  
      3423       3424       3435       3434       3544       3545       3556       3555  
      3424       3425       3436       3435       3545       3546       3557       3556  
      3425       3426       3437       3436       3546       3547       3558       3557  
      3426       3427       3438       3437       3547       3548       3559       3558  
      3427       3428       3439       3438       3548       3549       3560       3559  
      3428       3429       3440       3439       3549       3550       3561       3560  
      3429       3430       3441       3440       3550       3551       3562       3561  
      3430       3431       3442       3441       3551       3552       3563       3562  
      3431       3432       3443       3442       3552       3553       3564       3563  
      3433       3434       3445       3444       3554       3555       3566       3565  
      3434       3435       3446       3445       3555       3556       3567       3566  
      3435       3436       3447       3446       3556       3557       3568       3567  
      3436       3437       3448       3447       3557       3558       3569       3568  
      3437       3438       3449       3448       3558       3559       3570       3569  
      3438       3439       3450       3449       3559       3560       3571       3570  
      3439       3440       3451       3450       3560       3561       3572       3571  
      3440       3441       3452       3451       3561       3562       3573       3572  
      3441       3442       3453       3452       3562       3563       3574       3573  
      3442       3443       3454       3453       3563       3564       3575       3574  
      3444       3445       3456       3455       3565       3566       3577       3576  
      3445       3446       3457       3456       3566       3567       3578       3577  
      3446       3447       3458       3457       3567       3568       3579       3578  
      3447       3448       3459       3458       3568       3569       3580       3579  
      3448       3449       3460       3459       3569       3570       3581       3580  
      3449       3450       3461       3460       3570       3571       3582       3581  
      3450       3451       3462       3461       3571       3572       3583       3582  
      3451       3452       3463       3462       3572       3573       3584       3583  
      3452       3453       3464       3463       3573       3574       3585       3584  
      3453       3454       3465       3464       3574       3575       3586       3585  
      3455       3456       3467       3466       3576       3577       3588       3587  
      3456       3457       3468       3467       3577       3578       3589       3588  
      3457       3458       3469       3468       3578       3579       3590       3589  
      3458       3459       3470       3469       3579       3580       3591       3590  
      3459       3460       3471       3470       3580       3581       3592       3591  
      3460       3461       3472       3471       3581       3582       3593       3592  
      3461       3462       3473       3472       3582       3583       3594       3593  
      3462       3463       3474       3473       3583       3584       3595       3594  
      3463       3464       3475       3474       3584       3585       3596       3595  
      3464       3465       3476       3475       3585       3586       3597       3596  
      3466       3467       3478       3477       3587       3588       3599       3598  
      3467       3468       3479       3478       3588       3589       3600       3599  
      3468       3469       3480       3479       3589       3590       3601       3600  
      3469       3470       3481       3480       3590       3591       3602       3601  
      3470       3471       3482       3481       3591       3592       3603       3602  
      3471       3472       3483       3482       3592       3593       3604       3603  
      3472       3473       3484       3483       3593       3594       3605       3604  
      3473       3474       3485       3484       3594       3595       3606       3605  
      3474       3475       3486       3485       3595       3596       3607       3606  
      3475       3476       3487       3486       3596       3597       3608       3607  
      3477       3478       3489       3488       3598       3599       3610       3609  
      3478       3479       3490       3489       3599       3600       3611       3610  
      3479       3480       3491       3490       3600       3601       3612       3611  
      3480       3481       3492       3491       3601       3602       3613       3612  
      3481       3482       3493       3492       3602       3603       3614       3613  
      3482       3483       3494       3493       3603       3604       3615       3614  
      3483       3484       3495       3494       3604       3605       3616       3615  
      3484       3485       3496       3495       3605       3606       3617       3616  
      3485       3486       3497       3496       3606       3607       3618       3617  
      3486       3487       3498       3497       3607       3608       3619       3618  
      3488       3489       3500       3499       3609       3610       3621       3620  
      3489       3490       3501       3500       3610       3611       3622       3621  
      3490       3491       3502       3501       3611       3612       3623       3622  
      3491       3492       3503       3502       3612       3613       3624       3623  
      3492       3493       3504       3503       3613       3614       3625       3624  
      3493       3494       3505       3504       3614       3615       3626       3625  
      3494       3495       3506       3505       3615       3616       3627       3626  
      3495       3496       3507       3506       3616       3617       3628       3627  
      3496       3497       3508       3507       3617       3618       3629       3628  
      3497       3498       3509       3508       3618       3619       3630       3629  
      3510       3511       3522       3521       3631       3632       3643       3642  
      3511       3512       3523       3522       3632       3633       3644       3643  
      3512       3513       3524       3523       3633       3634       3645       3644  
      3513       3514       3525       3524       3634       3635       3646       3645  
      3514       3515       3526       3525       3635       3636       3647       3646  
      3515       3516       3527       3526       3636       3637       3648       3647  
      3516       3517       3528       3527       3637       3638       3649       3648  
      3517       3518       3529       3528       3638       3639       3650       3649  
      3518       3519       3530       3529       3639       3640       3651       3650  
      3519       3520       3531       3530       3640       3641       3652       3651  
      3521       3522       3533       3532       3642       3643       3654       3653  
      3522       3523       3534       3533       3643       3644       3655       3654  
      3523       3524       3535       3534       3644       3645       3656       3655  
      3524       3525       3536       3535       3645       3646       3657       3656  
      3525       3526       3537       3536       3646       3647       3658       3657  
      3526       3527       3538       3537       3647       3648       3659       3658  
      3527       3528       3539       3538       3648       3649       3660       3659  
      3528       3529       3540       3539       3649       3650       3661       3660  
      3529       3530       3541       3540       3650       3651       3662       3661  
      3530       3531       3542       3541       3651       3652       3663       3662  
      3532       3533       3544       3543       3653       3654       3665       3664  
      3533       3534       3545       3544       3654       3655       3666       3665  
      3534       3535       3546       3545       3655       3656       3667       3666  
      3535       3536       3547       3546       3656       3657       3668       3667  
      3536       3537       3548       3547       3657       3658       3669       3668  
      3537       3538       3549       3548       3658       3659       3670       3669  
      3538       3539       3550       3549       3659       3660       3671       3670  
      3539       3540       3551       3550       3660       3661       3672       3671  
      3540       3541       3552       3551       3661       3662       3673       3672  
      3541       3542       3553       3552       3662       3663       3674       3673  
      3543       3544       3555       3554       3664       3665       3676       3675  
      3544       3545       3556       3555       3665       3666       3677       3676  
      3545       3546       3557       3556       3666       3667       3678       3677  
      3546       3547       3558       3557       3667       3668       3679       3678  
      3547       3548       3559       3558       3668       3669       3680       3679  
      3548       3549       3560       3559       3669       3670       3681       3680  
      3549       3550       3561       3560       3670       3671       3682       3681  
      3550       3551       3562       3561       3671       3672       3683       3682  
      3551       3552       3563       3562       3672       3673       3684       3683  
      3552       3553       3564       3563       3673       3674       3685       3684  
      3554       3555       3566       3565       3675       3676       3687       3686  
      3555       3556       3567       3566       3676       3677       3688       3687  
      3556       3557       3568       3567       3677       3678       3689       3688  
      3557       3558       3569       3568       3678       3679       3690       3689  
      3558       3559       3570       3569       3679       3680       3691       3690  
      3559       3560       3571       3570       3680       3681       3692       3691  
      3560       3561       3572       3571       3681       3682       3693       3692  
      3561       3562       3573       3572       3682       3683       3694       3693  
      3562       3563       3574       3573       3683       3684       3695       3694  
      3563       3564       3575       3574       3684       3685       3696       3695  
      3565       3566       3577       3576       3686       3687       3698       3697  
      3566       3567       3578       3577       3687       3688       3699       3698  
      3567       3568       3579       3578       3688       3689       3700       3699  
      3568       3569       3580       3579       3689       3690       3701       3700  
      3569       3570       3581       3580       3690       3691       3702       3701  
      3570       3571       3582       3581       3691       3692       3703       3702  
      3571       3572       3583       3582       3692       3693       3704       3703  
      3572       3573       3584       3583       3693       3694       3705       3704  
      3573       3574       3585       3584       3694       3695       3706       3705  
      3574       3575       3586       3585       3695       3696       3707       3706  
      3576       3577       3588       3587       3697       3698       3709       3708  
      3577       3578       3589       3588       3698       3699       3710       3709  
      3578       3579       3590       3589       3699       3700       3711       3710  
      3579       3580       3591       3590       3700       3701       3712       3711  
      3580       3581       3592       3591       3701       3702       3713       3712  
      3581       3582       3593       3592       3702       3703       3714       3713  
      3582       3583       3594       3593       3703       3704       3715       3714  
      3583       3584       3595       3594       3704       3705       3716       3715  
      3584       3585       3596       3595       3705       3706       3717       3716  
      3585       3586       3597       3596       3706       3707       3718       3717  
      3587       3588       3599       3598       3708       3709       3720       3719  
      3588       3589       3600       3599       3709       3710       3721       3720  
      3589       3590       3601       3600       3710       3711       3722       3721  
      3590       3591       3602       3601       3711       3712       3723       3722  
      3591       3592       3603       3602       3712       3713       3724       3723  
      3592       3593       3604       3603       3713       3714       3725       3724  
      3593       3594       3605       3604       3714       3715       3726       3725  
      3594       3595       3606       3605       3715       3716       3727       3726  
      3595       3596       3607       3606       3716       3717       3728       3727  
      3596       3597       3608       3607       3717       3718       3729       3728  
      3598       3599       3610       3609       3719       3720       3731       3730  
      3599       3600       3611       3610       3720       3721       3732       3731  
      3600       3601       3612       3611       3721       3722       3733       3732  
      3601       3602       3613       3612       3722       3723       3734       3733  
      3602       3603       3614       3613       3723       3724       3735       3734  
      3603       3604       3615       3614       3724       3725       3736       3735  
      3604       3605       3616       3615       3725       3726       3737       3736  
      3605       3606       3617       3616       3726       3727       3738       3737  
      3606       3607       3618       3617       3727       3728       3739       3738  
      3607       3608       3619       3618       3728       3729       3740       3739  
      3609       3610       3621       3620       3730       3731       3742       3741  
      3610       3611       3622       3621       3731       3732       3743       3742  
      3611       3612       3623       3622       3732       3733       3744       3743  
      3612       3613       3624       3623       3733       3734       3745       3744  
      3613       3614       3625       3624       3734       3735       3746       3745  
      3614       3615       3626       3625       3735       3736       3747       3746  
      3615       3616       3627       3626       3736       3737       3748       3747  
      3616       3617       3628       3627       3737       3738       3749       3748  
      3617       3618       3629       3628       3738       3739       3750       3749  
      3618       3619       3630       3629       3739       3740       3751       3750  
      3631       3632       3643       3642       3752       3753       3764       3763  
      3632       3633       3644       3643       3753       3754       3765       3764  
      3633       3634       3645       3644       3754       3755       3766       3765  
      3634       3635       3646       3645       3755       3756       3767       3766  
      3635       3636       3647       3646       3756       3757       3768       3767  
      3636       3637       3648       3647       3757       3758       3769       3768  
      3637       3638       3649       3648       3758       3759       3770       3769  
      3638       3639       3650       3649       3759       3760       3771       3770  
      3639       3640       3651       3650       3760       3761       3772       3771  
      3640       3641       3652       3651       3761       3762       3773       3772  
      3642       3643       3654       3653       3763       3764       3775       3774  
      3643       3644       3655       3654       3764       3765       3776       3775  
      3644       3645       3656       3655       3765       3766       3777       3776  
      3645       3646       3657       3656       3766       3767       3778       3777  
      3646       3647       3658       3657       3767       3768       3779       3778  
      3647       3648       3659       3658       3768       3769       3780       3779  
      3648       3649       3660       3659       3769       3770       3781       3780  
      3649       3650       3661       3660       3770       3771       3782       3781  
      3650       3651       3662       3661       3771       3772       3783       3782  
      3651       3652       3663       3662       3772       3773       3784       3783  
      3653       3654       3665       3664       3774       3775       3786       3785  
      3654       3655       3666       3665       3775       3776       3787       3786  
      3655       3656       3667       3666       3776       3777       3788       3787  
      3656       3657       3668       3667       3777       3778       3789       3788  
      3657       3658       3669       3668       3778       3779       3790       3789  
      3658       3659       3670       3669       3779       3780       3791       3790  
      3659       3660       3671       3670       3780       3781       3792       3791  
      3660       3661       3672       3671       3781       3782       3793       3792  
      3661       3662       3673       3672       3782       3783       3794       3793  
      3662       3663       3674       3673       3783       3784       3795       3794  
      3664       3665       3676       3675       3785       3786       3797       3796  
      3665       3666       3677       3676       3786       3787       3798       3797  
      3666       3667       3678       3677       3787       3788       3799       3798  
      3667       3668       3679       3678       3788       3789       3800       3799  
      3668       3669       3680       3679       3789       3790       3801       3800  
      3669       3670       3681       3680       3790       3791       3802       3801  
      3670       3671       3682       3681       3791       3792       3803       3802  
      3671       3672       3683       3682       3792       3793       3804       3803  
      3672       3673       3684       3683       3793       3794       3805       3804  
      3673       3674       3685       3684       3794       3795       3806       3805  
      3675       3676       3687       3686       3796       3797       3808       3807  
      3676       3677       3688       3687       3797       3798       3809       3808  
      3677       3678       3689       3688       3798       3799       3810       3809  
      3678       3679       3690       3689       3799       3800       3811       3810  
      3679       3680       3691       3690       3800       3801       3812       3811  
      3680       3681       3692       3691       3801       3802       3813       3812  
      3681       3682       3693       3692       3802       3803       3814       3813  
      3682       3683       3694       3693       3803       3804       3815       3814  
      3683       3684       3695       3694       3804       3805       3816       3815  
      3684       3685       3696       3695       3805       3806       3817       3816  
      3686       3687       3698       3697       3807       3808       3819       3818  
      3687       3688       3699       3698       3808       3809       3820       3819  
      3688       3689       3700       3699       3809       3810       3821       3820  
      3689       3690       3701       3700       3810       3811       3822       3821  
      3690       3691       3702       3701       3811       3812       3823       3822  
      3691       3692       3703       3702       3812       3813       3824       3823  
      3692       3693       3704       3703       3813       3814       3825       3824  
      3693       3694       3705       3704       3814       3815       3826       3825  
      3694       3695       3706       3705       3815       3816       3827       3826  
      3695       3696       3707       3706       3816       3817       3828       3827  
      3697       3698       3709       3708       3818       3819       3830       3829  
      3698       3699       3710       3709       3819       3820       3831       3830  
      3699       3700       3711       3710       3820       3821       3832       3831  
      3700       3701       3712       3711       3821       3822       3833       3832  
      3701       3702       3713       3712       3822       3823       3834       3833  
      3702       3703       3714       3713       3823       3824       3835       3834  
      3703       3704       3715       3714       3824       3825       3836       3835  
      3704       3705       3716       3715       3825       3826       3837       3836  
      3705       3706       3717       3716       3826       3827       3838       3837  
      3706       3707       3718       3717       3827       3828       3839       3838  
      3708       3709       3720       3719       3829       3830       3841       3840  
      3709       3710       3721       3720       3830       3831       3842       3841  
      3710       3711       3722       3721       3831       3832       3843       3842  
      3711       3712       3723       3722       3832       3833       3844       3843  
      3712       3713       3724       3723       3833       3834       3845       3844  
      3713       3714       3725       3724       3834       3835       3846       3845  
      3714       3715       3726       3725       3835       3836       3847       3846  
      3715       3716       3727       3726       3836       3837       3848       3847  
      3716       3717       3728       3727       3837       3838       3849       3848  
      3717       3718       3729       3728       3838       3839       3850       3849  
      3719       3720       3731       3730       3840       3841       3852       3851  
      3720       3721       3732       3731       3841       3842       3853       3852  
      3721       3722       3733       3732       3842       3843       3854       3853  
      3722       3723       3734       3733       3843       3844       3855       3854  
      3723       3724       3735       3734       3844       3845       3856       3855  
      3724       3725       3736       3735       3845       3846       3857       3856  
      3725       3726       3737       3736       3846       3847       3858       3857  
      3726       3727       3738       3737       3847       3848       3859       3858  
      3727       3728       3739       3738       3848       3849       3860       3859  
      3728       3729       3740       3739       3849       3850       3861       3860  
      3730       3731       3742       3741       3851       3852       3863       3862  
      3731       3732       3743       3742       3852       3853       3864       3863  
      3732       3733       3744       3743       3853       3854       3865       3864  
      3733       3734       3745       3744       3854       3855       3866       3865  
      3734       3735       3746       3745       3855       3856       3867       3866  
      3735       3736       3747       3746       3856       3857       3868       3867  
      3736       3737       3748       3747       3857       3858       3869       3868  
      3737       3738       3749       3748       3858       3859       3870       3869  
      3738       3739       3750       3749       3859       3860       3871       3870  
      3739       3740       3751       3750       3860       3861       3872       3871  
      3752       3753       3764       3763       3873       3874       3885       3884  
      3753       3754       3765       3764       3874       3875       3886       3885  
      3754       3755       3766       3765       3875       3876       3887       3886  
      3755       3756       3767       3766       3876       3877       3888       3887  
      3756       3757       3768       3767       3877       3878       3889       3888  
      3757       3758       3769       3768       3878       3879       3890       3889  
      3758       3759       3770       3769       3879       3880       3891       3890  
      3759       3760       3771       3770       3880       3881       3892       3891  
      3760       3761       3772       3771       3881       3882       3893       3892  
      3761       3762       3773       3772       3882       3883       3894       3893  
      3763       3764       3775       3774       3884       3885       3896       3895  
      3764       3765       3776       3775       3885       3886       3897       3896  
      3765       3766       3777       3776       3886       3887       3898       3897  
      3766       3767       3778       3777       3887       3888       3899       3898  
      3767       3768       3779       3778       3888       3889       3900       3899  
      3768       3769       3780       3779       3889       3890       3901       3900  
      3769       3770       3781       3780       3890       3891       3902       3901  
      3770       3771       3782       3781       3891       3892       3903       3902  
      3771       3772       3783       3782       3892       3893       3904       3903  
      3772       3773       3784       3783       3893       3894       3905       3904  
      3774       3775       3786       3785       3895       3896       3907       3906  
      3775       3776       3787       3786       3896       3897       3908       3907  
      3776       3777       3788       3787       3897       3898       3909       3908  
      3777       3778       3789       3788       3898       3899       3910       3909  
      3778       3779       3790       3789       3899       3900       3911       3910  
      3779       3780       3791       3790       3900       3901       3912       3911  
      3780       3781       3792       3791       3901       3902       3913       3912  
      3781       3782       3793       3792       3902       3903       3914       3913  
      3782       3783       3794       3793       3903       3904       3915       3914  
      3783       3784       3795       3794       3904       3905       3916       3915  
      3785       3786       3797       3796       3906       3907       3918       3917  
      3786       3787       3798       3797       3907       3908       3919       3918  
      3787       3788       3799       3798       3908       3909       3920       3919  
      3788       3789       3800       3799       3909       3910       3921       3920  
      3789       3790       3801       3800       3910       3911       3922       3921  
      3790       3791       3802       3801       3911       3912       3923       3922  
      3791       3792       3803       3802       3912       3913       3924       3923  
      3792       3793       3804       3803       3913       3914       3925       3924  
      3793       3794       3805       3804       3914       3915       3926       3925  
      3794       3795       3806       3805       3915       3916       3927       3926  
      3796       3797       3808       3807       3917       3918       3929       3928  
      3797       3798       3809       3808       3918       3919       3930       3929  
      3798       3799       3810       3809       3919       3920       3931       3930  
      3799       3800       3811       3810       3920       3921       3932       3931  
      3800       3801       3812       3811       3921       3922       3933       3932  
      3801       3802       3813       3812       3922       3923       3934       3933  
      3802       3803       3814       3813       3923       3924       3935       3934  
      3803       3804       3815       3814       3924       3925       3936       3935  
      3804       3805       3816       3815       3925       3926       3937       3936  
      3805       3806       3817       3816       3926       3927       3938       3937  
      3807       3808       3819       3818       3928       3929       3940       3939  
      3808       3809       3820       3819       3929       3930       3941       3940  
      3809       3810       3821       3820       3930       3931       3942       3941  
      3810       3811       3822       3821       3931       3932       3943       3942  
      3811       3812       3823       3822       3932       3933       3944       3943  
      3812       3813       3824       3823       3933       3934       3945       3944  
      3813       3814       3825       3824       3934       3935       3946       3945  
      3814       3815       3826       3825       3935       3936       3947       3946  
      3815       3816       3827       3826       3936       3937       3948       3947  
      3816       3817       3828       3827       3937       3938       3949       3948  
      3818       3819       3830       3829       3939       3940       3951       3950  
      3819       3820       3831       3830       3940       3941       3952       3951  
      3820       3821       3832       3831       3941       3942       3953       3952  
      3821       3822       3833       3832       3942       3943       3954       3953  
      3822       3823       3834       3833       3943       3944       3955       3954  
      3823       3824       3835       3834       3944       3945       3956       3955  
      3824       3825       3836       3835       3945       3946       3957       3956  
      3825       3826       3837       3836       3946       3947       3958       3957  
      3826       3827       3838       3837       3947       3948       3959       3958  
      3827       3828       3839       3838       3948       3949       3960       3959  
      3829       3830       3841       3840       3950       3951       3962       3961  
      3830       3831       3842       3841       3951       3952       3963       3962  
      3831       3832       3843       3842       3952       3953       3964       3963  
      3832       3833       3844       3843       3953       3954       3965       3964  
      3833       3834       3845       3844       3954       3955       3966       3965  
      3834       3835       3846       3845       3955       3956       3967       3966  
      3835       3836       3847       3846       3956       3957       3968       3967  
      3836       3837       3848       3847       3957       3958       3969       3968  
      3837       3838       3849       3848       3958       3959       3970       3969  
      3838       3839       3850       3849       3959       3960       3971       3970  
      3840       3841       3852       3851       3961       3962       3973       3972  
      3841       3842       3853       3852       3962       3963       3974       3973  
      3842       3843       3854       3853       3963       3964       3975       3974  
      3843       3844       3855       3854       3964       3965       3976       3975  
      3844       3845       3856       3855       3965       3966       3977       3976  
      3845       3846       3857       3856       3966       3967       3978       3977  
      3846       3847       3858       3857       3967       3968       3979       3978  
      3847       3848       3859       3858       3968       3969       3980       3979  
      3848       3849       3860       3859       3969       3970       3981       3980  
      3849       3850       3861       3860       3970       3971       3982       3981  
      3851       3852       3863       3862       3972       3973       3984       3983  
      3852       3853       3864       3863       3973       3974       3985       3984  
      3853       3854       3865       3864       3974       3975       3986       3985  
      3854       3855       3866       3865       3975       3976       3987       3986  
      3855       3856       3867       3866       3976       3977       3988       3987  
      3856       3857       3868       3867       3977       3978       3989       3988  
      3857       3858       3869       3868       3978       3979       3990       3989  
      3858       3859       3870       3869       3979       3980       3991       3990  
      3859       3860       3871       3870       3980       3981       3992       3991  
      3860       3861       3872       3871       3981       3982       3993       3992  
      3873       3874       3885       3884       3994       3995       4006       4005  
      3874       3875       3886       3885       3995       3996       4007       4006  
      3875       3876       3887       3886       3996       3997       4008       4007  
      3876       3877       3888       3887       3997       3998       4009       4008  
      3877       3878       3889       3888       3998       3999       4010       4009  
      3878       3879       3890       3889       3999       4000       4011       4010  
      3879       3880       3891       3890       4000       4001       4012       4011  
      3880       3881       3892       3891       4001       4002       4013       4012  
      3881       3882       3893       3892       4002       4003       4014       4013  
      3882       3883       3894       3893       4003       4004       4015       4014  
      3884       3885       3896       3895       4005       4006       4017       4016  
      3885       3886       3897       3896       4006       4007       4018       4017  
      3886       3887       3898       3897       4007       4008       4019       4018  
      3887       3888       3899       3898       4008       4009       4020       4019  
      3888       3889       3900       3899       4009       4010       4021       4020  
      3889       3890       3901       3900       4010       4011       4022       4021  
      3890       3891       3902       3901       4011       4012       4023       4022  
      3891       3892       3903       3902       4012       4013       4024       4023  
      3892       3893       3904       3903       4013       4014       4025       4024  
      3893       3894       3905       3904       4014       4015       4026       4025  
      3895       3896       3907       3906       4016       4017       4028       4027  
      3896       3897       3908       3907       4017       4018       4029       4028  
      3897       3898       3909       3908       4018       4019       4030       4029  
      3898       3899       3910       3909       4019       4020       4031       4030  
      3899       3900       3911       3910       4020       4021       4032       4031  
      3900       3901       3912       3911       4021       4022       4033       4032  
      3901       3902       3913       3912       4022       4023       4034       4033  
      3902       3903       3914       3913       4023       4024       4035       4034  
      3903       3904       3915       3914       4024       4025       4036       4035  
      3904       3905       3916       3915       4025       4026       4037       4036  
      3906       3907       3918       3917       4027       4028       4039       4038  
      3907       3908       3919       3918       4028       4029       4040       4039  
      3908       3909       3920       3919       4029       4030       4041       4040  
      3909       3910       3921       3920       4030       4031       4042       4041  
      3910       3911       3922       3921       4031       4032       4043       4042  
      3911       3912       3923       3922       4032       4033       4044       4043  
      3912       3913       3924       3923       4033       4034       4045       4044  
      3913       3914       3925       3924       4034       4035       4046       4045  
      3914       3915       3926       3925       4035       4036       4047       4046  
      3915       3916       3927       3926       4036       4037       4048       4047  
      3917       3918       3929       3928       4038       4039       4050       4049  
      3918       3919       3930       3929       4039       4040       4051       4050  
      3919       3920       3931       3930       4040       4041       4052       4051  
      3920       3921       3932       3931       4041       4042       4053       4052  
      3921       3922       3933       3932       4042       4043       4054       4053  
      3922       3923       3934       3933       4043       4044       4055       4054  
      3923       3924       3935       3934       4044       4045       4056       4055  
      3924       3925       3936       3935       4045       4046       4057       4056  
      3925       3926       3937       3936       4046       4047       4058       4057  
      3926       3927       3938       3937       4047       4048       4059       4058  
      3928       3929       3940       3939       4049       4050       4061       4060  
      3929       3930       3941       3940       4050       4051       4062       4061  
      3930       3931       3942       3941       4051       4052       4063       4062  
      3931       3932       3943       3942       4052       4053       4064       4063  
      3932       3933       3944       3943       4053       4054       4065       4064  
      3933       3934       3945       3944       4054       4055       4066       4065  
      3934       3935       3946       3945       4055       4056       4067       4066  
      3935       3936       3947       3946       4056       4057       4068       4067  
      3936       3937       3948       3947       4057       4058       4069       4068  
      3937       3938       3949       3948       4058       4059       4070       4069  
      3939       3940       3951       3950       4060       4061       4072       4071  
      3940       3941       3952       3951       4061       4062       4073       4072  
      3941       3942       3953       3952       4062       4063       4074       4073  
      3942       3943       3954       3953       4063       4064       4075       4074  
      3943       3944       3955       3954       4064       4065       4076       4075  
      3944       3945       3956       3955       4065       4066       4077       4076  
      3945       3946       3957       3956       4066       4067       4078       4077  
      3946       3947       3958       3957       4067       4068       4079       4078  
      3947       3948       3959       3958       4068       4069       4080       4079  
      3948       3949       3960       3959       4069       4070       4081       4080  
      3950       3951       3962       3961       4071       4072       4083       4082  
      3951       3952       3963       3962       4072       4073       4084       4083  
      3952       3953       3964       3963       4073       4074       4085       4084  
      3953       3954       3965       3964       4074       4075       4086       4085  
      3954       3955       3966       3965       4075       4076       4087       4086  
      3955       3956       3967       3966       4076       4077       4088       4087  
      3956       3957       3968       3967       4077       4078       4089       4088  
      3957       3958       3969       3968       4078       4079       4090       4089  
      3958       3959       3970       3969       4079       4080       4091       4090  
      3959       3960       3971       3970       4080       4081       4092       4091  
      3961       3962       3973       3972       4082       4083       4094       4093  
      3962       3963       3974       3973       4083       4084       4095       4094  
      3963       3964       3975       3974       4084       4085       4096       4095  
      3964       3965       3976       3975       4085       4086       4097       4096  
      3965       3966       3977       3976       4086       4087       4098       4097  
      3966       3967       3978       3977       4087       4088       4099       4098  
      3967       3968       3979       3978       4088       4089       4100       4099  
      3968       3969       3980       3979       4089       4090       4101       4100  
      3969       3970       3981       3980       4090       4091       4102       4101  
      3970       3971       3982       3981       4091       4092       4103       4102  
      3972       3973       3984       3983       4093       4094       4105       4104  
      3973       3974       3985       3984       4094       4095       4106       4105  
      3974       3975       3986       3985       4095       4096       4107       4106  
      3975       3976       3987       3986       4096       4097       4108       4107  
      3976       3977       3988       3987       4097       4098       4109       4108  
      3977       3978       3989       3988       4098       4099       4110       4109  
      3978       3979       3990       3989       4099       4100       4111       4110  
      3979       3980       3991       3990       4100       4101       4112       4111  
      3980       3981       3992       3991       4101       4102       4113       4112  
      3981       3982       3993       3992       4102       4103       4114       4113  
      3994       3995       4006       4005       4115       4116       4127       4126  
      3995       3996       4007       4006       4116       4117       4128       4127  
      3996       3997       4008       4007       4117       4118       4129       4128  
      3997       3998       4009       4008       4118       4119       4130       4129  
      3998       3999       4010       4009       4119       4120       4131       4130  
      3999       4000       4011       4010       4120       4121       4132       4131  
      4000       4001       4012       4011       4121       4122       4133       4132  
      4001       4002       4013       4012       4122       4123       4134       4133  
      4002       4003       4014       4013       4123       4124       4135       4134  
      4003       4004       4015       4014       4124       4125       4136       4135  
      4005       4006       4017       4016       4126       4127       4138       4137  
      4006       4007       4018       4017       4127       4128       4139       4138  
      4007       4008       4019       4018       4128       4129       4140       4139  
      4008       4009       4020       4019       4129       4130       4141       4140  
      4009       4010       4021       4020       4130       4131       4142       4141  
      4010       4011       4022       4021       4131       4132       4143       4142  
      4011       4012       4023       4022       4132       4133       4144       4143  
      4012       4013       4024       4023       4133       4134       4145       4144  
      4013       4014       4025       4024       4134       4135       4146       4145  
      4014       4015       4026       4025       4135       4136       4147       4146  
      4016       4017       4028       4027       4137       4138       4149       4148  
      4017       4018       4029       4028       4138       4139       4150       4149  
      4018       4019       4030       4029       4139       4140       4151       4150  
      4019       4020       4031       4030       4140       4141       4152       4151  
      4020       4021       4032       4031       4141       4142       4153       4152  
      4021       4022       4033       4032       4142       4143       4154       4153  
      4022       4023       4034       4033       4143       4144       4155       4154  
      4023       4024       4035       4034       4144       4145       4156       4155  
      4024       4025       4036       4035       4145       4146       4157       4156  
      4025       4026       4037       4036       4146       4147       4158       4157  
      4027       4028       4039       4038       4148       4149       4160       4159  
      4028       4029       4040       4039       4149       4150       4161       4160  
      4029       4030       4041       4040       4150       4151       4162       4161  
      4030       4031       4042       4041       4151       4152       4163       4162  
      4031       4032       4043       4042       4152       4153       4164       4163  
      4032       4033       4044       4043       4153       4154       4165       4164  
      4033       4034       4045       4044       4154       4155       4166       4165  
      4034       4035       4046       4045       4155       4156       4167       4166  
      4035       4036       4047       4046       4156       4157       4168       4167  
      4036       4037       4048       4047       4157       4158       4169       4168  
      4038       4039       4050       4049       4159       4160       4171       4170  
      4039       4040       4051       4050       4160       4161       4172       4171  
      4040       4041       4052       4051       4161       4162       4173       4172  
      4041       4042       4053       4052       4162       4163       4174       4173  
      4042       4043       4054       4053       4163       4164       4175       4174  
      4043       4044       4055       4054       4164       4165       4176       4175  
      4044       4045       4056       4055       4165       4166       4177       4176  
      4045       4046       4057       4056       4166       4167       4178       4177  
      4046       4047       4058       4057       4167       4168       4179       4178  
      4047       4048       4059       4058       4168       4169       4180       4179  
      4049       4050       4061       4060       4170       4171       4182       4181  
      4050       4051       4062       4061       4171       4172       4183       4182  
      4051       4052       4063       4062       4172       4173       4184       4183  
      4052       4053       4064       4063       4173       4174       4185       4184  
      4053       4054       4065       4064       4174       4175       4186       4185  
      4054       4055       4066       4065       4175       4176       4187       4186  
      4055       4056       4067       4066       4176       4177       4188       4187  
      4056       4057       4068       4067       4177       4178       4189       4188  
      4057       4058       4069       4068       4178       4179       4190       4189  
      4058       4059       4070       4069       4179       4180       4191       4190  
      4060       4061       4072       4071       4181       4182       4193       4192  
      4061       4062       4073       4072       4182       4183       4194       4193  
      4062       4063       4074       4073       4183       4184       4195       4194  
      4063       4064       4075       4074       4184       4185       4196       4195  
      4064       4065       4076       4075       4185       4186       4197       4196  
      4065       4066       4077       4076       4186       4187       4198       4197  
      4066       4067       4078       4077       4187       4188       4199       4198  
      4067       4068       4079       4078       4188       4189       4200       4199  
      4068       4069       4080       4079       4189       4190       4201       4200  
      4069       4070       4081       4080       4190       4191       4202       4201  
      4071       4072       4083       4082       4192       4193       4204       4203  
      4072       4073       4084       4083       4193       4194       4205       4204  
      4073       4074       4085       4084       4194       4195       4206       4205  
      4074       4075       4086       4085       4195       4196       4207       4206  
      4075       4076       4087       4086       4196       4197       4208       4207  
      4076       4077       4088       4087       4197       4198       4209       4208  
      4077       4078       4089       4088       4198       4199       4210       4209  
      4078       4079       4090       4089       4199       4200       4211       4210  
      4079       4080       4091       4090       4200       4201       4212       4211  
      4080       4081       4092       4091       4201       4202       4213       4212  
      4082       4083       4094       4093       4203       4204       4215       4214  
      4083       4084       4095       4094       4204       4205       4216       4215  
      4084       4085       4096       4095       4205       4206       4217       4216  
      4085       4086       4097       4096       4206       4207       4218       4217  
      4086       4087       4098       4097       4207       4208       4219       4218  
      4087       4088       4099       4098       4208       4209       4220       4219  
      4088       4089       4100       4099       4209       4210       4221       4220  
      4089       4090       4101       4100       4210       4211       4222       4221  
      4090       4091       4102       4101       4211       4212       4223       4222  
      4091       4092       4103       4102       4212       4213       4224       4223  
      4093       4094       4105       4104       4214       4215       4226       4225  
      4094       4095       4106       4105       4215       4216       4227       4226  
      4095       4096       4107       4106       4216       4217       4228       4227  
      4096       4097       4108       4107       4217       4218       4229       4228  
      4097       4098       4109       4108       4218       4219       4230       4229  
      4098       4099       4110       4109       4219       4220       4231       4230  
      4099       4100       4111       4110       4220       4221       4232       4231  
      4100       4101       4112       4111       4221       4222       4233       4232  
      4101       4102       4113       4112       4222       4223       4234       4233  
      4102       4103       4114       4113       4223       4224       4235       4234  
      4115       4116       4127       4126       4236       4237       4248       4247  
      4116       4117       4128       4127       4237       4238       4249       4248  
      4117       4118       4129       4128       4238       4239       4250       4249  
      4118       4119       4130       4129       4239       4240       4251       4250  
      4119       4120       4131       4130       4240       4241       4252       4251  
      4120       4121       4132       4131       4241       4242       4253       4252  
      4121       4122       4133       4132       4242       4243       4254       4253  
      4122       4123       4134       4133       4243       4244       4255       4254  
      4123       4124       4135       4134       4244       4245       4256       4255  
      4124       4125       4136       4135       4245       4246       4257       4256  
      4126       4127       4138       4137       4247       4248       4259       4258  
      4127       4128       4139       4138       4248       4249       4260       4259  
      4128       4129       4140       4139       4249       4250       4261       4260  
      4129       4130       4141       4140       4250       4251       4262       4261  
      4130       4131       4142       4141       4251       4252       4263       4262  
      4131       4132       4143       4142       4252       4253       4264       4263  
      4132       4133       4144       4143       4253       4254       4265       4264  
      4133       4134       4145       4144       4254       4255       4266       4265  
      4134       4135       4146       4145       4255       4256       4267       4266  
      4135       4136       4147       4146       4256       4257       4268       4267  
      4137       4138       4149       4148       4258       4259       4270       4269  
      4138       4139       4150       4149       4259       4260       4271       4270  
      4139       4140       4151       4150       4260       4261       4272       4271  
      4140       4141       4152       4151       4261       4262       4273       4272  
      4141       4142       4153       4152       4262       4263       4274       4273  
      4142       4143       4154       4153       4263       4264       4275       4274  
      4143       4144       4155       4154       4264       4265       4276       4275  
      4144       4145       4156       4155       4265       4266       4277       4276  
      4145       4146       4157       4156       4266       4267       4278       4277  
      4146       4147       4158       4157       4267       4268       4279       4278  
      4148       4149       4160       4159       4269       4270       4281       4280  
      4149       4150       4161       4160       4270       4271       4282       4281  
      4150       4151       4162       4161       4271       4272       4283       4282  
      4151       4152       4163       4162       4272       4273       4284       4283  
      4152       4153       4164       4163       4273       4274       4285       4284  
      4153       4154       4165       4164       4274       4275       4286       4285  
      4154       4155       4166       4165       4275       4276       4287       4286  
      4155       4156       4167       4166       4276       4277       4288       4287  
      4156       4157       4168       4167       4277       4278       4289       4288  
      4157       4158       4169       4168       4278       4279       4290       4289  
      4159       4160       4171       4170       4280       4281       4292       4291  
      4160       4161       4172       4171       4281       4282       4293       4292  
      4161       4162       4173       4172       4282       4283       4294       4293  
      4162       4163       4174       4173       4283       4284       4295       4294  
      4163       4164       4175       4174       4284       4285       4296       4295  
      4164       4165       4176       4175       4285       4286       4297       4296  
      4165       4166       4177       4176       4286       4287       4298       4297  
      4166       4167       4178       4177       4287       4288       4299       4298  
      4167       4168       4179       4178       4288       4289       4300       4299  
      4168       4169       4180       4179       4289       4290       4301       4300  
      4170       4171       4182       4181       4291       4292       4303       4302  
      4171       4172       4183       4182       4292       4293       4304       4303  
      4172       4173       4184       4183       4293       4294       4305       4304  
      4173       4174       4185       4184       4294       4295       4306       4305  
      4174       4175       4186       4185       4295       4296       4307       4306  
      4175       4176       4187       4186       4296       4297       4308       4307  
      4176       4177       4188       4187       4297       4298       4309       4308  
      4177       4178       4189       4188       4298       4299       4310       4309  
      4178       4179       4190       4189       4299       4300       4311       4310  
      4179       4180       4191       4190       4300       4301       4312       4311  
      4181       4182       4193       4192       4302       4303       4314       4313  
      4182       4183       4194       4193       4303       4304       4315       4314  
      4183       4184       4195       4194       4304       4305       4316       4315  
      4184       4185       4196       4195       4305       4306       4317       4316  
      4185       4186       4197       4196       4306       4307       4318       4317  
      4186       4187       4198       4197       4307       4308       4319       4318  
      4187       4188       4199       4198       4308       4309       4320       4319  
      4188       4189       4200       4199       4309       4310       4321       4320  
      4189       4190       4201       4200       4310       4311       4322       4321  
      4190       4191       4202       4201       4311       4312       4323       4322  
      4192       4193       4204       4203       4313       4314       4325       4324  
      4193       4194       4205       4204       4314       4315       4326       4325  
      4194       4195       4206       4205       4315       4316       4327       4326  
      4195       4196       4207       4206       4316       4317       4328       4327  
      4196       4197       4208       4207       4317       4318       4329       4328  
      4197       4198       4209       4208       4318       4319       4330       4329  
      4198       4199       4210       4209       4319       4320       4331       4330  
      4199       4200       4211       4210       4320       4321       4332       4331  
      4200       4201       4212       4211       4321       4322       4333       4332  
      4201       4202       4213       4212       4322       4323       4334       4333  
      4203       4204       4215       4214       4324       4325       4336       4335  
      4204       4205       4216       4215       4325       4326       4337       4336  
      4205       4206       4217       4216       4326       4327       4338       4337  
      4206       4207       4218       4217       4327       4328       4339       4338  
      4207       4208       4219       4218       4328       4329       4340       4339  
      4208       4209       4220       4219       4329       4330       4341       4340  
      4209       4210       4221       4220       4330       4331       4342       4341  
      4210       4211       4222       4221       4331       4332       4343       4342  
      4211       4212       4223       4222       4332       4333       4344       4343  
      4212       4213       4224       4223       4333       4334       4345       4344  
      4214       4215       4226       4225       4335       4336       4347       4346  
      4215       4216       4227       4226       4336       4337       4348       4347  
      4216       4217       4228       4227       4337       4338       4349       4348  
      4217       4218       4229       4228       4338       4339       4350       4349  
      4218       4219       4230       4229       4339       4340       4351       4350  
      4219       4220       4231       4230       4340       4341       4352       4351  
      4220       4221       4232       4231       4341       4342       4353       4352  
      4221       4222       4233       4232       4342       4343       4354       4353  
      4222       4223       4234       4233       4343       4344       4355       4354  
      4223       4224       4235       4234       4344       4345       4356       4355  
      4236       4237       4248       4247       4357       4358       4369       4368  
      4237       4238       4249       4248       4358       4359       4370       4369  
      4238       4239       4250       4249       4359       4360       4371       4370  
      4239       4240       4251       4250       4360       4361       4372       4371  
      4240       4241       4252       4251       4361       4362       4373       4372  
      4241       4242       4253       4252       4362       4363       4374       4373  
      4242       4243       4254       4253       4363       4364       4375       4374  
      4243       4244       4255       4254       4364       4365       4376       4375  
      4244       4245       4256       4255       4365       4366       4377       4376  
      4245       4246       4257       4256       4366       4367       4378       4377  
      4247       4248       4259       4258       4368       4369       4380       4379  
      4248       4249       4260       4259       4369       4370       4381       4380  
      4249       4250       4261       4260       4370       4371       4382       4381  
      4250       4251       4262       4261       4371       4372       4383       4382  
      4251       4252       4263       4262       4372       4373       4384       4383  
      4252       4253       4264       4263       4373       4374       4385       4384  
      4253       4254       4265       4264       4374       4375       4386       4385  
      4254       4255       4266       4265       4375       4376       4387       4386  
      4255       4256       4267       4266       4376       4377       4388       4387  
      4256       4257       4268       4267       4377       4378       4389       4388  
      4258       4259       4270       4269       4379       4380       4391       4390  
      4259       4260       4271       4270       4380       4381       4392       4391  
      4260       4261       4272       4271       4381       4382       4393       4392  
      4261       4262       4273       4272       4382       4383       4394       4393  
      4262       4263       4274       4273       4383       4384       4395       4394  
      4263       4264       4275       4274       4384       4385       4396       4395  
      4264       4265       4276       4275       4385       4386       4397       4396  
      4265       4266       4277       4276       4386       4387       4398       4397  
      4266       4267       4278       4277       4387       4388       4399       4398  
      4267       4268       4279       4278       4388       4389       4400       4399  
      4269       4270       4281       4280       4390       4391       4402       4401  
      4270       4271       4282       4281       4391       4392       4403       4402  
      4271       4272       4283       4282       4392       4393       4404       4403  
      4272       4273       4284       4283       4393       4394       4405       4404  
      4273       4274       4285       4284       4394       4395       4406       4405  
      4274       4275       4286       4285       4395       4396       4407       4406  
      4275       4276       4287       4286       4396       4397       4408       4407  
      4276       4277       4288       4287       4397       4398       4409       4408  
      4277       4278       4289       4288       4398       4399       4410       4409  
      4278       4279       4290       4289       4399       4400       4411       4410  
      4280       4281       4292       4291       4401       4402       4413       4412  
      4281       4282       4293       4292       4402       4403       4414       4413  
      4282       4283       4294       4293       4403       4404       4415       4414  
      4283       4284       4295       4294       4404       4405       4416       4415  
      4284       4285       4296       4295       4405       4406       4417       4416  
      4285       4286       4297       4296       4406       4407       4418       4417  
      4286       4287       4298       4297       4407       4408       4419       4418  
      4287       4288       4299       4298       4408       4409       4420       4419  
      4288       4289       4300       4299       4409       4410       4421       4420  
      4289       4290       4301       4300       4410       4411       4422       4421  
      4291       4292       4303       4302       4412       4413       4424       4423  
      4292       4293       4304       4303       4413       4414       4425       4424  
      4293       4294       4305       4304       4414       4415       4426       4425  
      4294       4295       4306       4305       4415       4416       4427       4426  
      4295       4296       4307       4306       4416       4417       4428       4427  
      4296       4297       4308       4307       4417       4418       4429       4428  
      4297       4298       4309       4308       4418       4419       4430       4429  
      4298       4299       4310       4309       4419       4420       4431       4430  
      4299       4300       4311       4310       4420       4421       4432       4431  
      4300       4301       4312       4311       4421       4422       4433       4432  
      4302       4303       4314       4313       4423       4424       4435       4434  
      4303       4304       4315       4314       4424       4425       4436       4435  
      4304       4305       4316       4315       4425       4426       4437       4436  
      4305       4306       4317       4316       4426       4427       4438       4437  
      4306       4307       4318       4317       4427       4428       4439       4438  
      4307       4308       4319       4318       4428       4429       4440       4439  
      4308       4309       4320       4319       4429       4430       4441       4440  
      4309       4310       4321       4320       4430       4431       4442       4441  
      4310       4311       4322       4321       4431       4432       4443       4442  
      4311       4312       4323       4322       4432       4433       4444       4443  
      4313       4314       4325       4324       4434       4435       4446       4445  
      4314       4315       4326       4325       4435       4436       4447       4446  
      4315       4316       4327       4326       4436       4437       4448       4447  
      4316       4317       4328       4327       4437       4438       4449       4448  
      4317       4318       4329       4328       4438       4439       4450       4449  
      4318       4319       4330       4329       4439       4440       4451       4450  
      4319       4320       4331       4330       4440       4441       4452       4451  
      4320       4321       4332       4331       4441       4442       4453       4452  
      4321       4322       4333       4332       4442       4443       4454       4453  
      4322       4323       4334       4333       4443       4444       4455       4454  
      4324       4325       4336       4335       4445       4446       4457       4456  
      4325       4326       4337       4336       4446       4447       4458       4457  
      4326       4327       4338       4337       4447       4448       4459       4458  
      4327       4328       4339       4338       4448       4449       4460       4459  
      4328       4329       4340       4339       4449       4450       4461       4460  
      4329       4330       4341       4340       4450       4451       4462       4461  
      4330       4331       4342       4341       4451       4452       4463       4462  
      4331       4332       4343       4342       4452       4453       4464       4463  
      4332       4333       4344       4343       4453       4454       4465       4464  
      4333       4334       4345       4344       4454       4455       4466       4465  
      4335       4336       4347       4346       4456       4457       4468       4467  
      4336       4337       4348       4347       4457       4458       4469       4468  
      4337       4338       4349       4348       4458       4459       4470       4469  
      4338       4339       4350       4349       4459       4460       4471       4470  
      4339       4340       4351       4350       4460       4461       4472       4471  
      4340       4341       4352       4351       4461       4462       4473       4472  
      4341       4342       4353       4352       4462       4463       4474       4473  
      4342       4343       4354       4353       4463       4464       4475       4474  
      4343       4344       4355       4354       4464       4465       4476       4475  
      4344       4345       4356       4355       4465       4466       4477       4476  
      4357       4358       4369       4368       4478       4479       4490       4489  
      4358       4359       4370       4369       4479       4480       4491       4490  
      4359       4360       4371       4370       4480       4481       4492       4491  
      4360       4361       4372       4371       4481       4482       4493       4492  
      4361       4362       4373       4372       4482       4483       4494       4493  
      4362       4363       4374       4373       4483       4484       4495       4494  
      4363       4364       4375       4374       4484       4485       4496       4495  
      4364       4365       4376       4375       4485       4486       4497       4496  
      4365       4366       4377       4376       4486       4487       4498       4497  
      4366       4367       4378       4377       4487       4488       4499       4498  
      4368       4369       4380       4379       4489       4490       4501       4500  
      4369       4370       4381       4380       4490       4491       4502       4501  
      4370       4371       4382       4381       4491       4492       4503       4502  
      4371       4372       4383       4382       4492       4493       4504       4503  
      4372       4373       4384       4383       4493       4494       4505       4504  
      4373       4374       4385       4384       4494       4495       4506       4505  
      4374       4375       4386       4385       4495       4496       4507       4506  
      4375       4376       4387       4386       4496       4497       4508       4507  
      4376       4377       4388       4387       4497       4498       4509       4508  
      4377       4378       4389       4388       4498       4499       4510       4509  
      4379       4380       4391       4390       4500       4501       4512       4511  
      4380       4381       4392       4391       4501       4502       4513       4512  
      4381       4382       4393       4392       4502       4503       4514       4513  
      4382       4383       4394       4393       4503       4504       4515       4514  
      4383       4384       4395       4394       4504       4505       4516       4515  
      4384       4385       4396       4395       4505       4506       4517       4516  
      4385       4386       4397       4396       4506       4507       4518       4517  
      4386       4387       4398       4397       4507       4508       4519       4518  
      4387       4388       4399       4398       4508       4509       4520       4519  
      4388       4389       4400       4399       4509       4510       4521       4520  
      4390       4391       4402       4401       4511       4512       4523       4522  
      4391       4392       4403       4402       4512       4513       4524       4523  
      4392       4393       4404       4403       4513       4514       4525       4524  
      4393       4394       4405       4404       4514       4515       4526       4525  
      4394       4395       4406       4405       4515       4516       4527       4526  
      4395       4396       4407       4406       4516       4517       4528       4527  
      4396       4397       4408       4407       4517       4518       4529       4528  
      4397       4398       4409       4408       4518       4519       4530       4529  
      4398       4399       4410       4409       4519       4520       4531       4530  
      4399       4400       4411       4410       4520       4521       4532       4531  
      4401       4402       4413       4412       4522       4523       4534       4533  
      4402       4403       4414       4413       4523       4524       4535       4534  
      4403       4404       4415       4414       4524       4525       4536       4535  
      4404       4405       4416       4415       4525       4526       4537       4536  
      4405       4406       4417       4416       4526       4527       4538       4537  
      4406       4407       4418       4417       4527       4528       4539       4538  
      4407       4408       4419       4418       4528       4529       4540       4539  
      4408       4409       4420       4419       4529       4530       4541       4540  
      4409       4410       4421       4420       4530       4531       4542       4541  
      4410       4411       4422       4421       4531       4532       4543       4542  
      4412       4413       4424       4423       4533       4534       4545       4544  
      4413       4414       4425       4424       4534       4535       4546       4545  
      4414       4415       4426       4425       4535       4536       4547       4546  
      4415       4416       4427       4426       4536       4537       4548       4547  
      4416       4417       4428       4427       4537       4538       4549       4548  
      4417       4418       4429       4428       4538       4539       4550       4549  
      4418       4419       4430       4429       4539       4540       4551       4550  
      4419       4420       4431       4430       4540       4541       4552       4551  
      4420       4421       4432       4431       4541       4542       4553       4552  
      4421       4422       4433       4432       4542       4543       4554       4553  
      4423       4424       4435       4434       4544       4545       4556       4555  
      4424       4425       4436       4435       4545       4546       4557       4556  
      4425       4426       4437       4436       4546       4547       4558       4557  
      4426       4427       4438       4437       4547       4548       4559       4558  
      4427       4428       4439       4438       4548       4549       4560       4559  
      4428       4429       4440       4439       4549       4550       4561       4560  
      4429       4430       4441       4440       4550       4551       4562       4561  
      4430       4431       4442       4441       4551       4552       4563       4562  
      4431       4432       4443       4442       4552       4553       4564       4563  
      4432       4433       4444       4443       4553       4554       4565       4564  
      4434       4435       4446       4445       4555       4556       4567       4566  
      4435       4436       4447       4446       4556       4557       4568       4567  
      4436       4437       4448       4447       4557       4558       4569       4568  
      4437       4438       4449       4448       4558       4559       4570       4569  
      4438       4439       4450       4449       4559       4560       4571       4570  
      4439       4440       4451       4450       4560       4561       4572       4571  
      4440       4441       4452       4451       4561       4562       4573       4572  
      4441       4442       4453       4452       4562       4563       4574       4573  
      4442       4443       4454       4453       4563       4564       4575       4574  
      4443       4444       4455       4454       4564       4565       4576       4575  
      4445       4446       4457       4456       4566       4567       4578       4577  
      4446       4447       4458       4457       4567       4568       4579       4578  
      4447       4448       4459       4458       4568       4569       4580       4579  
      4448       4449       4460       4459       4569       4570       4581       4580  
      4449       4450       4461       4460       4570       4571       4582       4581  
      4450       4451       4462       4461       4571       4572       4583       4582  
      4451       4452       4463       4462       4572       4573       4584       4583  
      4452       4453       4464       4463       4573       4574       4585       4584  
      4453       4454       4465       4464       4574       4575       4586       4585  
      4454       4455       4466       4465       4575       4576       4587       4586  
      4456       4457       4468       4467       4577       4578       4589       4588  
      4457       4458       4469       4468       4578       4579       4590       4589  
      4458       4459       4470       4469       4579       4580       4591       4590  
      4459       4460       4471       4470       4580       4581       4592       4591  
      4460       4461       4472       4471       4581       4582       4593       4592  
      4461       4462       4473       4472       4582       4583       4594       4593  
      4462       4463       4474       4473       4583       4584       4595       4594  
      4463       4464       4475       4474       4584       4585       4596       4595  
      4464       4465       4476       4475       4585       4586       4597       4596  
      4465       4466       4477       4476       4586       4587       4598       4597  
      4478       4479       4490       4489       4599       4600       4611       4610  
      4479       4480       4491       4490       4600       4601       4612       4611  
      4480       4481       4492       4491       4601       4602       4613       4612  
      4481       4482       4493       4492       4602       4603       4614       4613  
      4482       4483       4494       4493       4603       4604       4615       4614  
      4483       4484       4495       4494       4604       4605       4616       4615  
      4484       4485       4496       4495       4605       4606       4617       4616  
      4485       4486       4497       4496       4606       4607       4618       4617  
      4486       4487       4498       4497       4607       4608       4619       4618  
      4487       4488       4499       4498       4608       4609       4620       4619  
      4489       4490       4501       4500       4610       4611       4622       4621  
      4490       4491       4502       4501       4611       4612       4623       4622  
      4491       4492       4503       4502       4612       4613       4624       4623  
      4492       4493       4504       4503       4613       4614       4625       4624  
      4493       4494       4505       4504       4614       4615       4626       4625  
      4494       4495       4506       4505       4615       4616       4627       4626  
      4495       4496       4507       4506       4616       4617       4628       4627  
      4496       4497       4508       4507       4617       4618       4629       4628  
      4497       4498       4509       4508       4618       4619       4630       4629  
      4498       4499       4510       4509       4619       4620       4631       4630  
      4500       4501       4512       4511       4621       4622       4633       4632  
      4501       4502       4513       4512       4622       4623       4634       4633  
      4502       4503       4514       4513       4623       4624       4635       4634  
      4503       4504       4515       4514       4624       4625       4636       4635  
      4504       4505       4516       4515       4625       4626       4637       4636  
      4505       4506       4517       4516       4626       4627       4638       4637  
      4506       4507       4518       4517       4627       4628       4639       4638  
      4507       4508       4519       4518       4628       4629       4640       4639  
      4508       4509       4520       4519       4629       4630       4641       4640  
      4509       4510       4521       4520       4630       4631       4642       4641  
      4511       4512       4523       4522       4632       4633       4644       4643  
      4512       4513       4524       4523       4633       4634       4645       4644  
      4513       4514       4525       4524       4634       4635       4646       4645  
      4514       4515       4526       4525       4635       4636       4647       4646  
      4515       4516       4527       4526       4636       4637       4648       4647  
      4516       4517       4528       4527       4637       4638       4649       4648  
      4517       4518       4529       4528       4638       4639       4650       4649  
      4518       4519       4530       4529       4639       4640       4651       4650  
      4519       4520       4531       4530       4640       4641       4652       4651  
      4520       4521       4532       4531       4641       4642       4653       4652  
      4522       4523       4534       4533       4643       4644       4655       4654  
      4523       4524       4535       4534       4644       4645       4656       4655  
      4524       4525       4536       4535       4645       4646       4657       4656  
      4525       4526       4537       4536       4646       4647       4658       4657  
      4526       4527       4538       4537       4647       4648       4659       4658  
      4527       4528       4539       4538       4648       4649       4660       4659  
      4528       4529       4540       4539       4649       4650       4661       4660  
      4529       4530       4541       4540       4650       4651       4662       4661  
      4530       4531       4542       4541       4651       4652       4663       4662  
      4531       4532       4543       4542       4652       4653       4664       4663  
      4533       4534       4545       4544       4654       4655       4666       4665  
      4534       4535       4546       4545       4655       4656       4667       4666  
      4535       4536       4547       4546       4656       4657       4668       4667  
      4536       4537       4548       4547       4657       4658       4669       4668  
      4537       4538       4549       4548       4658       4659       4670       4669  
      4538       4539       4550       4549       4659       4660       4671       4670  
      4539       4540       4551       4550       4660       4661       4672       4671  
      4540       4541       4552       4551       4661       4662       4673       4672  
      4541       4542       4553       4552       4662       4663       4674       4673  
      4542       4543       4554       4553       4663       4664       4675       4674  
      4544       4545       4556       4555       4665       4666       4677       4676  
      4545       4546       4557       4556       4666       4667       4678       4677  
      4546       4547       4558       4557       4667       4668       4679       4678  
      4547       4548       4559       4558       4668       4669       4680       4679  
      4548       4549       4560       4559       4669       4670       4681       4680  
      4549       4550       4561       4560       4670       4671       4682       4681  
      4550       4551       4562       4561       4671       4672       4683       4682  
      4551       4552       4563       4562       4672       4673       4684       4683  
      4552       4553       4564       4563       4673       4674       4685       4684  
      4553       4554       4565       4564       4674       4675       4686       4685  
      4555       4556       4567       4566       4676       4677       4688       4687  
      4556       4557       4568       4567       4677       4678       4689       4688  
      4557       4558       4569       4568       4678       4679       4690       4689  
      4558       4559       4570       4569       4679       4680       4691       4690  
      4559       4560       4571       4570       4680       4681       4692       4691  
      4560       4561       4572       4571       4681       4682       4693       4692  
      4561       4562       4573       4572       4682       4683       4694       4693  
      4562       4563       4574       4573       4683       4684       4695       4694  
      4563       4564       4575       4574       4684       4685       4696       4695  
      4564       4565       4576       4575       4685       4686       4697       4696  
      4566       4567       4578       4577       4687       4688       4699       4698  
      4567       4568       4579       4578       4688       4689       4700       4699  
      4568       4569       4580       4579       4689       4690       4701       4700  
      4569       4570       4581       4580       4690       4691       4702       4701  
      4570       4571       4582       4581       4691       4692       4703       4702  
      4571       4572       4583       4582       4692       4693       4704       4703  
      4572       4573       4584       4583       4693       4694       4705       4704  
      4573       4574       4585       4584       4694       4695       4706       4705  
      4574       4575       4586       4585       4695       4696       4707       4706  
      4575       4576       4587       4586       4696       4697       4708       4707  
      4577       4578       4589       4588       4698       4699       4710       4709  
      4578       4579       4590       4589       4699       4700       4711       4710  
      4579       4580       4591       4590       4700       4701       4712       4711  
      4580       4581       4592       4591       4701       4702       4713       4712  
      4581       4582       4593       4592       4702       4703       4714       4713  
      4582       4583       4594       4593       4703       4704       4715       4714  
      4583       4584       4595       4594       4704       4705       4716       4715  
      4584       4585       4596       4595       4705       4706       4717       4716  
      4585       4586       4597       4596       4706       4707       4718       4717  
      4586       4587       4598       4597       4707       4708       4719       4718  
      4599       4600       4611       4610       4720       4721       4732       4731  
      4600       4601       4612       4611       4721       4722       4733       4732  
      4601       4602       4613       4612       4722       4723       4734       4733  
      4602       4603       4614       4613       4723       4724       4735       4734  
      4603       4604       4615       4614       4724       4725       4736       4735  
      4604       4605       4616       4615       4725       4726       4737       4736  
      4605       4606       4617       4616       4726       4727       4738       4737  
      4606       4607       4618       4617       4727       4728       4739       4738  
      4607       4608       4619       4618       4728       4729       4740       4739  
      4608       4609       4620       4619       4729       4730       4741       4740  
      4610       4611       4622       4621       4731       4732       4743       4742  
      4611       4612       4623       4622       4732       4733       4744       4743  
      4612       4613       4624       4623       4733       4734       4745       4744  
      4613       4614       4625       4624       4734       4735       4746       4745  
      4614       4615       4626       4625       4735       4736       4747       4746  
      4615       4616       4627       4626       4736       4737       4748       4747  
      4616       4617       4628       4627       4737       4738       4749       4748  
      4617       4618       4629       4628       4738       4739       4750       4749  
      4618       4619       4630       4629       4739       4740       4751       4750  
      4619       4620       4631       4630       4740       4741       4752       4751  
      4621       4622       4633       4632       4742       4743       4754       4753  
      4622       4623       4634       4633       4743       4744       4755       4754  
      4623       4624       4635       4634       4744       4745       4756       4755  
      4624       4625       4636       4635       4745       4746       4757       4756  
      4625       4626       4637       4636       4746       4747       4758       4757  
      4626       4627       4638       4637       4747       4748       4759       4758  
      4627       4628       4639       4638       4748       4749       4760       4759  
      4628       4629       4640       4639       4749       4750       4761       4760  
      4629       4630       4641       4640       4750       4751       4762       4761  
      4630       4631       4642       4641       4751       4752       4763       4762  
      4632       4633       4644       4643       4753       4754       4765       4764  
      4633       4634       4645       4644       4754       4755       4766       4765  
      4634       4635       4646       4645       4755       4756       4767       4766  
      4635       4636       4647       4646       4756       4757       4768       4767  
      4636       4637       4648       4647       4757       4758       4769       4768  
      4637       4638       4649       4648       4758       4759       4770       4769  
      4638       4639       4650       4649       4759       4760       4771       4770  
      4639       4640       4651       4650       4760       4761       4772       4771  
      4640       4641       4652       4651       4761       4762       4773       4772  
      4641       4642       4653       4652       4762       4763       4774       4773  
      4643       4644       4655       4654       4764       4765       4776       4775  
      4644       4645       4656       4655       4765       4766       4777       4776  
      4645       4646       4657       4656       4766       4767       4778       4777  
      4646       4647       4658       4657       4767       4768       4779       4778  
      4647       4648       4659       4658       4768       4769       4780       4779  
      4648       4649       4660       4659       4769       4770       4781       4780  
      4649       4650       4661       4660       4770       4771       4782       4781  
      4650       4651       4662       4661       4771       4772       4783       4782  
      4651       4652       4663       4662       4772       4773       4784       4783  
      4652       4653       4664       4663       4773       4774       4785       4784  
      4654       4655       4666       4665       4775       4776       4787       4786  
      4655       4656       4667       4666       4776       4777       4788       4787  
      4656       4657       4668       4667       4777       4778       4789       4788  
      4657       4658       4669       4668       4778       4779       4790       4789  
      4658       4659       4670       4669       4779       4780       4791       4790  
      4659       4660       4671       4670       4780       4781       4792       4791  
      4660       4661       4672       4671       4781       4782       4793       4792  
      4661       4662       4673       4672       4782       4783       4794       4793  
      4662       4663       4674       4673       4783       4784       4795       4794  
      4663       4664       4675       4674       4784       4785       4796       4795  
      4665       4666       4677       4676       4786       4787       4798       4797  
      4666       4667       4678       4677       4787       4788       4799       4798  
      4667       4668       4679       4678       4788       4789       4800       4799  
      4668       4669       4680       4679       4789       4790       4801       4800  
      4669       4670       4681       4680       4790       4791       4802       4801  
      4670       4671       4682       4681       4791       4792       4803       4802  
      4671       4672       4683       4682       4792       4793       4804       4803  
      4672       4673       4684       4683       4793       4794       4805       4804  
      4673       4674       4685       4684       4794       4795       4806       4805  
      4674       4675       4686       4685       4795       4796       4807       4806  
      4676       4677       4688       4687       4797       4798       4809       4808  
      4677       4678       4689       4688       4798       4799       4810       4809  
      4678       4679       4690       4689       4799       4800       4811       4810  
      4679       4680       4691       4690       4800       4801       4812       4811  
      4680       4681       4692       4691       4801       4802       4813       4812  
      4681       4682       4693       4692       4802       4803       4814       4813  
      4682       4683       4694       4693       4803       4804       4815       4814  
      4683       4684       4695       4694       4804       4805       4816       4815  
      4684       4685       4696       4695       4805       4806       4817       4816  
      4685       4686       4697       4696       4806       4807       4818       4817  
      4687       4688       4699       4698       4808       4809       4820       4819  
      4688       4689       4700       4699       4809       4810       4821       4820  
      4689       4690       4701       4700       4810       4811       4822       4821  
      4690       4691       4702       4701       4811       4812       4823       4822  
      4691       4692       4703       4702       4812       4813       4824       4823  
      4692       4693       4704       4703       4813       4814       4825       4824  
      4693       4694       4705       4704       4814       4815       4826       4825  
      4694       4695       4706       4705       4815       4816       4827       4826  
      4695       4696       4707       4706       4816       4817       4828       4827  
      4696       4697       4708       4707       4817       4818       4829       4828  
      4698       4699       4710       4709       4819       4820       4831       4830  
      4699       4700       4711       4710       4820       4821       4832       4831  
      4700       4701       4712       4711       4821       4822       4833       4832  
      4701       4702       4713       4712       4822       4823       4834       4833  
      4702       4703       4714       4713       4823       4824       4835       4834  
      4703       4704       4715       4714       4824       4825       4836       4835  
      4704       4705       4716       4715       4825       4826       4837       4836  
      4705       4706       4717       4716       4826       4827       4838       4837  
      4706       4707       4718       4717       4827       4828       4839       4838  
      4707       4708       4719       4718       4828       4829       4840       4839  
      4720       4721       4732       4731       4841       4842       4853       4852  
      4721       4722       4733       4732       4842       4843       4854       4853  
      4722       4723       4734       4733       4843       4844       4855       4854  
      4723       4724       4735       4734       4844       4845       4856       4855  
      4724       4725       4736       4735       4845       4846       4857       4856  
      4725       4726       4737       4736       4846       4847       4858       4857  
      4726       4727       4738       4737       4847       4848       4859       4858  
      4727       4728       4739       4738       4848       4849       4860       4859  
      4728       4729       4740       4739       4849       4850       4861       4860  
      4729       4730       4741       4740       4850       4851       4862       4861  
      4731       4732       4743       4742       4852       4853       4864       4863  
      4732       4733       4744       4743       4853       4854       4865       4864  
      4733       4734       4745       4744       4854       4855       4866       4865  
      4734       4735       4746       4745       4855       4856       4867       4866  
      4735       4736       4747       4746       4856       4857       4868       4867  
      4736       4737       4748       4747       4857       4858       4869       4868  
      4737       4738       4749       4748       4858       4859       4870       4869  
      4738       4739       4750       4749       4859       4860       4871       4870  
      4739       4740       4751       4750       4860       4861       4872       4871  
      4740       4741       4752       4751       4861       4862       4873       4872  
      4742       4743       4754       4753       4863       4864       4875       4874  
      4743       4744       4755       4754       4864       4865       4876       4875  
      4744       4745       4756       4755       4865       4866       4877       4876  
      4745       4746       4757       4756       4866       4867       4878       4877  
      4746       4747       4758       4757       4867       4868       4879       4878  
      4747       4748       4759       4758       4868       4869       4880       4879  
      4748       4749       4760       4759       4869       4870       4881       4880  
      4749       4750       4761       4760       4870       4871       4882       4881  
      4750       4751       4762       4761       4871       4872       4883       4882  
      4751       4752       4763       4762       4872       4873       4884       4883  
      4753       4754       4765       4764       4874       4875       4886       4885  
      4754       4755       4766       4765       4875       4876       4887       4886  
      4755       4756       4767       4766       4876       4877       4888       4887  
      4756       4757       4768       4767       4877       4878       4889       4888  
      4757       4758       4769       4768       4878       4879       4890       4889  
      4758       4759       4770       4769       4879       4880       4891       4890  
      4759       4760       4771       4770       4880       4881       4892       4891  
      4760       4761       4772       4771       4881       4882       4893       4892  
      4761       4762       4773       4772       4882       4883       4894       4893  
      4762       4763       4774       4773       4883       4884       4895       4894  
      4764       4765       4776       4775       4885       4886       4897       4896  
      4765       4766       4777       4776       4886       4887       4898       4897  
      4766       4767       4778       4777       4887       4888       4899       4898  
      4767       4768       4779       4778       4888       4889       4900       4899  
      4768       4769       4780       4779       4889       4890       4901       4900  
      4769       4770       4781       4780       4890       4891       4902       4901  
      4770       4771       4782       4781       4891       4892       4903       4902  
      4771       4772       4783       4782       4892       4893       4904       4903  
      4772       4773       4784       4783       4893       4894       4905       4904  
      4773       4774       4785       4784       4894       4895       4906       4905  
      4775       4776       4787       4786       4896       4897       4908       4907  
      4776       4777       4788       4787       4897       4898       4909       4908  
      4777       4778       4789       4788       4898       4899       4910       4909  
      4778       4779       4790       4789       4899       4900       4911       4910  
      4779       4780       4791       4790       4900       4901       4912       4911  
      4780       4781       4792       4791       4901       4902       4913       4912  
      4781       4782       4793       4792       4902       4903       4914       4913  
      4782       4783       4794       4793       4903       4904       4915       4914  
      4783       4784       4795       4794       4904       4905       4916       4915  
      4784       4785       4796       4795       4905       4906       4917       4916  
      4786       4787       4798       4797       4907       4908       4919       4918  
      4787       4788       4799       4798       4908       4909       4920       4919  
      4788       4789       4800       4799       4909       4910       4921       4920  
      4789       4790       4801       4800       4910       4911       4922       4921  
      4790       4791       4802       4801       4911       4912       4923       4922  
      4791       4792       4803       4802       4912       4913       4924       4923  
      4792       4793       4804       4803       4913       4914       4925       4924  
      4793       4794       4805       4804       4914       4915       4926       4925  
      4794       4795       4806       4805       4915       4916       4927       4926  
      4795       4796       4807       4806       4916       4917       4928       4927  
      4797       4798       4809       4808       4918       4919       4930       4929  
      4798       4799       4810       4809       4919       4920       4931       4930  
      4799       4800       4811       4810       4920       4921       4932       4931  
      4800       4801       4812       4811       4921       4922       4933       4932  
      4801       4802       4813       4812       4922       4923       4934       4933  
      4802       4803       4814       4813       4923       4924       4935       4934  
      4803       4804       4815       4814       4924       4925       4936       4935  
      4804       4805       4816       4815       4925       4926       4937       4936  
      4805       4806       4817       4816       4926       4927       4938       4937  
      4806       4807       4818       4817       4927       4928       4939       4938  
      4808       4809       4820       4819       4929       4930       4941       4940  
      4809       4810       4821       4820       4930       4931       4942       4941  
      4810       4811       4822       4821       4931       4932       4943       4942  
      4811       4812       4823       4822       4932       4933       4944       4943  
      4812       4813       4824       4823       4933       4934       4945       4944  
      4813       4814       4825       4824       4934       4935       4946       4945  
      4814       4815       4826       4825       4935       4936       4947       4946  
      4815       4816       4827       4826       4936       4937       4948       4947  
      4816       4817       4828       4827       4937       4938       4949       4948  
      4817       4818       4829       4828       4938       4939       4950       4949  
      4819       4820       4831       4830       4940       4941       4952       4951  
      4820       4821       4832       4831       4941       4942       4953       4952  
      4821       4822       4833       4832       4942       4943       4954       4953  
      4822       4823       4834       4833       4943       4944       4955       4954  
      4823       4824       4835       4834       4944       4945       4956       4955  
      4824       4825       4836       4835       4945       4946       4957       4956  
      4825       4826       4837       4836       4946       4947       4958       4957  
      4826       4827       4838       4837       4947       4948       4959       4958  
      4827       4828       4839       4838       4948       4949       4960       4959  
      4828       4829       4840       4839       4949       4950       4961       4960  
      4841       4842       4853       4852       4962       4963       4974       4973  
      4842       4843       4854       4853       4963       4964       4975       4974  
      4843       4844       4855       4854       4964       4965       4976       4975  
      4844       4845       4856       4855       4965       4966       4977       4976  
      4845       4846       4857       4856       4966       4967       4978       4977  
      4846       4847       4858       4857       4967       4968       4979       4978  
      4847       4848       4859       4858       4968       4969       4980       4979  
      4848       4849       4860       4859       4969       4970       4981       4980  
      4849       4850       4861       4860       4970       4971       4982       4981  
      4850       4851       4862       4861       4971       4972       4983       4982  
      4852       4853       4864       4863       4973       4974       4985       4984  
      4853       4854       4865       4864       4974       4975       4986       4985  
      4854       4855       4866       4865       4975       4976       4987       4986  
      4855       4856       4867       4866       4976       4977       4988       4987  
      4856       4857       4868       4867       4977       4978       4989       4988  
      4857       4858       4869       4868       4978       4979       4990       4989  
      4858       4859       4870       4869       4979       4980       4991       4990  
      4859       4860       4871       4870       4980       4981       4992       4991  
      4860       4861       4872       4871       4981       4982       4993       4992  
      4861       4862       4873       4872       4982       4983       4994       4993  
      4863       4864       4875       4874       4984       4985       4996       4995  
      4864       4865       4876       4875       4985       4986       4997       4996  
      4865       4866       4877       4876       4986       4987       4998       4997  
      4866       4867       4878       4877       4987       4988       4999       4998  
      4867       4868       4879       4878       4988       4989       5000       4999  
      4868       4869       4880       4879       4989       4990       5001       5000  
      4869       4870       4881       4880       4990       4991       5002       5001  
      4870       4871       4882       4881       4991       4992       5003       5002  
      4871       4872       4883       4882       4992       4993       5004       5003  
      4872       4873       4884       4883       4993       4994       5005       5004  
      4874       4875       4886       4885       4995       4996       5007       5006  
      4875       4876       4887       4886       4996       4997       5008       5007  
      4876       4877       4888       4887       4997       4998       5009       5008  
      4877       4878       4889       4888       4998       4999       5010       5009  
      4878       4879       4890       4889       4999       5000       5011       5010  
      4879       4880       4891       4890       5000       5001       5012       5011  
      4880       4881       4892       4891       5001       5002       5013       5012  
      4881       4882       4893       4892       5002       5003       5014       5013  
      4882       4883       4894       4893       5003       5004       5015       5014  
      4883       4884       4895       4894       5004       5005       5016       5015  
      4885       4886       4897       4896       5006       5007       5018       5017  
      4886       4887       4898       4897       5007       5008       5019       5018  
      4887       4888       4899       4898       5008       5009       5020       5019  
      4888       4889       4900       4899       5009       5010       5021       5020  
      4889       4890       4901       4900       5010       5011       5022       5021  
      4890       4891       4902       4901       5011       5012       5023       5022  
      4891       4892       4903       4902       5012       5013       5024       5023  
      4892       4893       4904       4903       5013       5014       5025       5024  
      4893       4894       4905       4904       5014       5015       5026       5025  
      4894       4895       4906       4905       5015       5016       5027       5026  
      4896       4897       4908       4907       5017       5018       5029       5028  
      4897       4898       4909       4908       5018       5019       5030       5029  
      4898       4899       4910       4909       5019       5020       5031       5030  
      4899       4900       4911       4910       5020       5021       5032       5031  
      4900       4901       4912       4911       5021       5022       5033       5032  
      4901       4902       4913       4912       5022       5023       5034       5033  
      4902       4903       4914       4913       5023       5024       5035       5034  
      4903       4904       4915       4914       5024       5025       5036       5035  
      4904       4905       4916       4915       5025       5026       5037       5036  
      4905       4906       4917       4916       5026       5027       5038       5037  
      4907       4908       4919       4918       5028       5029       5040       5039  
      4908       4909       4920       4919       5029       5030       5041       5040  
      4909       4910       4921       4920       5030       5031       5042       5041  
      4910       4911       4922       4921       5031       5032       5043       5042  
      4911       4912       4923       4922       5032       5033       5044       5043  
      4912       4913       4924       4923       5033       5034       5045       5044  
      4913       4914       4925       4924       5034       5035       5046       5045  
      4914       4915       4926       4925       5035       5036       5047       5046  
      4915       4916       4927       4926       5036       5037       5048       5047  
      4916       4917       4928       4927       5037       5038       5049       5048  
      4918       4919       4930       4929       5039       5040       5051       5050  
      4919       4920       4931       4930       5040       5041       5052       5051  
      4920       4921       4932       4931       5041       5042       5053       5052  
      4921       4922       4933       4932       5042       5043       5054       5053  
      4922       4923       4934       4933       5043       5044       5055       5054  
      4923       4924       4935       4934       5044       5045       5056       5055  
      4924       4925       4936       4935       5045       5046       5057       5056  
      4925       4926       4937       4936       5046       5047       5058       5057  
      4926       4927       4938       4937       5047       5048       5059       5058  
      4927       4928       4939       4938       5048       5049       5060       5059  
      4929       4930       4941       4940       5050       5051       5062       5061  
      4930       4931       4942       4941       5051       5052       5063       5062  
      4931       4932       4943       4942       5052       5053       5064       5063  
      4932       4933       4944       4943       5053       5054       5065       5064  
      4933       4934       4945       4944       5054       5055       5066       5065  
      4934       4935       4946       4945       5055       5056       5067       5066  
      4935       4936       4947       4946       5056       5057       5068       5067  
      4936       4937       4948       4947       5057       5058       5069       5068  
      4937       4938       4949       4948       5058       5059       5070       5069  
      4938       4939       4950       4949       5059       5060       5071       5070  
      4940       4941       4952       4951       5061       5062       5073       5072  
      4941       4942       4953       4952       5062       5063       5074       5073  
      4942       4943       4954       4953       5063       5064       5075       5074  
      4943       4944       4955       4954       5064       5065       5076       5075  
      4944       4945       4956       4955       5065       5066       5077       5076  
      4945       4946       4957       4956       5066       5067       5078       5077  
      4946       4947       4958       4957       5067       5068       5079       5078  
      4947       4948       4959       4958       5068       5069       5080       5079  
      4948       4949       4960       4959       5069       5070       5081       5080  
      4949       4950       4961       4960       5070       5071       5082       5081  
      4962       4963       4974       4973       5083       5084       5095       5094  
      4963       4964       4975       4974       5084       5085       5096       5095  
      4964       4965       4976       4975       5085       5086       5097       5096  
      4965       4966       4977       4976       5086       5087       5098       5097  
      4966       4967       4978       4977       5087       5088       5099       5098  
      4967       4968       4979       4978       5088       5089       5100       5099  
      4968       4969       4980       4979       5089       5090       5101       5100  
      4969       4970       4981       4980       5090       5091       5102       5101  
      4970       4971       4982       4981       5091       5092       5103       5102  
      4971       4972       4983       4982       5092       5093       5104       5103  
      4973       4974       4985       4984       5094       5095       5106       5105  
      4974       4975       4986       4985       5095       5096       5107       5106  
      4975       4976       4987       4986       5096       5097       5108       5107  
      4976       4977       4988       4987       5097       5098       5109       5108  
      4977       4978       4989       4988       5098       5099       5110       5109  
      4978       4979       4990       4989       5099       5100       5111       5110  
      4979       4980       4991       4990       5100       5101       5112       5111  
      4980       4981       4992       4991       5101       5102       5113       5112  
      4981       4982       4993       4992       5102       5103       5114       5113  
      4982       4983       4994       4993       5103       5104       5115       5114  
      4984       4985       4996       4995       5105       5106       5117       5116  
      4985       4986       4997       4996       5106       5107       5118       5117  
      4986       4987       4998       4997       5107       5108       5119       5118  
      4987       4988       4999       4998       5108       5109       5120       5119  
      4988       4989       5000       4999       5109       5110       5121       5120  
      4989       4990       5001       5000       5110       5111       5122       5121  
      4990       4991       5002       5001       5111       5112       5123       5122  
      4991       4992       5003       5002       5112       5113       5124       5123  
      4992       4993       5004       5003       5113       5114       5125       5124  
      4993       4994       5005       5004       5114       5115       5126       5125  
      4995       4996       5007       5006       5116       5117       5128       5127  
      4996       4997       5008       5007       5117       5118       5129       5128  
      4997       4998       5009       5008       5118       5119       5130       5129  
      4998       4999       5010       5009       5119       5120       5131       5130  
      4999       5000       5011       5010       5120       5121       5132       5131  
      5000       5001       5012       5011       5121       5122       5133       5132  
      5001       5002       5013       5012       5122       5123       5134       5133  
      5002       5003       5014       5013       5123       5124       5135       5134  
      5003       5004       5015       5014       5124       5125       5136       5135  
      5004       5005       5016       5015       5125       5126       5137       5136  
      5006       5007       5018       5017       5127       5128       5139       5138  
      5007       5008       5019       5018       5128       5129       5140       5139  
      5008       5009       5020       5019       5129       5130       5141       5140  
      5009       5010       5021       5020       5130       5131       5142       5141  
      5010       5011       5022       5021       5131       5132       5143       5142  
      5011       5012       5023       5022       5132       5133       5144       5143  
      5012       5013       5024       5023       5133       5134       5145       5144  
      5013       5014       5025       5024       5134       5135       5146       5145  
      5014       5015       5026       5025       5135       5136       5147       5146  
      5015       5016       5027       5026       5136       5137       5148       5147  
      5017       5018       5029       5028       5138       5139       5150       5149  
      5018       5019       5030       5029       5139       5140       5151       5150  
      5019       5020       5031       5030       5140       5141       5152       5151  
      5020       5021       5032       5031       5141       5142       5153       5152  
      5021       5022       5033       5032       5142       5143       5154       5153  
      5022       5023       5034       5033       5143       5144       5155       5154  
      5023       5024       5035       5034       5144       5145       5156       5155  
      5024       5025       5036       5035       5145       5146       5157       5156  
      5025       5026       5037       5036       5146       5147       5158       5157  
      5026       5027       5038       5037       5147       5148       5159       5158  
      5028       5029       5040       5039       5149       5150       5161       5160  
      5029       5030       5041       5040       5150       5151       5162       5161  
      5030       5031       5042       5041       5151       5152       5163       5162  
      5031       5032       5043       5042       5152       5153       5164       5163  
      5032       5033       5044       5043       5153       5154       5165       5164  
      5033       5034       5045       5044       5154       5155       5166       5165  
      5034       5035       5046       5045       5155       5156       5167       5166  
      5035       5036       5047       5046       5156       5157       5168       5167  
      5036       5037       5048       5047       5157       5158       5169       5168  
      5037       5038       5049       5048       5158       5159       5170       5169  
      5039       5040       5051       5050       5160       5161       5172       5171  
      5040       5041       5052       5051       5161       5162       5173       5172  
      5041       5042       5053       5052       5162       5163       5174       5173  
      5042       5043       5054       5053       5163       5164       5175       5174  
      5043       5044       5055       5054       5164       5165       5176       5175  
      5044       5045       5056       5055       5165       5166       5177       5176  
      5045       5046       5057       5056       5166       5167       5178       5177  
      5046       5047       5058       5057       5167       5168       5179       5178  
      5047       5048       5059       5058       5168       5169       5180       5179  
      5048       5049       5060       5059       5169       5170       5181       5180  
      5050       5051       5062       5061       5171       5172       5183       5182  
      5051       5052       5063       5062       5172       5173       5184       5183  
      5052       5053       5064       5063       5173       5174       5185       5184  
      5053       5054       5065       5064       5174       5175       5186       5185  
      5054       5055       5066       5065       5175       5176       5187       5186  
      5055       5056       5067       5066       5176       5177       5188       5187  
      5056       5057       5068       5067       5177       5178       5189       5188  
      5057       5058       5069       5068       5178       5179       5190       5189  
      5058       5059       5070       5069       5179       5180       5191       5190  
      5059       5060       5071       5070       5180       5181       5192       5191  
      5061       5062       5073       5072       5182       5183       5194       5193  
      5062       5063       5074       5073       5183       5184       5195       5194  
      5063       5064       5075       5074       5184       5185       5196       5195  
      5064       5065       5076       5075       5185       5186       5197       5196  
      5065       5066       5077       5076       5186       5187       5198       5197  
      5066       5067       5078       5077       5187       5188       5199       5198  
      5067       5068       5079       5078       5188       5189       5200       5199  
      5068       5069       5080       5079       5189       5190       5201       5200  
      5069       5070       5081       5080       5190       5191       5202       5201  
      5070       5071       5082       5081       5191       5192       5203       5202  
      5083       5084       5095       5094       5204       5205       5216       5215  
      5084       5085       5096       5095       5205       5206       5217       5216  
      5085       5086       5097       5096       5206       5207       5218       5217  
      5086       5087       5098       5097       5207       5208       5219       5218  
      5087       5088       5099       5098       5208       5209       5220       5219  
      5088       5089       5100       5099       5209       5210       5221       5220  
      5089       5090       5101       5100       5210       5211       5222       5221  
      5090       5091       5102       5101       5211       5212       5223       5222  
      5091       5092       5103       5102       5212       5213       5224       5223  
      5092       5093       5104       5103       5213       5214       5225       5224  
      5094       5095       5106       5105       5215       5216       5227       5226  
      5095       5096       5107       5106       5216       5217       5228       5227  
      5096       5097       5108       5107       5217       5218       5229       5228  
      5097       5098       5109       5108       5218       5219       5230       5229  
      5098       5099       5110       5109       5219       5220       5231       5230  
      5099       5100       5111       5110       5220       5221       5232       5231  
      5100       5101       5112       5111       5221       5222       5233       5232  
      5101       5102       5113       5112       5222       5223       5234       5233  
      5102       5103       5114       5113       5223       5224       5235       5234  
      5103       5104       5115       5114       5224       5225       5236       5235  
      5105       5106       5117       5116       5226       5227       5238       5237  
      5106       5107       5118       5117       5227       5228       5239       5238  
      5107       5108       5119       5118       5228       5229       5240       5239  
      5108       5109       5120       5119       5229       5230       5241       5240  
      5109       5110       5121       5120       5230       5231       5242       5241  
      5110       5111       5122       5121       5231       5232       5243       5242  
      5111       5112       5123       5122       5232       5233       5244       5243  
      5112       5113       5124       5123       5233       5234       5245       5244  
      5113       5114       5125       5124       5234       5235       5246       5245  
      5114       5115       5126       5125       5235       5236       5247       5246  
      5116       5117       5128       5127       5237       5238       5249       5248  
      5117       5118       5129       5128       5238       5239       5250       5249  
      5118       5119       5130       5129       5239       5240       5251       5250  
      5119       5120       5131       5130       5240       5241       5252       5251  
      5120       5121       5132       5131       5241       5242       5253       5252  
      5121       5122       5133       5132       5242       5243       5254       5253  
      5122       5123       5134       5133       5243       5244       5255       5254  
      5123       5124       5135       5134       5244       5245       5256       5255  
      5124       5125       5136       5135       5245       5246       5257       5256  
      5125       5126       5137       5136       5246       5247       5258       5257  
      5127       5128       5139       5138       5248       5249       5260       5259  
      5128       5129       5140       5139       5249       5250       5261       5260  
      5129       5130       5141       5140       5250       5251       5262       5261  
      5130       5131       5142       5141       5251       5252       5263       5262  
      5131       5132       5143       5142       5252       5253       5264       5263  
      5132       5133       5144       5143       5253       5254       5265       5264  
      5133       5134       5145       5144       5254       5255       5266       5265  
      5134       5135       5146       5145       5255       5256       5267       5266  
      5135       5136       5147       5146       5256       5257       5268       5267  
      5136       5137       5148       5147       5257       5258       5269       5268  
      5138       5139       5150       5149       5259       5260       5271       5270  
      5139       5140       5151       5150       5260       5261       5272       5271  
      5140       5141       5152       5151       5261       5262       5273       5272  
      5141       5142       5153       5152       5262       5263       5274       5273  
      5142       5143       5154       5153       5263       5264       5275       5274  
      5143       5144       5155       5154       5264       5265       5276       5275  
      5144       5145       5156       5155       5265       5266       5277       5276  
      5145       5146       5157       5156       5266       5267       5278       5277  
      5146       5147       5158       5157       5267       5268       5279       5278  
      5147       5148       5159       5158       5268       5269       5280       5279  
      5149       5150       5161       5160       5270       5271       5282       5281  
      5150       5151       5162       5161       5271       5272       5283       5282  
      5151       5152       5163       5162       5272       5273       5284       5283  
      5152       5153       5164       5163       5273       5274       5285       5284  
      5153       5154       5165       5164       5274       5275       5286       5285  
      5154       5155       5166       5165       5275       5276       5287       5286  
      5155       5156       5167       5166       5276       5277       5288       5287  
      5156       5157       5168       5167       5277       5278       5289       5288  
      5157       5158       5169       5168       5278       5279       5290       5289  
      5158       5159       5170       5169       5279       5280       5291       5290  
      5160       5161       5172       5171       5281       5282       5293       5292  
      5161       5162       5173       5172       5282       5283       5294       5293  
      5162       5163       5174       5173       5283       5284       5295       5294  
      5163       5164       5175       5174       5284       5285       5296       5295  
      5164       5165       5176       5175       5285       5286       5297       5296  
      5165       5166       5177       5176       5286       5287       5298       5297  
      5166       5167       5178       5177       5287       5288       5299       5298  
      5167       5168       5179       5178       5288       5289       5300       5299  
      5168       5169       5180       5179       5289       5290       5301       5300  
      5169       5170       5181       5180       5290       5291       5302       5301  
      5171       5172       5183       5182       5292       5293       5304       5303  
      5172       5173       5184       5183       5293       5294       5305       5304  
      5173       5174       5185       5184       5294       5295       5306       5305  
      5174       5175       5186       5185       5295       5296       5307       5306  
      5175       5176       5187       5186       5296       5297       5308       5307  
      5176       5177       5188       5187       5297       5298       5309       5308  
      5177       5178       5189       5188       5298       5299       5310       5309  
      5178       5179       5190       5189       5299       5300       5311       5310  
      5179       5180       5191       5190       5300       5301       5312       5311  
      5180       5181       5192       5191       5301       5302       5313       5312  
      5182       5183       5194       5193       5303       5304       5315       5314  
      5183       5184       5195       5194       5304       5305       5316       5315  
      5184       5185       5196       5195       5305       5306       5317       5316  
      5185       5186       5197       5196       5306       5307       5318       5317  
      5186       5187       5198       5197       5307       5308       5319       5318  
      5187       5188       5199       5198       5308       5309       5320       5319  
      5188       5189       5200       5199       5309       5310       5321       5320  
      5189       5190       5201       5200       5310       5311       5322       5321  
      5190       5191       5202       5201       5311       5312       5323       5322  
      5191       5192       5203       5202       5312       5313       5324       5323  
      5204       5205       5216       5215       5325       5326       5337       5336  
      5205       5206       5217       5216       5326       5327       5338       5337  
      5206       5207       5218       5217       5327       5328       5339       5338  
      5207       5208       5219       5218       5328       5329       5340       5339  
      5208       5209       5220       5219       5329       5330       5341       5340  
      5209       5210       5221       5220       5330       5331       5342       5341  
      5210       5211       5222       5221       5331       5332       5343       5342  
      5211       5212       5223       5222       5332       5333       5344       5343  
      5212       5213       5224       5223       5333       5334       5345       5344  
      5213       5214       5225       5224       5334       5335       5346       5345  
      5215       5216       5227       5226       5336       5337       5348       5347  
      5216       5217       5228       5227       5337       5338       5349       5348  
      5217       5218       5229       5228       5338       5339       5350       5349  
      5218       5219       5230       5229       5339       5340       5351       5350  
      5219       5220       5231       5230       5340       5341       5352       5351  
      5220       5221       5232       5231       5341       5342       5353       5352  
      5221       5222       5233       5232       5342       5343       5354       5353  
      5222       5223       5234       5233       5343       5344       5355       5354  
      5223       5224       5235       5234       5344       5345       5356       5355  
      5224       5225       5236       5235       5345       5346       5357       5356  
      5226       5227       5238       5237       5347       5348       5359       5358  
      5227       5228       5239       5238       5348       5349       5360       5359  
      5228       5229       5240       5239       5349       5350       5361       5360  
      5229       5230       5241       5240       5350       5351       5362       5361  
      5230       5231       5242       5241       5351       5352       5363       5362  
      5231       5232       5243       5242       5352       5353       5364       5363  
      5232       5233       5244       5243       5353       5354       5365       5364  
      5233       5234       5245       5244       5354       5355       5366       5365  
      5234       5235       5246       5245       5355       5356       5367       5366  
      5235       5236       5247       5246       5356       5357       5368       5367  
      5237       5238       5249       5248       5358       5359       5370       5369  
      5238       5239       5250       5249       5359       5360       5371       5370  
      5239       5240       5251       5250       5360       5361       5372       5371  
      5240       5241       5252       5251       5361       5362       5373       5372  
      5241       5242       5253       5252       5362       5363       5374       5373  
      5242       5243       5254       5253       5363       5364       5375       5374  
      5243       5244       5255       5254       5364       5365       5376       5375  
      5244       5245       5256       5255       5365       5366       5377       5376  
      5245       5246       5257       5256       5366       5367       5378       5377  
      5246       5247       5258       5257       5367       5368       5379       5378  
      5248       5249       5260       5259       5369       5370       5381       5380  
      5249       5250       5261       5260       5370       5371       5382       5381  
      5250       5251       5262       5261       5371       5372       5383       5382  
      5251       5252       5263       5262       5372       5373       5384       5383  
      5252       5253       5264       5263       5373       5374       5385       5384  
      5253       5254       5265       5264       5374       5375       5386       5385  
      5254       5255       5266       5265       5375       5376       5387       5386  
      5255       5256       5267       5266       5376       5377       5388       5387  
      5256       5257       5268       5267       5377       5378       5389       5388  
      5257       5258       5269       5268       5378       5379       5390       5389  
      5259       5260       5271       5270       5380       5381       5392       5391  
      5260       5261       5272       5271       5381       5382       5393       5392  
      5261       5262       5273       5272       5382       5383       5394       5393  
      5262       5263       5274       5273       5383       5384       5395       5394  
      5263       5264       5275       5274       5384       5385       5396       5395  
      5264       5265       5276       5275       5385       5386       5397       5396  
      5265       5266       5277       5276       5386       5387       5398       5397  
      5266       5267       5278       5277       5387       5388       5399       5398  
      5267       5268       5279       5278       5388       5389       5400       5399  
      5268       5269       5280       5279       5389       5390       5401       5400  
      5270       5271       5282       5281       5391       5392       5403       5402  
      5271       5272       5283       5282       5392       5393       5404       5403  
      5272       5273       5284       5283       5393       5394       5405       5404  
      5273       5274       5285       5284       5394       5395       5406       5405  
      5274       5275       5286       5285       5395       5396       5407       5406  
      5275       5276       5287       5286       5396       5397       5408       5407  
      5276       5277       5288       5287       5397       5398       5409       5408  
      5277       5278       5289       5288       5398       5399       5410       5409  
      5278       5279       5290       5289       5399       5400       5411       5410  
      5279       5280       5291       5290       5400       5401       5412       5411  
      5281       5282       5293       5292       5402       5403       5414       5413  
      5282       5283       5294       5293       5403       5404       5415       5414  
      5283       5284       5295       5294       5404       5405       5416       5415  
      5284       5285       5296       5295       5405       5406       5417       5416  
      5285       5286       5297       5296       5406       5407       5418       5417  
      5286       5287       5298       5297       5407       5408       5419       5418  
      5287       5288       5299       5298       5408       5409       5420       5419  
      5288       5289       5300       5299       5409       5410       5421       5420  
      5289       5290       5301       5300       5410       5411       5422       5421  
      5290       5291       5302       5301       5411       5412       5423       5422  
      5292       5293       5304       5303       5413       5414       5425       5424  
      5293       5294       5305       5304       5414       5415       5426       5425  
      5294       5295       5306       5305       5415       5416       5427       5426  
      5295       5296       5307       5306       5416       5417       5428       5427  
      5296       5297       5308       5307       5417       5418       5429       5428  
      5297       5298       5309       5308       5418       5419       5430       5429  
      5298       5299       5310       5309       5419       5420       5431       5430  
      5299       5300       5311       5310       5420       5421       5432       5431  
      5300       5301       5312       5311       5421       5422       5433       5432  
      5301       5302       5313       5312       5422       5423       5434       5433  
      5303       5304       5315       5314       5424       5425       5436       5435  
      5304       5305       5316       5315       5425       5426       5437       5436  
      5305       5306       5317       5316       5426       5427       5438       5437  
      5306       5307       5318       5317       5427       5428       5439       5438  
      5307       5308       5319       5318       5428       5429       5440       5439  
      5308       5309       5320       5319       5429       5430       5441       5440  
      5309       5310       5321       5320       5430       5431       5442       5441  
      5310       5311       5322       5321       5431       5432       5443       5442  
      5311       5312       5323       5322       5432       5433       5444       5443  
      5312       5313       5324       5323       5433       5434       5445       5444  
      5325       5326       5337       5336       5446       5447       5458       5457  
      5326       5327       5338       5337       5447       5448       5459       5458  
      5327       5328       5339       5338       5448       5449       5460       5459  
      5328       5329       5340       5339       5449       5450       5461       5460  
      5329       5330       5341       5340       5450       5451       5462       5461  
      5330       5331       5342       5341       5451       5452       5463       5462  
      5331       5332       5343       5342       5452       5453       5464       5463  
      5332       5333       5344       5343       5453       5454       5465       5464  
      5333       5334       5345       5344       5454       5455       5466       5465  
      5334       5335       5346       5345       5455       5456       5467       5466  
      5336       5337       5348       5347       5457       5458       5469       5468  
      5337       5338       5349       5348       5458       5459       5470       5469  
      5338       5339       5350       5349       5459       5460       5471       5470  
      5339       5340       5351       5350       5460       5461       5472       5471  
      5340       5341       5352       5351       5461       5462       5473       5472  
      5341       5342       5353       5352       5462       5463       5474       5473  
      5342       5343       5354       5353       5463       5464       5475       5474  
      5343       5344       5355       5354       5464       5465       5476       5475  
      5344       5345       5356       5355       5465       5466       5477       5476  
      5345       5346       5357       5356       5466       5467       5478       5477  
      5347       5348       5359       5358       5468       5469       5480       5479  
      5348       5349       5360       5359       5469       5470       5481       5480  
      5349       5350       5361       5360       5470       5471       5482       5481  
      5350       5351       5362       5361       5471       5472       5483       5482  
      5351       5352       5363       5362       5472       5473       5484       5483  
      5352       5353       5364       5363       5473       5474       5485       5484  
      5353       5354       5365       5364       5474       5475       5486       5485  
      5354       5355       5366       5365       5475       5476       5487       5486  
      5355       5356       5367       5366       5476       5477       5488       5487  
      5356       5357       5368       5367       5477       5478       5489       5488  
      5358       5359       5370       5369       5479       5480       5491       5490  
      5359       5360       5371       5370       5480       5481       5492       5491  
      5360       5361       5372       5371       5481       5482       5493       5492  
      5361       5362       5373       5372       5482       5483       5494       5493  
      5362       5363       5374       5373       5483       5484       5495       5494  
      5363       5364       5375       5374       5484       5485       5496       5495  
      5364       5365       5376       5375       5485       5486       5497       5496  
      5365       5366       5377       5376       5486       5487       5498       5497  
      5366       5367       5378       5377       5487       5488       5499       5498  
      5367       5368       5379       5378       5488       5489       5500       5499  
      5369       5370       5381       5380       5490       5491       5502       5501  
      5370       5371       5382       5381       5491       5492       5503       5502  
      5371       5372       5383       5382       5492       5493       5504       5503  
      5372       5373       5384       5383       5493       5494       5505       5504  
      5373       5374       5385       5384       5494       5495       5506       5505  
      5374       5375       5386       5385       5495       5496       5507       5506  
      5375       5376       5387       5386       5496       5497       5508       5507  
      5376       5377       5388       5387       5497       5498       5509       5508  
      5377       5378       5389       5388       5498       5499       5510       5509  
      5378       5379       5390       5389       5499       5500       5511       5510  
      5380       5381       5392       5391       5501       5502       5513       5512  
      5381       5382       5393       5392       5502       5503       5514       5513  
      5382       5383       5394       5393       5503       5504       5515       5514  
      5383       5384       5395       5394       5504       5505       5516       5515  
      5384       5385       5396       5395       5505       5506       5517       5516  
      5385       5386       5397       5396       5506       5507       5518       5517  
      5386       5387       5398       5397       5507       5508       5519       5518  
      5387       5388       5399       5398       5508       5509       5520       5519  
      5388       5389       5400       5399       5509       5510       5521       5520  
      5389       5390       5401       5400       5510       5511       5522       5521  
      5391       5392       5403       5402       5512       5513       5524       5523  
      5392       5393       5404       5403       5513       5514       5525       5524  
      5393       5394       5405       5404       5514       5515       5526       5525  
      5394       5395       5406       5405       5515       5516       5527       5526  
      5395       5396       5407       5406       5516       5517       5528       5527  
      5396       5397       5408       5407       5517       5518       5529       5528  
      5397       5398       5409       5408       5518       5519       5530       5529  
      5398       5399       5410       5409       5519       5520       5531       5530  
      5399       5400       5411       5410       5520       5521       5532       5531  
      5400       5401       5412       5411       5521       5522       5533       5532  
      5402       5403       5414       5413       5523       5524       5535       5534  
      5403       5404       5415       5414       5524       5525       5536       5535  
      5404       5405       5416       5415       5525       5526       5537       5536  
      5405       5406       5417       5416       5526       5527       5538       5537  
      5406       5407       5418       5417       5527       5528       5539       5538  
      5407       5408       5419       5418       5528       5529       5540       5539  
      5408       5409       5420       5419       5529       5530       5541       5540  
      5409       5410       5421       5420       5530       5531       5542       5541  
      5410       5411       5422       5421       5531       5532       5543       5542  
      5411       5412       5423       5422       5532       5533       5544       5543  
      5413       5414       5425       5424       5534       5535       5546       5545  
      5414       5415       5426       5425       5535       5536       5547       5546  
      5415       5416       5427       5426       5536       5537       5548       5547  
      5416       5417       5428       5427       5537       5538       5549       5548  
      5417       5418       5429       5428       5538       5539       5550       5549  
      5418       5419       5430       5429       5539       5540       5551       5550  
      5419       5420       5431       5430       5540       5541       5552       5551  
      5420       5421       5432       5431       5541       5542       5553       5552  
      5421       5422       5433       5432       5542       5543       5554       5553  
      5422       5423       5434       5433       5543       5544       5555       5554  
      5424       5425       5436       5435       5545       5546       5557       5556  
      5425       5426       5437       5436       5546       5547       5558       5557  
      5426       5427       5438       5437       5547       5548       5559       5558  
      5427       5428       5439       5438       5548       5549       5560       5559  
      5428       5429       5440       5439       5549       5550       5561       5560  
      5429       5430       5441       5440       5550       5551       5562       5561  
      5430       5431       5442       5441       5551       5552       5563       5562  
      5431       5432       5443       5442       5552       5553       5564       5563  
      5432       5433       5444       5443       5553       5554       5565       5564  
      5433       5434       5445       5444       5554       5555       5566       5565  
      5446       5447       5458       5457       5567       5568       5579       5578  
      5447       5448       5459       5458       5568       5569       5580       5579  
      5448       5449       5460       5459       5569       5570       5581       5580  
      5449       5450       5461       5460       5570       5571       5582       5581  
      5450       5451       5462       5461       5571       5572       5583       5582  
      5451       5452       5463       5462       5572       5573       5584       5583  
      5452       5453       5464       5463       5573       5574       5585       5584  
      5453       5454       5465       5464       5574       5575       5586       5585  
      5454       5455       5466       5465       5575       5576       5587       5586  
      5455       5456       5467       5466       5576       5577       5588       5587  
      5457       5458       5469       5468       5578       5579       5590       5589  
      5458       5459       5470       5469       5579       5580       5591       5590  
      5459       5460       5471       5470       5580       5581       5592       5591  
      5460       5461       5472       5471       5581       5582       5593       5592  
      5461       5462       5473       5472       5582       5583       5594       5593  
      5462       5463       5474       5473       5583       5584       5595       5594  
      5463       5464       5475       5474       5584       5585       5596       5595  
      5464       5465       5476       5475       5585       5586       5597       5596  
      5465       5466       5477       5476       5586       5587       5598       5597  
      5466       5467       5478       5477       5587       5588       5599       5598  
      5468       5469       5480       5479       5589       5590       5601       5600  
      5469       5470       5481       5480       5590       5591       5602       5601  
      5470       5471       5482       5481       5591       5592       5603       5602  
      5471       5472       5483       5482       5592       5593       5604       5603  
      5472       5473       5484       5483       5593       5594       5605       5604  
      5473       5474       5485       5484       5594       5595       5606       5605  
      5474       5475       5486       5485       5595       5596       5607       5606  
      5475       5476       5487       5486       5596       5597       5608       5607  
      5476       5477       5488       5487       5597       5598       5609       5608  
      5477       5478       5489       5488       5598       5599       5610       5609  
      5479       5480       5491       5490       5600       5601       5612       5611  
      5480       5481       5492       5491       5601       5602       5613       5612  
      5481       5482       5493       5492       5602       5603       5614       5613  
      5482       5483       5494       5493       5603       5604       5615       5614  
      5483       5484       5495       5494       5604       5605       5616       5615  
      5484       5485       5496       5495       5605       5606       5617       5616  
      5485       5486       5497       5496       5606       5607       5618       5617  
      5486       5487       5498       5497       5607       5608       5619       5618  
      5487       5488       5499       5498       5608       5609       5620       5619  
      5488       5489       5500       5499       5609       5610       5621       5620  
      5490       5491       5502       5501       5611       5612       5623       5622  
      5491       5492       5503       5502       5612       5613       5624       5623  
      5492       5493       5504       5503       5613       5614       5625       5624  
      5493       5494       5505       5504       5614       5615       5626       5625  
      5494       5495       5506       5505       5615       5616       5627       5626  
      5495       5496       5507       5506       5616       5617       5628       5627  
      5496       5497       5508       5507       5617       5618       5629       5628  
      5497       5498       5509       5508       5618       5619       5630       5629  
      5498       5499       5510       5509       5619       5620       5631       5630  
      5499       5500       5511       5510       5620       5621       5632       5631  
      5501       5502       5513       5512       5622       5623       5634       5633  
      5502       5503       5514       5513       5623       5624       5635       5634  
      5503       5504       5515       5514       5624       5625       5636       5635  
      5504       5505       5516       5515       5625       5626       5637       5636  
      5505       5506       5517       5516       5626       5627       5638       5637  
      5506       5507       5518       5517       5627       5628       5639       5638  
      5507       5508       5519       5518       5628       5629       5640       5639  
      5508       5509       5520       5519       5629       5630       5641       5640  
      5509       5510       5521       5520       5630       5631       5642       5641  
      5510       5511       5522       5521       5631       5632       5643       5642  
      5512       5513       5524       5523       5633       5634       5645       5644  
      5513       5514       5525       5524       5634       5635       5646       5645  
      5514       5515       5526       5525       5635       5636       5647       5646  
      5515       5516       5527       5526       5636       5637       5648       5647  
      5516       5517       5528       5527       5637       5638       5649       5648  
      5517       5518       5529       5528       5638       5639       5650       5649  
      5518       5519       5530       5529       5639       5640       5651       5650  
      5519       5520       5531       5530       5640       5641       5652       5651  
      5520       5521       5532       5531       5641       5642       5653       5652  
      5521       5522       5533       5532       5642       5643       5654       5653  
      5523       5524       5535       5534       5644       5645       5656       5655  
      5524       5525       5536       5535       5645       5646       5657       5656  
      5525       5526       5537       5536       5646       5647       5658       5657  
      5526       5527       5538       5537       5647       5648       5659       5658  
      5527       5528       5539       5538       5648       5649       5660       5659  
      5528       5529       5540       5539       5649       5650       5661       5660  
      5529       5530       5541       5540       5650       5651       5662       5661  
      5530       5531       5542       5541       5651       5652       5663       5662  
      5531       5532       5543       5542       5652       5653       5664       5663  
      5532       5533       5544       5543       5653       5654       5665       5664  
      5534       5535       5546       5545       5655       5656       5667       5666  
      5535       5536       5547       5546       5656       5657       5668       5667  
      5536       5537       5548       5547       5657       5658       5669       5668  
      5537       5538       5549       5548       5658       5659       5670       5669  
      5538       5539       5550       5549       5659       5660       5671       5670  
      5539       5540       5551       5550       5660       5661       5672       5671  
      5540       5541       5552       5551       5661       5662       5673       5672  
      5541       5542       5553       5552       5662       5663       5674       5673  
      5542       5543       5554       5553       5663       5664       5675       5674  
      5543       5544       5555       5554       5664       5665       5676       5675  
      5545       5546       5557       5556       5666       5667       5678       5677  
      5546       5547       5558       5557       5667       5668       5679       5678  
      5547       5548       5559       5558       5668       5669       5680       5679  
      5548       5549       5560       5559       5669       5670       5681       5680  
      5549       5550       5561       5560       5670       5671       5682       5681  
      5550       5551       5562       5561       5671       5672       5683       5682  
      5551       5552       5563       5562       5672       5673       5684       5683  
      5552       5553       5564       5563       5673       5674       5685       5684  
      5553       5554       5565       5564       5674       5675       5686       5685  
      5554       5555       5566       5565       5675       5676       5687       5686  
      5567       5568       5579       5578       5688       5689       5700       5699  
      5568       5569       5580       5579       5689       5690       5701       5700  
      5569       5570       5581       5580       5690       5691       5702       5701  
      5570       5571       5582       5581       5691       5692       5703       5702  
      5571       5572       5583       5582       5692       5693       5704       5703  
      5572       5573       5584       5583       5693       5694       5705       5704  
      5573       5574       5585       5584       5694       5695       5706       5705  
      5574       5575       5586       5585       5695       5696       5707       5706  
      5575       5576       5587       5586       5696       5697       5708       5707  
      5576       5577       5588       5587       5697       5698       5709       5708  
      5578       5579       5590       5589       5699       5700       5711       5710  
      5579       5580       5591       5590       5700       5701       5712       5711  
      5580       5581       5592       5591       5701       5702       5713       5712  
      5581       5582       5593       5592       5702       5703       5714       5713  
      5582       5583       5594       5593       5703       5704       5715       5714  
      5583       5584       5595       5594       5704       5705       5716       5715  
      5584       5585       5596       5595       5705       5706       5717       5716  
      5585       5586       5597       5596       5706       5707       5718       5717  
      5586       5587       5598       5597       5707       5708       5719       5718  
      5587       5588       5599       5598       5708       5709       5720       5719  
      5589       5590       5601       5600       5710       5711       5722       5721  
      5590       5591       5602       5601       5711       5712       5723       5722  
      5591       5592       5603       5602       5712       5713       5724       5723  
      5592       5593       5604       5603       5713       5714       5725       5724  
      5593       5594       5605       5604       5714       5715       5726       5725  
      5594       5595       5606       5605       5715       5716       5727       5726  
      5595       5596       5607       5606       5716       5717       5728       5727  
      5596       5597       5608       5607       5717       5718       5729       5728  
      5597       5598       5609       5608       5718       5719       5730       5729  
      5598       5599       5610       5609       5719       5720       5731       5730  
      5600       5601       5612       5611       5721       5722       5733       5732  
      5601       5602       5613       5612       5722       5723       5734       5733  
      5602       5603       5614       5613       5723       5724       5735       5734  
      5603       5604       5615       5614       5724       5725       5736       5735  
      5604       5605       5616       5615       5725       5726       5737       5736  
      5605       5606       5617       5616       5726       5727       5738       5737  
      5606       5607       5618       5617       5727       5728       5739       5738  
      5607       5608       5619       5618       5728       5729       5740       5739  
      5608       5609       5620       5619       5729       5730       5741       5740  
      5609       5610       5621       5620       5730       5731       5742       5741  
      5611       5612       5623       5622       5732       5733       5744       5743  
      5612       5613       5624       5623       5733       5734       5745       5744  
      5613       5614       5625       5624       5734       5735       5746       5745  
      5614       5615       5626       5625       5735       5736       5747       5746  
      5615       5616       5627       5626       5736       5737       5748       5747  
      5616       5617       5628       5627       5737       5738       5749       5748  
      5617       5618       5629       5628       5738       5739       5750       5749  
      5618       5619       5630       5629       5739       5740       5751       5750  
      5619       5620       5631       5630       5740       5741       5752       5751  
      5620       5621       5632       5631       5741       5742       5753       5752  
      5622       5623       5634       5633       5743       5744       5755       5754  
      5623       5624       5635       5634       5744       5745       5756       5755  
      5624       5625       5636       5635       5745       5746       5757       5756  
      5625       5626       5637       5636       5746       5747       5758       5757  
      5626       5627       5638       5637       5747       5748       5759       5758  
      5627       5628       5639       5638       5748       5749       5760       5759  
      5628       5629       5640       5639       5749       5750       5761       5760  
      5629       5630       5641       5640       5750       5751       5762       5761  
      5630       5631       5642       5641       5751       5752       5763       5762  
      5631       5632       5643       5642       5752       5753       5764       5763  
      5633       5634       5645       5644       5754       5755       5766       5765  
      5634       5635       5646       5645       5755       5756       5767       5766  
      5635       5636       5647       5646       5756       5757       5768       5767  
      5636       5637       5648       5647       5757       5758       5769       5768  
      5637       5638       5649       5648       5758       5759       5770       5769  
      5638       5639       5650       5649       5759       5760       5771       5770  
      5639       5640       5651       5650       5760       5761       5772       5771  
      5640       5641       5652       5651       5761       5762       5773       5772  
      5641       5642       5653       5652       5762       5763       5774       5773  
      5642       5643       5654       5653       5763       5764       5775       5774  
      5644       5645       5656       5655       5765       5766       5777       5776  
      5645       5646       5657       5656       5766       5767       5778       5777  
      5646       5647       5658       5657       5767       5768       5779       5778  
      5647       5648       5659       5658       5768       5769       5780       5779  
      5648       5649       5660       5659       5769       5770       5781       5780  
      5649       5650       5661       5660       5770       5771       5782       5781  
      5650       5651       5662       5661       5771       5772       5783       5782  
      5651       5652       5663       5662       5772       5773       5784       5783  
      5652       5653       5664       5663       5773       5774       5785       5784  
      5653       5654       5665       5664       5774       5775       5786       5785  
      5655       5656       5667       5666       5776       5777       5788       5787  
      5656       5657       5668       5667       5777       5778       5789       5788  
      5657       5658       5669       5668       5778       5779       5790       5789  
      5658       5659       5670       5669       5779       5780       5791       5790  
      5659       5660       5671       5670       5780       5781       5792       5791  
      5660       5661       5672       5671       5781       5782       5793       5792  
      5661       5662       5673       5672       5782       5783       5794       5793  
      5662       5663       5674       5673       5783       5784       5795       5794  
      5663       5664       5675       5674       5784       5785       5796       5795  
      5664       5665       5676       5675       5785       5786       5797       5796  
      5666       5667       5678       5677       5787       5788       5799       5798  
      5667       5668       5679       5678       5788       5789       5800       5799  
      5668       5669       5680       5679       5789       5790       5801       5800  
      5669       5670       5681       5680       5790       5791       5802       5801  
      5670       5671       5682       5681       5791       5792       5803       5802  
      5671       5672       5683       5682       5792       5793       5804       5803  
      5672       5673       5684       5683       5793       5794       5805       5804  
      5673       5674       5685       5684       5794       5795       5806       5805  
      5674       5675       5686       5685       5795       5796       5807       5806  
      5675       5676       5687       5686       5796       5797       5808       5807  
      5688       5689       5700       5699       5809       5810       5821       5820  
      5689       5690       5701       5700       5810       5811       5822       5821  
      5690       5691       5702       5701       5811       5812       5823       5822  
      5691       5692       5703       5702       5812       5813       5824       5823  
      5692       5693       5704       5703       5813       5814       5825       5824  
      5693       5694       5705       5704       5814       5815       5826       5825  
      5694       5695       5706       5705       5815       5816       5827       5826  
      5695       5696       5707       5706       5816       5817       5828       5827  
      5696       5697       5708       5707       5817       5818       5829       5828  
      5697       5698       5709       5708       5818       5819       5830       5829  
      5699       5700       5711       5710       5820       5821       5832       5831  
      5700       5701       5712       5711       5821       5822       5833       5832  
      5701       5702       5713       5712       5822       5823       5834       5833  
      5702       5703       5714       5713       5823       5824       5835       5834  
      5703       5704       5715       5714       5824       5825       5836       5835  
      5704       5705       5716       5715       5825       5826       5837       5836  
      5705       5706       5717       5716       5826       5827       5838       5837  
      5706       5707       5718       5717       5827       5828       5839       5838  
      5707       5708       5719       5718       5828       5829       5840       5839  
      5708       5709       5720       5719       5829       5830       5841       5840  
      5710       5711       5722       5721       5831       5832       5843       5842  
      5711       5712       5723       5722       5832       5833       5844       5843  
      5712       5713       5724       5723       5833       5834       5845       5844  
      5713       5714       5725       5724       5834       5835       5846       5845  
      5714       5715       5726       5725       5835       5836       5847       5846  
      5715       5716       5727       5726       5836       5837       5848       5847  
      5716       5717       5728       5727       5837       5838       5849       5848  
      5717       5718       5729       5728       5838       5839       5850       5849  
      5718       5719       5730       5729       5839       5840       5851       5850  
      5719       5720       5731       5730       5840       5841       5852       5851  
      5721       5722       5733       5732       5842       5843       5854       5853  
      5722       5723       5734       5733       5843       5844       5855       5854  
      5723       5724       5735       5734       5844       5845       5856       5855  
      5724       5725       5736       5735       5845       5846       5857       5856  
      5725       5726       5737       5736       5846       5847       5858       5857  
      5726       5727       5738       5737       5847       5848       5859       5858  
      5727       5728       5739       5738       5848       5849       5860       5859  
      5728       5729       5740       5739       5849       5850       5861       5860  
      5729       5730       5741       5740       5850       5851       5862       5861  
      5730       5731       5742       5741       5851       5852       5863       5862  
      5732       5733       5744       5743       5853       5854       5865       5864  
      5733       5734       5745       5744       5854       5855       5866       5865  
      5734       5735       5746       5745       5855       5856       5867       5866  
      5735       5736       5747       5746       5856       5857       5868       5867  
      5736       5737       5748       5747       5857       5858       5869       5868  
      5737       5738       5749       5748       5858       5859       5870       5869  
      5738       5739       5750       5749       5859       5860       5871       5870  
      5739       5740       5751       5750       5860       5861       5872       5871  
      5740       5741       5752       5751       5861       5862       5873       5872  
      5741       5742       5753       5752       5862       5863       5874       5873  
      5743       5744       5755       5754       5864       5865       5876       5875  
      5744       5745       5756       5755       5865       5866       5877       5876  
      5745       5746       5757       5756       5866       5867       5878       5877  
      5746       5747       5758       5757       5867       5868       5879       5878  
      5747       5748       5759       5758       5868       5869       5880       5879  
      5748       5749       5760       5759       5869       5870       5881       5880  
      5749       5750       5761       5760       5870       5871       5882       5881  
      5750       5751       5762       5761       5871       5872       5883       5882  
      5751       5752       5763       5762       5872       5873       5884       5883  
      5752       5753       5764       5763       5873       5874       5885       5884  
      5754       5755       5766       5765       5875       5876       5887       5886  
      5755       5756       5767       5766       5876       5877       5888       5887  
      5756       5757       5768       5767       5877       5878       5889       5888  
      5757       5758       5769       5768       5878       5879       5890       5889  
      5758       5759       5770       5769       5879       5880       5891       5890  
      5759       5760       5771       5770       5880       5881       5892       5891  
      5760       5761       5772       5771       5881       5882       5893       5892  
      5761       5762       5773       5772       5882       5883       5894       5893  
      5762       5763       5774       5773       5883       5884       5895       5894  
      5763       5764       5775       5774       5884       5885       5896       5895  
      5765       5766       5777       5776       5886       5887       5898       5897  
      5766       5767       5778       5777       5887       5888       5899       5898  
      5767       5768       5779       5778       5888       5889       5900       5899  
      5768       5769       5780       5779       5889       5890       5901       5900  
      5769       5770       5781       5780       5890       5891       5902       5901  
      5770       5771       5782       5781       5891       5892       5903       5902  
      5771       5772       5783       5782       5892       5893       5904       5903  
      5772       5773       5784       5783       5893       5894       5905       5904  
      5773       5774       5785       5784       5894       5895       5906       5905  
      5774       5775       5786       5785       5895       5896       5907       5906  
      5776       5777       5788       5787       5897       5898       5909       5908  
      5777       5778       5789       5788       5898       5899       5910       5909  
      5778       5779       5790       5789       5899       5900       5911       5910  
      5779       5780       5791       5790       5900       5901       5912       5911  
      5780       5781       5792       5791       5901       5902       5913       5912  
      5781       5782       5793       5792       5902       5903       5914       5913  
      5782       5783       5794       5793       5903       5904       5915       5914  
      5783       5784       5795       5794       5904       5905       5916       5915  
      5784       5785       5796       5795       5905       5906       5917       5916  
      5785       5786       5797       5796       5906       5907       5918       5917  
      5787       5788       5799       5798       5908       5909       5920       5919  
      5788       5789       5800       5799       5909       5910       5921       5920  
      5789       5790       5801       5800       5910       5911       5922       5921  
      5790       5791       5802       5801       5911       5912       5923       5922  
      5791       5792       5803       5802       5912       5913       5924       5923  
      5792       5793       5804       5803       5913       5914       5925       5924  
      5793       5794       5805       5804       5914       5915       5926       5925  
      5794       5795       5806       5805       5915       5916       5927       5926  
      5795       5796       5807       5806       5916       5917       5928       5927  
      5796       5797       5808       5807       5917       5918       5929       5928  
      5809       5810       5821       5820       5930       5931       5942       5941  
      5810       5811       5822       5821       5931       5932       5943       5942  
      5811       5812       5823       5822       5932       5933       5944       5943  
      5812       5813       5824       5823       5933       5934       5945       5944  
      5813       5814       5825       5824       5934       5935       5946       5945  
      5814       5815       5826       5825       5935       5936       5947       5946  
      5815       5816       5827       5826       5936       5937       5948       5947  
      5816       5817       5828       5827       5937       5938       5949       5948  
      5817       5818       5829       5828       5938       5939       5950       5949  
      5818       5819       5830       5829       5939       5940       5951       5950  
      5820       5821       5832       5831       5941       5942       5953       5952  
      5821       5822       5833       5832       5942       5943       5954       5953  
      5822       5823       5834       5833       5943       5944       5955       5954  
      5823       5824       5835       5834       5944       5945       5956       5955  
      5824       5825       5836       5835       5945       5946       5957       5956  
      5825       5826       5837       5836       5946       5947       5958       5957  
      5826       5827       5838       5837       5947       5948       5959       5958  
      5827       5828       5839       5838       5948       5949       5960       5959  
      5828       5829       5840       5839       5949       5950       5961       5960  
      5829       5830       5841       5840       5950       5951       5962       5961  
      5831       5832       5843       5842       5952       5953       5964       5963  
      5832       5833       5844       5843       5953       5954       5965       5964  
      5833       5834       5845       5844       5954       5955       5966       5965  
      5834       5835       5846       5845       5955       5956       5967       5966  
      5835       5836       5847       5846       5956       5957       5968       5967  
      5836       5837       5848       5847       5957       5958       5969       5968  
      5837       5838       5849       5848       5958       5959       5970       5969  
      5838       5839       5850       5849       5959       5960       5971       5970  
      5839       5840       5851       5850       5960       5961       5972       5971  
      5840       5841       5852       5851       5961       5962       5973       5972  
      5842       5843       5854       5853       5963       5964       5975       5974  
      5843       5844       5855       5854       5964       5965       5976       5975  
      5844       5845       5856       5855       5965       5966       5977       5976  
      5845       5846       5857       5856       5966       5967       5978       5977  
      5846       5847       5858       5857       5967       5968       5979       5978  
      5847       5848       5859       5858       5968       5969       5980       5979  
      5848       5849       5860       5859       5969       5970       5981       5980  
      5849       5850       5861       5860       5970       5971       5982       5981  
      5850       5851       5862       5861       5971       5972       5983       5982  
      5851       5852       5863       5862       5972       5973       5984       5983  
      5853       5854       5865       5864       5974       5975       5986       5985  
      5854       5855       5866       5865       5975       5976       5987       5986  
      5855       5856       5867       5866       5976       5977       5988       5987  
      5856       5857       5868       5867       5977       5978       5989       5988  
      5857       5858       5869       5868       5978       5979       5990       5989  
      5858       5859       5870       5869       5979       5980       5991       5990  
      5859       5860       5871       5870       5980       5981       5992       5991  
      5860       5861       5872       5871       5981       5982       5993       5992  
      5861       5862       5873       5872       5982       5983       5994       5993  
      5862       5863       5874       5873       5983       5984       5995       5994  
      5864       5865       5876       5875       5985       5986       5997       5996  
      5865       5866       5877       5876       5986       5987       5998       5997  
      5866       5867       5878       5877       5987       5988       5999       5998  
      5867       5868       5879       5878       5988       5989       6000       5999  
      5868       5869       5880       5879       5989       5990       6001       6000  
      5869       5870       5881       5880       5990       5991       6002       6001  
      5870       5871       5882       5881       5991       5992       6003       6002  
      5871       5872       5883       5882       5992       5993       6004       6003  
      5872       5873       5884       5883       5993       5994       6005       6004  
      5873       5874       5885       5884       5994       5995       6006       6005  
      5875       5876       5887       5886       5996       5997       6008       6007  
      5876       5877       5888       5887       5997       5998       6009       6008  
      5877       5878       5889       5888       5998       5999       6010       6009  
      5878       5879       5890       5889       5999       6000       6011       6010  
      5879       5880       5891       5890       6000       6001       6012       6011  
      5880       5881       5892       5891       6001       6002       6013       6012  
      5881       5882       5893       5892       6002       6003       6014       6013  
      5882       5883       5894       5893       6003       6004       6015       6014  
      5883       5884       5895       5894       6004       6005       6016       6015  
      5884       5885       5896       5895       6005       6006       6017       6016  
      5886       5887       5898       5897       6007       6008       6019       6018  
      5887       5888       5899       5898       6008       6009       6020       6019  
      5888       5889       5900       5899       6009       6010       6021       6020  
      5889       5890       5901       5900       6010       6011       6022       6021  
      5890       5891       5902       5901       6011       6012       6023       6022  
      5891       5892       5903       5902       6012       6013       6024       6023  
      5892       5893       5904       5903       6013       6014       6025       6024  
      5893       5894       5905       5904       6014       6015       6026       6025  
      5894       5895       5906       5905       6015       6016       6027       6026  
      5895       5896       5907       5906       6016       6017       6028       6027  
      5897       5898       5909       5908       6018       6019       6030       6029  
      5898       5899       5910       5909       6019       6020       6031       6030  
      5899       5900       5911       5910       6020       6021       6032       6031  
      5900       5901       5912       5911       6021       6022       6033       6032  
      5901       5902       5913       5912       6022       6023       6034       6033  
      5902       5903       5914       5913       6023       6024       6035       6034  
      5903       5904       5915       5914       6024       6025       6036       6035  
      5904       5905       5916       5915       6025       6026       6037       6036  
      5905       5906       5917       5916       6026       6027       6038       6037  
      5906       5907       5918       5917       6027       6028       6039       6038  
      5908       5909       5920       5919       6029       6030       6041       6040  
      5909       5910       5921       5920       6030       6031       6042       6041  
      5910       5911       5922       5921       6031       6032       6043       6042  
      5911       5912       5923       5922       6032       6033       6044       6043  
      5912       5913       5924       5923       6033       6034       6045       6044  
      5913       5914       5925       5924       6034       6035       6046       6045  
      5914       5915       5926       5925       6035       6036       6047       6046  
      5915       5916       5927       5926       6036       6037       6048       6047  
      5916       5917       5928       5927       6037       6038       6049       6048  
      5917       5918       5929       5928       6038       6039       6050       6049  
      5930       5931       5942       5941       6051       6052       6063       6062  
      5931       5932       5943       5942       6052       6053       6064       6063  
      5932       5933       5944       5943       6053       6054       6065       6064  
      5933       5934       5945       5944       6054       6055       6066       6065  
      5934       5935       5946       5945       6055       6056       6067       6066  
      5935       5936       5947       5946       6056       6057       6068       6067  
      5936       5937       5948       5947       6057       6058       6069       6068  
      5937       5938       5949       5948       6058       6059       6070       6069  
      5938       5939       5950       5949       6059       6060       6071       6070  
      5939       5940       5951       5950       6060       6061       6072       6071  
      5941       5942       5953       5952       6062       6063       6074       6073  
      5942       5943       5954       5953       6063       6064       6075       6074  
      5943       5944       5955       5954       6064       6065       6076       6075  
      5944       5945       5956       5955       6065       6066       6077       6076  
      5945       5946       5957       5956       6066       6067       6078       6077  
      5946       5947       5958       5957       6067       6068       6079       6078  
      5947       5948       5959       5958       6068       6069       6080       6079  
      5948       5949       5960       5959       6069       6070       6081       6080  
      5949       5950       5961       5960       6070       6071       6082       6081  
      5950       5951       5962       5961       6071       6072       6083       6082  
      5952       5953       5964       5963       6073       6074       6085       6084  
      5953       5954       5965       5964       6074       6075       6086       6085  
      5954       5955       5966       5965       6075       6076       6087       6086  
      5955       5956       5967       5966       6076       6077       6088       6087  
      5956       5957       5968       5967       6077       6078       6089       6088  
      5957       5958       5969       5968       6078       6079       6090       6089  
      5958       5959       5970       5969       6079       6080       6091       6090  
      5959       5960       5971       5970       6080       6081       6092       6091  
      5960       5961       5972       5971       6081       6082       6093       6092  
      5961       5962       5973       5972       6082       6083       6094       6093  
      5963       5964       5975       5974       6084       6085       6096       6095  
      5964       5965       5976       5975       6085       6086       6097       6096  
      5965       5966       5977       5976       6086       6087       6098       6097  
      5966       5967       5978       5977       6087       6088       6099       6098  
      5967       5968       5979       5978       6088       6089       6100       6099  
      5968       5969       5980       5979       6089       6090       6101       6100  
      5969       5970       5981       5980       6090       6091       6102       6101  
      5970       5971       5982       5981       6091       6092       6103       6102  
      5971       5972       5983       5982       6092       6093       6104       6103  
      5972       5973       5984       5983       6093       6094       6105       6104  
      5974       5975       5986       5985       6095       6096       6107       6106  
      5975       5976       5987       5986       6096       6097       6108       6107  
      5976       5977       5988       5987       6097       6098       6109       6108  
      5977       5978       5989       5988       6098       6099       6110       6109  
      5978       5979       5990       5989       6099       6100       6111       6110  
      5979       5980       5991       5990       6100       6101       6112       6111  
      5980       5981       5992       5991       6101       6102       6113       6112  
      5981       5982       5993       5992       6102       6103       6114       6113  
      5982       5983       5994       5993       6103       6104       6115       6114  
      5983       5984       5995       5994       6104       6105       6116       6115  
      5985       5986       5997       5996       6106       6107       6118       6117  
      5986       5987       5998       5997       6107       6108       6119       6118  
      5987       5988       5999       5998       6108       6109       6120       6119  
      5988       5989       6000       5999       6109       6110       6121       6120  
      5989       5990       6001       6000       6110       6111       6122       6121  
      5990       5991       6002       6001       6111       6112       6123       6122  
      5991       5992       6003       6002       6112       6113       6124       6123  
      5992       5993       6004       6003       6113       6114       6125       6124  
      5993       5994       6005       6004       6114       6115       6126       6125  
      5994       5995       6006       6005       6115       6116       6127       6126  
      5996       5997       6008       6007       6117       6118       6129       6128  
      5997       5998       6009       6008       6118       6119       6130       6129  
      5998       5999       6010       6009       6119       6120       6131       6130  
      5999       6000       6011       6010       6120       6121       6132       6131  
      6000       6001       6012       6011       6121       6122       6133       6132  
      6001       6002       6013       6012       6122       6123       6134       6133  
      6002       6003       6014       6013       6123       6124       6135       6134  
      6003       6004       6015       6014       6124       6125       6136       6135  
      6004       6005       6016       6015       6125       6126       6137       6136  
      6005       6006       6017       6016       6126       6127       6138       6137  
      6007       6008       6019       6018       6128       6129       6140       6139  
      6008       6009       6020       6019       6129       6130       6141       6140  
      6009       6010       6021       6020       6130       6131       6142       6141  
      6010       6011       6022       6021       6131       6132       6143       6142  
      6011       6012       6023       6022       6132       6133       6144       6143  
      6012       6013       6024       6023       6133       6134       6145       6144  
      6013       6014       6025       6024       6134       6135       6146       6145  
      6014       6015       6026       6025       6135       6136       6147       6146  
      6015       6016       6027       6026       6136       6137       6148       6147  
      6016       6017       6028       6027       6137       6138       6149       6148  
      6018       6019       6030       6029       6139       6140       6151       6150  
      6019       6020       6031       6030       6140       6141       6152       6151  
      6020       6021       6032       6031       6141       6142       6153       6152  
      6021       6022       6033       6032       6142       6143       6154       6153  
      6022       6023       6034       6033       6143       6144       6155       6154  
      6023       6024       6035       6034       6144       6145       6156       6155  
      6024       6025       6036       6035       6145       6146       6157       6156  
      6025       6026       6037       6036       6146       6147       6158       6157  
      6026       6027       6038       6037       6147       6148       6159       6158  
      6027       6028       6039       6038       6148       6149       6160       6159  
      6029       6030       6041       6040       6150       6151       6162       6161  
      6030       6031       6042       6041       6151       6152       6163       6162  
      6031       6032       6043       6042       6152       6153       6164       6163  
      6032       6033       6044       6043       6153       6154       6165       6164  
      6033       6034       6045       6044       6154       6155       6166       6165  
      6034       6035       6046       6045       6155       6156       6167       6166  
      6035       6036       6047       6046       6156       6157       6168       6167  
      6036       6037       6048       6047       6157       6158       6169       6168  
      6037       6038       6049       6048       6158       6159       6170       6169  
      6038       6039       6050       6049       6159       6160       6171       6170  
      6051       6052       6063       6062       6172       6173       6184       6183  
      6052       6053       6064       6063       6173       6174       6185       6184  
      6053       6054       6065       6064       6174       6175       6186       6185  
      6054       6055       6066       6065       6175       6176       6187       6186  
      6055       6056       6067       6066       6176       6177       6188       6187  
      6056       6057       6068       6067       6177       6178       6189       6188  
      6057       6058       6069       6068       6178       6179       6190       6189  
      6058       6059       6070       6069       6179       6180       6191       6190  
      6059       6060       6071       6070       6180       6181       6192       6191  
      6060       6061       6072       6071       6181       6182       6193       6192  
      6062       6063       6074       6073       6183       6184       6195       6194  
      6063       6064       6075       6074       6184       6185       6196       6195  
      6064       6065       6076       6075       6185       6186       6197       6196  
      6065       6066       6077       6076       6186       6187       6198       6197  
      6066       6067       6078       6077       6187       6188       6199       6198  
      6067       6068       6079       6078       6188       6189       6200       6199  
      6068       6069       6080       6079       6189       6190       6201       6200  
      6069       6070       6081       6080       6190       6191       6202       6201  
      6070       6071       6082       6081       6191       6192       6203       6202  
      6071       6072       6083       6082       6192       6193       6204       6203  
      6073       6074       6085       6084       6194       6195       6206       6205  
      6074       6075       6086       6085       6195       6196       6207       6206  
      6075       6076       6087       6086       6196       6197       6208       6207  
      6076       6077       6088       6087       6197       6198       6209       6208  
      6077       6078       6089       6088       6198       6199       6210       6209  
      6078       6079       6090       6089       6199       6200       6211       6210  
      6079       6080       6091       6090       6200       6201       6212       6211  
      6080       6081       6092       6091       6201       6202       6213       6212  
      6081       6082       6093       6092       6202       6203       6214       6213  
      6082       6083       6094       6093       6203       6204       6215       6214  
      6084       6085       6096       6095       6205       6206       6217       6216  
      6085       6086       6097       6096       6206       6207       6218       6217  
      6086       6087       6098       6097       6207       6208       6219       6218  
      6087       6088       6099       6098       6208       6209       6220       6219  
      6088       6089       6100       6099       6209       6210       6221       6220  
      6089       6090       6101       6100       6210       6211       6222       6221  
      6090       6091       6102       6101       6211       6212       6223       6222  
      6091       6092       6103       6102       6212       6213       6224       6223  
      6092       6093       6104       6103       6213       6214       6225       6224  
      6093       6094       6105       6104       6214       6215       6226       6225  
      6095       6096       6107       6106       6216       6217       6228       6227  
      6096       6097       6108       6107       6217       6218       6229       6228  
      6097       6098       6109       6108       6218       6219       6230       6229  
      6098       6099       6110       6109       6219       6220       6231       6230  
      6099       6100       6111       6110       6220       6221       6232       6231  
      6100       6101       6112       6111       6221       6222       6233       6232  
      6101       6102       6113       6112       6222       6223       6234       6233  
      6102       6103       6114       6113       6223       6224       6235       6234  
      6103       6104       6115       6114       6224       6225       6236       6235  
      6104       6105       6116       6115       6225       6226       6237       6236  
      6106       6107       6118       6117       6227       6228       6239       6238  
      6107       6108       6119       6118       6228       6229       6240       6239  
      6108       6109       6120       6119       6229       6230       6241       6240  
      6109       6110       6121       6120       6230       6231       6242       6241  
      6110       6111       6122       6121       6231       6232       6243       6242  
      6111       6112       6123       6122       6232       6233       6244       6243  
      6112       6113       6124       6123       6233       6234       6245       6244  
      6113       6114       6125       6124       6234       6235       6246       6245  
      6114       6115       6126       6125       6235       6236       6247       6246  
      6115       6116       6127       6126       6236       6237       6248       6247  
      6117       6118       6129       6128       6238       6239       6250       6249  
      6118       6119       6130       6129       6239       6240       6251       6250  
      6119       6120       6131       6130       6240       6241       6252       6251  
      6120       6121       6132       6131       6241       6242       6253       6252  
      6121       6122       6133       6132       6242       6243       6254       6253  
      6122       6123       6134       6133       6243       6244       6255       6254  
      6123       6124       6135       6134       6244       6245       6256       6255  
      6124       6125       6136       6135       6245       6246       6257       6256  
      6125       6126       6137       6136       6246       6247       6258       6257  
      6126       6127       6138       6137       6247       6248       6259       6258  
      6128       6129       6140       6139       6249       6250       6261       6260  
      6129       6130       6141       6140       6250       6251       6262       6261  
      6130       6131       6142       6141       6251       6252       6263       6262  
      6131       6132       6143       6142       6252       6253       6264       6263  
      6132       6133       6144       6143       6253       6254       6265       6264  
      6133       6134       6145       6144       6254       6255       6266       6265  
      6134       6135       6146       6145       6255       6256       6267       6266  
      6135       6136       6147       6146       6256       6257       6268       6267  
      6136       6137       6148       6147       6257       6258       6269       6268  
      6137       6138       6149       6148       6258       6259       6270       6269  
      6139       6140       6151       6150       6260       6261       6272       6271  
      6140       6141       6152       6151       6261       6262       6273       6272  
      6141       6142       6153       6152       6262       6263       6274       6273  
      6142       6143       6154       6153       6263       6264       6275       6274  
      6143       6144       6155       6154       6264       6265       6276       6275  
      6144       6145       6156       6155       6265       6266       6277       6276  
      6145       6146       6157       6156       6266       6267       6278       6277  
      6146       6147       6158       6157       6267       6268       6279       6278  
      6147       6148       6159       6158       6268       6269       6280       6279  
      6148       6149       6160       6159       6269       6270       6281       6280  
      6150       6151       6162       6161       6271       6272       6283       6282  
      6151       6152       6163       6162       6272       6273       6284       6283  
      6152       6153       6164       6163       6273       6274       6285       6284  
      6153       6154       6165       6164       6274       6275       6286       6285  
      6154       6155       6166       6165       6275       6276       6287       6286  
      6155       6156       6167       6166       6276       6277       6288       6287  
      6156       6157       6168       6167       6277       6278       6289       6288  
      6157       6158       6169       6168       6278       6279       6290       6289  
      6158       6159       6170       6169       6279       6280       6291       6290  
      6159       6160       6171       6170       6280       6281       6292       6291  
      6172       6173       6184       6183       6293       6294       6305       6304  
      6173       6174       6185       6184       6294       6295       6306       6305  
      6174       6175       6186       6185       6295       6296       6307       6306  
      6175       6176       6187       6186       6296       6297       6308       6307  
      6176       6177       6188       6187       6297       6298       6309       6308  
      6177       6178       6189       6188       6298       6299       6310       6309  
      6178       6179       6190       6189       6299       6300       6311       6310  
      6179       6180       6191       6190       6300       6301       6312       6311  
      6180       6181       6192       6191       6301       6302       6313       6312  
      6181       6182       6193       6192       6302       6303       6314       6313  
      6183       6184       6195       6194       6304       6305       6316       6315  
      6184       6185       6196       6195       6305       6306       6317       6316  
      6185       6186       6197       6196       6306       6307       6318       6317  
      6186       6187       6198       6197       6307       6308       6319       6318  
      6187       6188       6199       6198       6308       6309       6320       6319  
      6188       6189       6200       6199       6309       6310       6321       6320  
      6189       6190       6201       6200       6310       6311       6322       6321  
      6190       6191       6202       6201       6311       6312       6323       6322  
      6191       6192       6203       6202       6312       6313       6324       6323  
      6192       6193       6204       6203       6313       6314       6325       6324  
      6194       6195       6206       6205       6315       6316       6327       6326  
      6195       6196       6207       6206       6316       6317       6328       6327  
      6196       6197       6208       6207       6317       6318       6329       6328  
      6197       6198       6209       6208       6318       6319       6330       6329  
      6198       6199       6210       6209       6319       6320       6331       6330  
      6199       6200       6211       6210       6320       6321       6332       6331  
      6200       6201       6212       6211       6321       6322       6333       6332  
      6201       6202       6213       6212       6322       6323       6334       6333  
      6202       6203       6214       6213       6323       6324       6335       6334  
      6203       6204       6215       6214       6324       6325       6336       6335  
      6205       6206       6217       6216       6326       6327       6338       6337  
      6206       6207       6218       6217       6327       6328       6339       6338  
      6207       6208       6219       6218       6328       6329       6340       6339  
      6208       6209       6220       6219       6329       6330       6341       6340  
      6209       6210       6221       6220       6330       6331       6342       6341  
      6210       6211       6222       6221       6331       6332       6343       6342  
      6211       6212       6223       6222       6332       6333       6344       6343  
      6212       6213       6224       6223       6333       6334       6345       6344  
      6213       6214       6225       6224       6334       6335       6346       6345  
      6214       6215       6226       6225       6335       6336       6347       6346  
      6216       6217       6228       6227       6337       6338       6349       6348  
      6217       6218       6229       6228       6338       6339       6350       6349  
      6218       6219       6230       6229       6339       6340       6351       6350  
      6219       6220       6231       6230       6340       6341       6352       6351  
      6220       6221       6232       6231       6341       6342       6353       6352  
      6221       6222       6233       6232       6342       6343       6354       6353  
      6222       6223       6234       6233       6343       6344       6355       6354  
      6223       6224       6235       6234       6344       6345       6356       6355  
      6224       6225       6236       6235       6345       6346       6357       6356  
      6225       6226       6237       6236       6346       6347       6358       6357  
      6227       6228       6239       6238       6348       6349       6360       6359  
      6228       6229       6240       6239       6349       6350       6361       6360  
      6229       6230       6241       6240       6350       6351       6362       6361  
      6230       6231       6242       6241       6351       6352       6363       6362  
      6231       6232       6243       6242       6352       6353       6364       6363  
      6232       6233       6244       6243       6353       6354       6365       6364  
      6233       6234       6245       6244       6354       6355       6366       6365  
      6234       6235       6246       6245       6355       6356       6367       6366  
      6235       6236       6247       6246       6356       6357       6368       6367  
      6236       6237       6248       6247       6357       6358       6369       6368  
      6238       6239       6250       6249       6359       6360       6371       6370  
      6239       6240       6251       6250       6360       6361       6372       6371  
      6240       6241       6252       6251       6361       6362       6373       6372  
      6241       6242       6253       6252       6362       6363       6374       6373  
      6242       6243       6254       6253       6363       6364       6375       6374  
      6243       6244       6255       6254       6364       6365       6376       6375  
      6244       6245       6256       6255       6365       6366       6377       6376  
      6245       6246       6257       6256       6366       6367       6378       6377  
      6246       6247       6258       6257       6367       6368       6379       6378  
      6247       6248       6259       6258       6368       6369       6380       6379  
      6249       6250       6261       6260       6370       6371       6382       6381  
      6250       6251       6262       6261       6371       6372       6383       6382  
      6251       6252       6263       6262       6372       6373       6384       6383  
      6252       6253       6264       6263       6373       6374       6385       6384  
      6253       6254       6265       6264       6374       6375       6386       6385  
      6254       6255       6266       6265       6375       6376       6387       6386  
      6255       6256       6267       6266       6376       6377       6388       6387  
      6256       6257       6268       6267       6377       6378       6389       6388  
      6257       6258       6269       6268       6378       6379       6390       6389  
      6258       6259       6270       6269       6379       6380       6391       6390  
      6260       6261       6272       6271       6381       6382       6393       6392  
      6261       6262       6273       6272       6382       6383       6394       6393  
      6262       6263       6274       6273       6383       6384       6395       6394  
      6263       6264       6275       6274       6384       6385       6396       6395  
      6264       6265       6276       6275       6385       6386       6397       6396  
      6265       6266       6277       6276       6386       6387       6398       6397  
      6266       6267       6278       6277       6387       6388       6399       6398  
      6267       6268       6279       6278       6388       6389       6400       6399  
      6268       6269       6280       6279       6389       6390       6401       6400  
      6269       6270       6281       6280       6390       6391       6402       6401  
      6271       6272       6283       6282       6392       6393       6404       6403  
      6272       6273       6284       6283       6393       6394       6405       6404  
      6273       6274       6285       6284       6394       6395       6406       6405  
      6274       6275       6286       6285       6395       6396       6407       6406  
      6275       6276       6287       6286       6396       6397       6408       6407  
      6276       6277       6288       6287       6397       6398       6409       6408  
      6277       6278       6289       6288       6398       6399       6410       6409  
      6278       6279       6290       6289       6399       6400       6411       6410  
      6279       6280       6291       6290       6400       6401       6412       6411  
      6280       6281       6292       6291       6401       6402       6413       6412  
      6293       6294       6305       6304       6414       6415       6426       6425  
      6294       6295       6306       6305       6415       6416       6427       6426  
      6295       6296       6307       6306       6416       6417       6428       6427  
      6296       6297       6308       6307       6417       6418       6429       6428  
      6297       6298       6309       6308       6418       6419       6430       6429  
      6298       6299       6310       6309       6419       6420       6431       6430  
      6299       6300       6311       6310       6420       6421       6432       6431  
      6300       6301       6312       6311       6421       6422       6433       6432  
      6301       6302       6313       6312       6422       6423       6434       6433  
      6302       6303       6314       6313       6423       6424       6435       6434  
      6304       6305       6316       6315       6425       6426       6437       6436  
      6305       6306       6317       6316       6426       6427       6438       6437  
      6306       6307       6318       6317       6427       6428       6439       6438  
      6307       6308       6319       6318       6428       6429       6440       6439  
      6308       6309       6320       6319       6429       6430       6441       6440  
      6309       6310       6321       6320       6430       6431       6442       6441  
      6310       6311       6322       6321       6431       6432       6443       6442  
      6311       6312       6323       6322       6432       6433       6444       6443  
      6312       6313       6324       6323       6433       6434       6445       6444  
      6313       6314       6325       6324       6434       6435       6446       6445  
      6315       6316       6327       6326       6436       6437       6448       6447  
      6316       6317       6328       6327       6437       6438       6449       6448  
      6317       6318       6329       6328       6438       6439       6450       6449  
      6318       6319       6330       6329       6439       6440       6451       6450  
      6319       6320       6331       6330       6440       6441       6452       6451  
      6320       6321       6332       6331       6441       6442       6453       6452  
      6321       6322       6333       6332       6442       6443       6454       6453  
      6322       6323       6334       6333       6443       6444       6455       6454  
      6323       6324       6335       6334       6444       6445       6456       6455  
      6324       6325       6336       6335       6445       6446       6457       6456  
      6326       6327       6338       6337       6447       6448       6459       6458  
      6327       6328       6339       6338       6448       6449       6460       6459  
      6328       6329       6340       6339       6449       6450       6461       6460  
      6329       6330       6341       6340       6450       6451       6462       6461  
      6330       6331       6342       6341       6451       6452       6463       6462  
      6331       6332       6343       6342       6452       6453       6464       6463  
      6332       6333       6344       6343       6453       6454       6465       6464  
      6333       6334       6345       6344       6454       6455       6466       6465  
      6334       6335       6346       6345       6455       6456       6467       6466  
      6335       6336       6347       6346       6456       6457       6468       6467  
      6337       6338       6349       6348       6458       6459       6470       6469  
      6338       6339       6350       6349       6459       6460       6471       6470  
      6339       6340       6351       6350       6460       6461       6472       6471  
      6340       6341       6352       6351       6461       6462       6473       6472  
      6341       6342       6353       6352       6462       6463       6474       6473  
      6342       6343       6354       6353       6463       6464       6475       6474  
      6343       6344       6355       6354       6464       6465       6476       6475  
      6344       6345       6356       6355       6465       6466       6477       6476  
      6345       6346       6357       6356       6466       6467       6478       6477  
      6346       6347       6358       6357       6467       6468       6479       6478  
      6348       6349       6360       6359       6469       6470       6481       6480  
      6349       6350       6361       6360       6470       6471       6482       6481  
      6350       6351       6362       6361       6471       6472       6483       6482  
      6351       6352       6363       6362       6472       6473       6484       6483  
      6352       6353       6364       6363       6473       6474       6485       6484  
      6353       6354       6365       6364       6474       6475       6486       6485  
      6354       6355       6366       6365       6475       6476       6487       6486  
      6355       6356       6367       6366       6476       6477       6488       6487  
      6356       6357       6368       6367       6477       6478       6489       6488  
      6357       6358       6369       6368       6478       6479       6490       6489  
      6359       6360       6371       6370       6480       6481       6492       6491  
      6360       6361       6372       6371       6481       6482       6493       6492  
      6361       6362       6373       6372       6482       6483       6494       6493  
      6362       6363       6374       6373       6483       6484       6495       6494  
      6363       6364       6375       6374       6484       6485       6496       6495  
      6364       6365       6376       6375       6485       6486       6497       6496  
      6365       6366       6377       6376       6486       6487       6498       6497  
      6366       6367       6378       6377       6487       6488       6499       6498  
      6367       6368       6379       6378       6488       6489       6500       6499  
      6368       6369       6380       6379       6489       6490       6501       6500  
      6370       6371       6382       6381       6491       6492       6503       6502  
      6371       6372       6383       6382       6492       6493       6504       6503  
      6372       6373       6384       6383       6493       6494       6505       6504  
      6373       6374       6385       6384       6494       6495       6506       6505  
      6374       6375       6386       6385       6495       6496       6507       6506  
      6375       6376       6387       6386       6496       6497       6508       6507  
      6376       6377       6388       6387       6497       6498       6509       6508  
      6377       6378       6389       6388       6498       6499       6510       6509  
      6378       6379       6390       6389       6499       6500       6511       6510  
      6379       6380       6391       6390       6500       6501       6512       6511  
      6381       6382       6393       6392       6502       6503       6514       6513  
      6382       6383       6394       6393       6503       6504       6515       6514  
      6383       6384       6395       6394       6504       6505       6516       6515  
      6384       6385       6396       6395       6505       6506       6517       6516  
      6385       6386       6397       6396       6506       6507       6518       6517  
      6386       6387       6398       6397       6507       6508       6519       6518  
      6387       6388       6399       6398       6508       6509       6520       6519  
      6388       6389       6400       6399       6509       6510       6521       6520  
      6389       6390       6401       6400       6510       6511       6522       6521  
      6390       6391       6402       6401       6511       6512       6523       6522  
      6392       6393       6404       6403       6513       6514       6525       6524  
      6393       6394       6405       6404       6514       6515       6526       6525  
      6394       6395       6406       6405       6515       6516       6527       6526  
      6395       6396       6407       6406       6516       6517       6528       6527  
      6396       6397       6408       6407       6517       6518       6529       6528  
      6397       6398       6409       6408       6518       6519       6530       6529  
      6398       6399       6410       6409       6519       6520       6531       6530  
      6399       6400       6411       6410       6520       6521       6532       6531  
      6400       6401       6412       6411       6521       6522       6533       6532  
      6401       6402       6413       6412       6522       6523       6534       6533  
      6414       6415       6426       6425       6535       6536       6547       6546  
      6415       6416       6427       6426       6536       6537       6548       6547  
      6416       6417       6428       6427       6537       6538       6549       6548  
      6417       6418       6429       6428       6538       6539       6550       6549  
      6418       6419       6430       6429       6539       6540       6551       6550  
      6419       6420       6431       6430       6540       6541       6552       6551  
      6420       6421       6432       6431       6541       6542       6553       6552  
      6421       6422       6433       6432       6542       6543       6554       6553  
      6422       6423       6434       6433       6543       6544       6555       6554  
      6423       6424       6435       6434       6544       6545       6556       6555  
      6425       6426       6437       6436       6546       6547       6558       6557  
      6426       6427       6438       6437       6547       6548       6559       6558  
      6427       6428       6439       6438       6548       6549       6560       6559  
      6428       6429       6440       6439       6549       6550       6561       6560  
      6429       6430       6441       6440       6550       6551       6562       6561  
      6430       6431       6442       6441       6551       6552       6563       6562  
      6431       6432       6443       6442       6552       6553       6564       6563  
      6432       6433       6444       6443       6553       6554       6565       6564  
      6433       6434       6445       6444       6554       6555       6566       6565  
      6434       6435       6446       6445       6555       6556       6567       6566  
      6436       6437       6448       6447       6557       6558       6569       6568  
      6437       6438       6449       6448       6558       6559       6570       6569  
      6438       6439       6450       6449       6559       6560       6571       6570  
      6439       6440       6451       6450       6560       6561       6572       6571  
      6440       6441       6452       6451       6561       6562       6573       6572  
      6441       6442       6453       6452       6562       6563       6574       6573  
      6442       6443       6454       6453       6563       6564       6575       6574  
      6443       6444       6455       6454       6564       6565       6576       6575  
      6444       6445       6456       6455       6565       6566       6577       6576  
      6445       6446       6457       6456       6566       6567       6578       6577  
      6447       6448       6459       6458       6568       6569       6580       6579  
      6448       6449       6460       6459       6569       6570       6581       6580  
      6449       6450       6461       6460       6570       6571       6582       6581  
      6450       6451       6462       6461       6571       6572       6583       6582  
      6451       6452       6463       6462       6572       6573       6584       6583  
      6452       6453       6464       6463       6573       6574       6585       6584  
      6453       6454       6465       6464       6574       6575       6586       6585  
      6454       6455       6466       6465       6575       6576       6587       6586  
      6455       6456       6467       6466       6576       6577       6588       6587  
      6456       6457       6468       6467       6577       6578       6589       6588  
      6458       6459       6470       6469       6579       6580       6591       6590  
      6459       6460       6471       6470       6580       6581       6592       6591  
      6460       6461       6472       6471       6581       6582       6593       6592  
      6461       6462       6473       6472       6582       6583       6594       6593  
      6462       6463       6474       6473       6583       6584       6595       6594  
      6463       6464       6475       6474       6584       6585       6596       6595  
      6464       6465       6476       6475       6585       6586       6597       6596  
      6465       6466       6477       6476       6586       6587       6598       6597  
      6466       6467       6478       6477       6587       6588       6599       6598  
      6467       6468       6479       6478       6588       6589       6600       6599  
      6469       6470       6481       6480       6590       6591       6602       6601  
      6470       6471       6482       6481       6591       6592       6603       6602  
      6471       6472       6483       6482       6592       6593       6604       6603  
      6472       6473       6484       6483       6593       6594       6605       6604  
      6473       6474       6485       6484       6594       6595       6606       6605  
      6474       6475       6486       6485       6595       6596       6607       6606  
      6475       6476       6487       6486       6596       6597       6608       6607  
      6476       6477       6488       6487       6597       6598       6609       6608  
      6477       6478       6489       6488       6598       6599       6610       6609  
      6478       6479       6490       6489       6599       6600       6611       6610  
      6480       6481       6492       6491       6601       6602       6613       6612  
      6481       6482       6493       6492       6602       6603       6614       6613  
      6482       6483       6494       6493       6603       6604       6615       6614  
      6483       6484       6495       6494       6604       6605       6616       6615  
      6484       6485       6496       6495       6605       6606       6617       6616  
      6485       6486       6497       6496       6606       6607       6618       6617  
      6486       6487       6498       6497       6607       6608       6619       6618  
      6487       6488       6499       6498       6608       6609       6620       6619  
      6488       6489       6500       6499       6609       6610       6621       6620  
      6489       6490       6501       6500       6610       6611       6622       6621  
      6491       6492       6503       6502       6612       6613       6624       6623  
      6492       6493       6504       6503       6613       6614       6625       6624  
      6493       6494       6505       6504       6614       6615       6626       6625  
      6494       6495       6506       6505       6615       6616       6627       6626  
      6495       6496       6507       6506       6616       6617       6628       6627  
      6496       6497       6508       6507       6617       6618       6629       6628  
      6497       6498       6509       6508       6618       6619       6630       6629  
      6498       6499       6510       6509       6619       6620       6631       6630  
      6499       6500       6511       6510       6620       6621       6632       6631  
      6500       6501       6512       6511       6621       6622       6633       6632  
      6502       6503       6514       6513       6623       6624       6635       6634  
      6503       6504       6515       6514       6624       6625       6636       6635  
      6504       6505       6516       6515       6625       6626       6637       6636  
      6505       6506       6517       6516       6626       6627       6638       6637  
      6506       6507       6518       6517       6627       6628       6639       6638  
      6507       6508       6519       6518       6628       6629       6640       6639  
      6508       6509       6520       6519       6629       6630       6641       6640  
      6509       6510       6521       6520       6630       6631       6642       6641  
      6510       6511       6522       6521       6631       6632       6643       6642  
      6511       6512       6523       6522       6632       6633       6644       6643  
      6513       6514       6525       6524       6634       6635       6646       6645  
      6514       6515       6526       6525       6635       6636       6647       6646  
      6515       6516       6527       6526       6636       6637       6648       6647  
      6516       6517       6528       6527       6637       6638       6649       6648  
      6517       6518       6529       6528       6638       6639       6650       6649  
      6518       6519       6530       6529       6639       6640       6651       6650  
      6519       6520       6531       6530       6640       6641       6652       6651  
      6520       6521       6532       6531       6641       6642       6653       6652  
      6521       6522       6533       6532       6642       6643       6654       6653  
      6522       6523       6534       6533       6643       6644       6655       6654  
      6535       6536       6547       6546       6656       6657       6668       6667  
      6536       6537       6548       6547       6657       6658       6669       6668  
      6537       6538       6549       6548       6658       6659       6670       6669  
      6538       6539       6550       6549       6659       6660       6671       6670  
      6539       6540       6551       6550       6660       6661       6672       6671  
      6540       6541       6552       6551       6661       6662       6673       6672  
      6541       6542       6553       6552       6662       6663       6674       6673  
      6542       6543       6554       6553       6663       6664       6675       6674  
      6543       6544       6555       6554       6664       6665       6676       6675  
      6544       6545       6556       6555       6665       6666       6677       6676  
      6546       6547       6558       6557       6667       6668       6679       6678  
      6547       6548       6559       6558       6668       6669       6680       6679  
      6548       6549       6560       6559       6669       6670       6681       6680  
      6549       6550       6561       6560       6670       6671       6682       6681  
      6550       6551       6562       6561       6671       6672       6683       6682  
      6551       6552       6563       6562       6672       6673       6684       6683  
      6552       6553       6564       6563       6673       6674       6685       6684  
      6553       6554       6565       6564       6674       6675       6686       6685  
      6554       6555       6566       6565       6675       6676       6687       6686  
      6555       6556       6567       6566       6676       6677       6688       6687  
      6557       6558       6569       6568       6678       6679       6690       6689  
      6558       6559       6570       6569       6679       6680       6691       6690  
      6559       6560       6571       6570       6680       6681       6692       6691  
      6560       6561       6572       6571       6681       6682       6693       6692  
      6561       6562       6573       6572       6682       6683       6694       6693  
      6562       6563       6574       6573       6683       6684       6695       6694  
      6563       6564       6575       6574       6684       6685       6696       6695  
      6564       6565       6576       6575       6685       6686       6697       6696  
      6565       6566       6577       6576       6686       6687       6698       6697  
      6566       6567       6578       6577       6687       6688       6699       6698  
      6568       6569       6580       6579       6689       6690       6701       6700  
      6569       6570       6581       6580       6690       6691       6702       6701  
      6570       6571       6582       6581       6691       6692       6703       6702  
      6571       6572       6583       6582       6692       6693       6704       6703  
      6572       6573       6584       6583       6693       6694       6705       6704  
      6573       6574       6585       6584       6694       6695       6706       6705  
      6574       6575       6586       6585       6695       6696       6707       6706  
      6575       6576       6587       6586       6696       6697       6708       6707  
      6576       6577       6588       6587       6697       6698       6709       6708  
      6577       6578       6589       6588       6698       6699       6710       6709  
      6579       6580       6591       6590       6700       6701       6712       6711  
      6580       6581       6592       6591       6701       6702       6713       6712  
      6581       6582       6593       6592       6702       6703       6714       6713  
      6582       6583       6594       6593       6703       6704       6715       6714  
      6583       6584       6595       6594       6704       6705       6716       6715  
      6584       6585       6596       6595       6705       6706       6717       6716  
      6585       6586       6597       6596       6706       6707       6718       6717  
      6586       6587       6598       6597       6707       6708       6719       6718  
      6587       6588       6599       6598       6708       6709       6720       6719  
      6588       6589       6600       6599       6709       6710       6721       6720  
      6590       6591       6602       6601       6711       6712       6723       6722  
      6591       6592       6603       6602       6712       6713       6724       6723  
      6592       6593       6604       6603       6713       6714       6725       6724  
      6593       6594       6605       6604       6714       6715       6726       6725  
      6594       6595       6606       6605       6715       6716       6727       6726  
      6595       6596       6607       6606       6716       6717       6728       6727  
      6596       6597       6608       6607       6717       6718       6729       6728  
      6597       6598       6609       6608       6718       6719       6730       6729  
      6598       6599       6610       6609       6719       6720       6731       6730  
      6599       6600       6611       6610       6720       6721       6732       6731  
      6601       6602       6613       6612       6722       6723       6734       6733  
      6602       6603       6614       6613       6723       6724       6735       6734  
      6603       6604       6615       6614       6724       6725       6736       6735  
      6604       6605       6616       6615       6725       6726       6737       6736  
      6605       6606       6617       6616       6726       6727       6738       6737  
      6606       6607       6618       6617       6727       6728       6739       6738  
      6607       6608       6619       6618       6728       6729       6740       6739  
      6608       6609       6620       6619       6729       6730       6741       6740  
      6609       6610       6621       6620       6730       6731       6742       6741  
      6610       6611       6622       6621       6731       6732       6743       6742  
      6612       6613       6624       6623       6733       6734       6745       6744  
      6613       6614       6625       6624       6734       6735       6746       6745  
      6614       6615       6626       6625       6735       6736       6747       6746  
      6615       6616       6627       6626       6736       6737       6748       6747  
      6616       6617       6628       6627       6737       6738       6749       6748  
      6617       6618       6629       6628       6738       6739       6750       6749  
      6618       6619       6630       6629       6739       6740       6751       6750  
      6619       6620       6631       6630       6740       6741       6752       6751  
      6620       6621       6632       6631       6741       6742       6753       6752  
      6621       6622       6633       6632       6742       6743       6754       6753  
      6623       6624       6635       6634       6744       6745       6756       6755  
      6624       6625       6636       6635       6745       6746       6757       6756  
      6625       6626       6637       6636       6746       6747       6758       6757  
      6626       6627       6638       6637       6747       6748       6759       6758  
      6627       6628       6639       6638       6748       6749       6760       6759  
      6628       6629       6640       6639       6749       6750       6761       6760  
      6629       6630       6641       6640       6750       6751       6762       6761  
      6630       6631       6642       6641       6751       6752       6763       6762  
      6631       6632       6643       6642       6752       6753       6764       6763  
      6632       6633       6644       6643       6753       6754       6765       6764  
      6634       6635       6646       6645       6755       6756       6767       6766  
      6635       6636       6647       6646       6756       6757       6768       6767  
      6636       6637       6648       6647       6757       6758       6769       6768  
      6637       6638       6649       6648       6758       6759       6770       6769  
      6638       6639       6650       6649       6759       6760       6771       6770  
      6639       6640       6651       6650       6760       6761       6772       6771  
      6640       6641       6652       6651       6761       6762       6773       6772  
      6641       6642       6653       6652       6762       6763       6774       6773  
      6642       6643       6654       6653       6763       6764       6775       6774  
      6643       6644       6655       6654       6764       6765       6776       6775  
      6656       6657       6668       6667       6777       6778       6789       6788  
      6657       6658       6669       6668       6778       6779       6790       6789  
      6658       6659       6670       6669       6779       6780       6791       6790  
      6659       6660       6671       6670       6780       6781       6792       6791  
      6660       6661       6672       6671       6781       6782       6793       6792  
      6661       6662       6673       6672       6782       6783       6794       6793  
      6662       6663       6674       6673       6783       6784       6795       6794  
      6663       6664       6675       6674       6784       6785       6796       6795  
      6664       6665       6676       6675       6785       6786       6797       6796  
      6665       6666       6677       6676       6786       6787       6798       6797  
      6667       6668       6679       6678       6788       6789       6800       6799  
      6668       6669       6680       6679       6789       6790       6801       6800  
      6669       6670       6681       6680       6790       6791       6802       6801  
      6670       6671       6682       6681       6791       6792       6803       6802  
      6671       6672       6683       6682       6792       6793       6804       6803  
      6672       6673       6684       6683       6793       6794       6805       6804  
      6673       6674       6685       6684       6794       6795       6806       6805  
      6674       6675       6686       6685       6795       6796       6807       6806  
      6675       6676       6687       6686       6796       6797       6808       6807  
      6676       6677       6688       6687       6797       6798       6809       6808  
      6678       6679       6690       6689       6799       6800       6811       6810  
      6679       6680       6691       6690       6800       6801       6812       6811  
      6680       6681       6692       6691       6801       6802       6813       6812  
      6681       6682       6693       6692       6802       6803       6814       6813  
      6682       6683       6694       6693       6803       6804       6815       6814  
      6683       6684       6695       6694       6804       6805       6816       6815  
      6684       6685       6696       6695       6805       6806       6817       6816  
      6685       6686       6697       6696       6806       6807       6818       6817  
      6686       6687       6698       6697       6807       6808       6819       6818  
      6687       6688       6699       6698       6808       6809       6820       6819  
      6689       6690       6701       6700       6810       6811       6822       6821  
      6690       6691       6702       6701       6811       6812       6823       6822  
      6691       6692       6703       6702       6812       6813       6824       6823  
      6692       6693       6704       6703       6813       6814       6825       6824  
      6693       6694       6705       6704       6814       6815       6826       6825  
      6694       6695       6706       6705       6815       6816       6827       6826  
      6695       6696       6707       6706       6816       6817       6828       6827  
      6696       6697       6708       6707       6817       6818       6829       6828  
      6697       6698       6709       6708       6818       6819       6830       6829  
      6698       6699       6710       6709       6819       6820       6831       6830  
      6700       6701       6712       6711       6821       6822       6833       6832  
      6701       6702       6713       6712       6822       6823       6834       6833  
      6702       6703       6714       6713       6823       6824       6835       6834  
      6703       6704       6715       6714       6824       6825       6836       6835  
      6704       6705       6716       6715       6825       6826       6837       6836  
      6705       6706       6717       6716       6826       6827       6838       6837  
      6706       6707       6718       6717       6827       6828       6839       6838  
      6707       6708       6719       6718       6828       6829       6840       6839  
      6708       6709       6720       6719       6829       6830       6841       6840  
      6709       6710       6721       6720       6830       6831       6842       6841  
      6711       6712       6723       6722       6832       6833       6844       6843  
      6712       6713       6724       6723       6833       6834       6845       6844  
      6713       6714       6725       6724       6834       6835       6846       6845  
      6714       6715       6726       6725       6835       6836       6847       6846  
      6715       6716       6727       6726       6836       6837       6848       6847  
      6716       6717       6728       6727       6837       6838       6849       6848  
      6717       6718       6729       6728       6838       6839       6850       6849  
      6718       6719       6730       6729       6839       6840       6851       6850  
      6719       6720       6731       6730       6840       6841       6852       6851  
      6720       6721       6732       6731       6841       6842       6853       6852  
      6722       6723       6734       6733       6843       6844       6855       6854  
      6723       6724       6735       6734       6844       6845       6856       6855  
      6724       6725       6736       6735       6845       6846       6857       6856  
      6725       6726       6737       6736       6846       6847       6858       6857  
      6726       6727       6738       6737       6847       6848       6859       6858  
      6727       6728       6739       6738       6848       6849       6860       6859  
      6728       6729       6740       6739       6849       6850       6861       6860  
      6729       6730       6741       6740       6850       6851       6862       6861  
      6730       6731       6742       6741       6851       6852       6863       6862  
      6731       6732       6743       6742       6852       6853       6864       6863  
      6733       6734       6745       6744       6854       6855       6866       6865  
      6734       6735       6746       6745       6855       6856       6867       6866  
      6735       6736       6747       6746       6856       6857       6868       6867  
      6736       6737       6748       6747       6857       6858       6869       6868  
      6737       6738       6749       6748       6858       6859       6870       6869  
      6738       6739       6750       6749       6859       6860       6871       6870  
      6739       6740       6751       6750       6860       6861       6872       6871  
      6740       6741       6752       6751       6861       6862       6873       6872  
      6741       6742       6753       6752       6862       6863       6874       6873  
      6742       6743       6754       6753       6863       6864       6875       6874  
      6744       6745       6756       6755       6865       6866       6877       6876  
      6745       6746       6757       6756       6866       6867       6878       6877  
      6746       6747       6758       6757       6867       6868       6879       6878  
      6747       6748       6759       6758       6868       6869       6880       6879  
      6748       6749       6760       6759       6869       6870       6881       6880  
      6749       6750       6761       6760       6870       6871       6882       6881  
      6750       6751       6762       6761       6871       6872       6883       6882  
      6751       6752       6763       6762       6872       6873       6884       6883  
      6752       6753       6764       6763       6873       6874       6885       6884  
      6753       6754       6765       6764       6874       6875       6886       6885  
      6755       6756       6767       6766       6876       6877       6888       6887  
      6756       6757       6768       6767       6877       6878       6889       6888  
      6757       6758       6769       6768       6878       6879       6890       6889  
      6758       6759       6770       6769       6879       6880       6891       6890  
      6759       6760       6771       6770       6880       6881       6892       6891  
      6760       6761       6772       6771       6881       6882       6893       6892  
      6761       6762       6773       6772       6882       6883       6894       6893  
      6762       6763       6774       6773       6883       6884       6895       6894  
      6763       6764       6775       6774       6884       6885       6896       6895  
      6764       6765       6776       6775       6885       6886       6897       6896  
      6777       6778       6789       6788       6898       6899       6910       6909  
      6778       6779       6790       6789       6899       6900       6911       6910  
      6779       6780       6791       6790       6900       6901       6912       6911  
      6780       6781       6792       6791       6901       6902       6913       6912  
      6781       6782       6793       6792       6902       6903       6914       6913  
      6782       6783       6794       6793       6903       6904       6915       6914  
      6783       6784       6795       6794       6904       6905       6916       6915  
      6784       6785       6796       6795       6905       6906       6917       6916  
      6785       6786       6797       6796       6906       6907       6918       6917  
      6786       6787       6798       6797       6907       6908       6919       6918  
      6788       6789       6800       6799       6909       6910       6921       6920  
      6789       6790       6801       6800       6910       6911       6922       6921  
      6790       6791       6802       6801       6911       6912       6923       6922  
      6791       6792       6803       6802       6912       6913       6924       6923  
      6792       6793       6804       6803       6913       6914       6925       6924  
      6793       6794       6805       6804       6914       6915       6926       6925  
      6794       6795       6806       6805       6915       6916       6927       6926  
      6795       6796       6807       6806       6916       6917       6928       6927  
      6796       6797       6808       6807       6917       6918       6929       6928  
      6797       6798       6809       6808       6918       6919       6930       6929  
      6799       6800       6811       6810       6920       6921       6932       6931  
      6800       6801       6812       6811       6921       6922       6933       6932  
      6801       6802       6813       6812       6922       6923       6934       6933  
      6802       6803       6814       6813       6923       6924       6935       6934  
      6803       6804       6815       6814       6924       6925       6936       6935  
      6804       6805       6816       6815       6925       6926       6937       6936  
      6805       6806       6817       6816       6926       6927       6938       6937  
      6806       6807       6818       6817       6927       6928       6939       6938  
      6807       6808       6819       6818       6928       6929       6940       6939  
      6808       6809       6820       6819       6929       6930       6941       6940  
      6810       6811       6822       6821       6931       6932       6943       6942  
      6811       6812       6823       6822       6932       6933       6944       6943  
      6812       6813       6824       6823       6933       6934       6945       6944  
      6813       6814       6825       6824       6934       6935       6946       6945  
      6814       6815       6826       6825       6935       6936       6947       6946  
      6815       6816       6827       6826       6936       6937       6948       6947  
      6816       6817       6828       6827       6937       6938       6949       6948  
      6817       6818       6829       6828       6938       6939       6950       6949  
      6818       6819       6830       6829       6939       6940       6951       6950  
      6819       6820       6831       6830       6940       6941       6952       6951  
      6821       6822       6833       6832       6942       6943       6954       6953  
      6822       6823       6834       6833       6943       6944       6955       6954  
      6823       6824       6835       6834       6944       6945       6956       6955  
      6824       6825       6836       6835       6945       6946       6957       6956  
      6825       6826       6837       6836       6946       6947       6958       6957  
      6826       6827       6838       6837       6947       6948       6959       6958  
      6827       6828       6839       6838       6948       6949       6960       6959  
      6828       6829       6840       6839       6949       6950       6961       6960  
      6829       6830       6841       6840       6950       6951       6962       6961  
      6830       6831       6842       6841       6951       6952       6963       6962  
      6832       6833       6844       6843       6953       6954       6965       6964  
      6833       6834       6845       6844       6954       6955       6966       6965  
      6834       6835       6846       6845       6955       6956       6967       6966  
      6835       6836       6847       6846       6956       6957       6968       6967  
      6836       6837       6848       6847       6957       6958       6969       6968  
      6837       6838       6849       6848       6958       6959       6970       6969  
      6838       6839       6850       6849       6959       6960       6971       6970  
      6839       6840       6851       6850       6960       6961       6972       6971  
      6840       6841       6852       6851       6961       6962       6973       6972  
      6841       6842       6853       6852       6962       6963       6974       6973  
      6843       6844       6855       6854       6964       6965       6976       6975  
      6844       6845       6856       6855       6965       6966       6977       6976  
      6845       6846       6857       6856       6966       6967       6978       6977  
      6846       6847       6858       6857       6967       6968       6979       6978  
      6847       6848       6859       6858       6968       6969       6980       6979  
      6848       6849       6860       6859       6969       6970       6981       6980  
      6849       6850       6861       6860       6970       6971       6982       6981  
      6850       6851       6862       6861       6971       6972       6983       6982  
      6851       6852       6863       6862       6972       6973       6984       6983  
      6852       6853       6864       6863       6973       6974       6985       6984  
      6854       6855       6866       6865       6975       6976       6987       6986  
      6855       6856       6867       6866       6976       6977       6988       6987  
      6856       6857       6868       6867       6977       6978       6989       6988  
      6857       6858       6869       6868       6978       6979       6990       6989  
      6858       6859       6870       6869       6979       6980       6991       6990  
      6859       6860       6871       6870       6980       6981       6992       6991  
      6860       6861       6872       6871       6981       6982       6993       6992  
      6861       6862       6873       6872       6982       6983       6994       6993  
      6862       6863       6874       6873       6983       6984       6995       6994  
      6863       6864       6875       6874       6984       6985       6996       6995  
      6865       6866       6877       6876       6986       6987       6998       6997  
      6866       6867       6878       6877       6987       6988       6999       6998  
      6867       6868       6879       6878       6988       6989       7000       6999  
      6868       6869       6880       6879       6989       6990       7001       7000  
      6869       6870       6881       6880       6990       6991       7002       7001  
      6870       6871       6882       6881       6991       6992       7003       7002  
      6871       6872       6883       6882       6992       6993       7004       7003  
      6872       6873       6884       6883       6993       6994       7005       7004  
      6873       6874       6885       6884       6994       6995       7006       7005  
      6874       6875       6886       6885       6995       6996       7007       7006  
      6876       6877       6888       6887       6997       6998       7009       7008  
      6877       6878       6889       6888       6998       6999       7010       7009  
      6878       6879       6890       6889       6999       7000       7011       7010  
      6879       6880       6891       6890       7000       7001       7012       7011  
      6880       6881       6892       6891       7001       7002       7013       7012  
      6881       6882       6893       6892       7002       7003       7014       7013  
      6882       6883       6894       6893       7003       7004       7015       7014  
      6883       6884       6895       6894       7004       7005       7016       7015  
      6884       6885       6896       6895       7005       7006       7017       7016  
      6885       6886       6897       6896       7006       7007       7018       7017  
      6898       6899       6910       6909       7019       7020       7031       7030  
      6899       6900       6911       6910       7020       7021       7032       7031  
      6900       6901       6912       6911       7021       7022       7033       7032  
      6901       6902       6913       6912       7022       7023       7034       7033  
      6902       6903       6914       6913       7023       7024       7035       7034  
      6903       6904       6915       6914       7024       7025       7036       7035  
      6904       6905       6916       6915       7025       7026       7037       7036  
      6905       6906       6917       6916       7026       7027       7038       7037  
      6906       6907       6918       6917       7027       7028       7039       7038  
      6907       6908       6919       6918       7028       7029       7040       7039  
      6909       6910       6921       6920       7030       7031       7042       7041  
      6910       6911       6922       6921       7031       7032       7043       7042  
      6911       6912       6923       6922       7032       7033       7044       7043  
      6912       6913       6924       6923       7033       7034       7045       7044  
      6913       6914       6925       6924       7034       7035       7046       7045  
      6914       6915       6926       6925       7035       7036       7047       7046  
      6915       6916       6927       6926       7036       7037       7048       7047  
      6916       6917       6928       6927       7037       7038       7049       7048  
      6917       6918       6929       6928       7038       7039       7050       7049  
      6918       6919       6930       6929       7039       7040       7051       7050  
      6920       6921       6932       6931       7041       7042       7053       7052  
      6921       6922       6933       6932       7042       7043       7054       7053  
      6922       6923       6934       6933       7043       7044       7055       7054  
      6923       6924       6935       6934       7044       7045       7056       7055  
      6924       6925       6936       6935       7045       7046       7057       7056  
      6925       6926       6937       6936       7046       7047       7058       7057  
      6926       6927       6938       6937       7047       7048       7059       7058  
      6927       6928       6939       6938       7048       7049       7060       7059  
      6928       6929       6940       6939       7049       7050       7061       7060  
      6929       6930       6941       6940       7050       7051       7062       7061  
      6931       6932       6943       6942       7052       7053       7064       7063  
      6932       6933       6944       6943       7053       7054       7065       7064  
      6933       6934       6945       6944       7054       7055       7066       7065  
      6934       6935       6946       6945       7055       7056       7067       7066  
      6935       6936       6947       6946       7056       7057       7068       7067  
      6936       6937       6948       6947       7057       7058       7069       7068  
      6937       6938       6949       6948       7058       7059       7070       7069  
      6938       6939       6950       6949       7059       7060       7071       7070  
      6939       6940       6951       6950       7060       7061       7072       7071  
      6940       6941       6952       6951       7061       7062       7073       7072  
      6942       6943       6954       6953       7063       7064       7075       7074  
      6943       6944       6955       6954       7064       7065       7076       7075  
      6944       6945       6956       6955       7065       7066       7077       7076  
      6945       6946       6957       6956       7066       7067       7078       7077  
      6946       6947       6958       6957       7067       7068       7079       7078  
      6947       6948       6959       6958       7068       7069       7080       7079  
      6948       6949       6960       6959       7069       7070       7081       7080  
      6949       6950       6961       6960       7070       7071       7082       7081  
      6950       6951       6962       6961       7071       7072       7083       7082  
      6951       6952       6963       6962       7072       7073       7084       7083  
      6953       6954       6965       6964       7074       7075       7086       7085  
      6954       6955       6966       6965       7075       7076       7087       7086  
      6955       6956       6967       6966       7076       7077       7088       7087  
      6956       6957       6968       6967       7077       7078       7089       7088  
      6957       6958       6969       6968       7078       7079       7090       7089  
      6958       6959       6970       6969       7079       7080       7091       7090  
      6959       6960       6971       6970       7080       7081       7092       7091  
      6960       6961       6972       6971       7081       7082       7093       7092  
      6961       6962       6973       6972       7082       7083       7094       7093  
      6962       6963       6974       6973       7083       7084       7095       7094  
      6964       6965       6976       6975       7085       7086       7097       7096  
      6965       6966       6977       6976       7086       7087       7098       7097  
      6966       6967       6978       6977       7087       7088       7099       7098  
      6967       6968       6979       6978       7088       7089       7100       7099  
      6968       6969       6980       6979       7089       7090       7101       7100  
      6969       6970       6981       6980       7090       7091       7102       7101  
      6970       6971       6982       6981       7091       7092       7103       7102  
      6971       6972       6983       6982       7092       7093       7104       7103  
      6972       6973       6984       6983       7093       7094       7105       7104  
      6973       6974       6985       6984       7094       7095       7106       7105  
      6975       6976       6987       6986       7096       7097       7108       7107  
      6976       6977       6988       6987       7097       7098       7109       7108  
      6977       6978       6989       6988       7098       7099       7110       7109  
      6978       6979       6990       6989       7099       7100       7111       7110  
      6979       6980       6991       6990       7100       7101       7112       7111  
      6980       6981       6992       6991       7101       7102       7113       7112  
      6981       6982       6993       6992       7102       7103       7114       7113  
      6982       6983       6994       6993       7103       7104       7115       7114  
      6983       6984       6995       6994       7104       7105       7116       7115  
      6984       6985       6996       6995       7105       7106       7117       7116  
      6986       6987       6998       6997       7107       7108       7119       7118  
      6987       6988       6999       6998       7108       7109       7120       7119  
      6988       6989       7000       6999       7109       7110       7121       7120  
      6989       6990       7001       7000       7110       7111       7122       7121  
      6990       6991       7002       7001       7111       7112       7123       7122  
      6991       6992       7003       7002       7112       7113       7124       7123  
      6992       6993       7004       7003       7113       7114       7125       7124  
      6993       6994       7005       7004       7114       7115       7126       7125  
      6994       6995       7006       7005       7115       7116       7127       7126  
      6995       6996       7007       7006       7116       7117       7128       7127  
      6997       6998       7009       7008       7118       7119       7130       7129  
      6998       6999       7010       7009       7119       7120       7131       7130  
      6999       7000       7011       7010       7120       7121       7132       7131  
      7000       7001       7012       7011       7121       7122       7133       7132  
      7001       7002       7013       7012       7122       7123       7134       7133  
      7002       7003       7014       7013       7123       7124       7135       7134  
      7003       7004       7015       7014       7124       7125       7136       7135  
      7004       7005       7016       7015       7125       7126       7137       7136  
      7005       7006       7017       7016       7126       7127       7138       7137  
      7006       7007       7018       7017       7127       7128       7139       7138  
      7019       7020       7031       7030       7140       7141       7152       7151  
      7020       7021       7032       7031       7141       7142       7153       7152  
      7021       7022       7033       7032       7142       7143       7154       7153  
      7022       7023       7034       7033       7143       7144       7155       7154  
      7023       7024       7035       7034       7144       7145       7156       7155  
      7024       7025       7036       7035       7145       7146       7157       7156  
      7025       7026       7037       7036       7146       7147       7158       7157  
      7026       7027       7038       7037       7147       7148       7159       7158  
      7027       7028       7039       7038       7148       7149       7160       7159  
      7028       7029       7040       7039       7149       7150       7161       7160  
      7030       7031       7042       7041       7151       7152       7163       7162  
      7031       7032       7043       7042       7152       7153       7164       7163  
      7032       7033       7044       7043       7153       7154       7165       7164  
      7033       7034       7045       7044       7154       7155       7166       7165  
      7034       7035       7046       7045       7155       7156       7167       7166  
      7035       7036       7047       7046       7156       7157       7168       7167  
      7036       7037       7048       7047       7157       7158       7169       7168  
      7037       7038       7049       7048       7158       7159       7170       7169  
      7038       7039       7050       7049       7159       7160       7171       7170  
      7039       7040       7051       7050       7160       7161       7172       7171  
      7041       7042       7053       7052       7162       7163       7174       7173  
      7042       7043       7054       7053       7163       7164       7175       7174  
      7043       7044       7055       7054       7164       7165       7176       7175  
      7044       7045       7056       7055       7165       7166       7177       7176  
      7045       7046       7057       7056       7166       7167       7178       7177  
      7046       7047       7058       7057       7167       7168       7179       7178  
      7047       7048       7059       7058       7168       7169       7180       7179  
      7048       7049       7060       7059       7169       7170       7181       7180  
      7049       7050       7061       7060       7170       7171       7182       7181  
      7050       7051       7062       7061       7171       7172       7183       7182  
      7052       7053       7064       7063       7173       7174       7185       7184  
      7053       7054       7065       7064       7174       7175       7186       7185  
      7054       7055       7066       7065       7175       7176       7187       7186  
      7055       7056       7067       7066       7176       7177       7188       7187  
      7056       7057       7068       7067       7177       7178       7189       7188  
      7057       7058       7069       7068       7178       7179       7190       7189  
      7058       7059       7070       7069       7179       7180       7191       7190  
      7059       7060       7071       7070       7180       7181       7192       7191  
      7060       7061       7072       7071       7181       7182       7193       7192  
      7061       7062       7073       7072       7182       7183       7194       7193  
      7063       7064       7075       7074       7184       7185       7196       7195  
      7064       7065       7076       7075       7185       7186       7197       7196  
      7065       7066       7077       7076       7186       7187       7198       7197  
      7066       7067       7078       7077       7187       7188       7199       7198  
      7067       7068       7079       7078       7188       7189       7200       7199  
      7068       7069       7080       7079       7189       7190       7201       7200  
      7069       7070       7081       7080       7190       7191       7202       7201  
      7070       7071       7082       7081       7191       7192       7203       7202  
      7071       7072       7083       7082       7192       7193       7204       7203  
      7072       7073       7084       7083       7193       7194       7205       7204  
      7074       7075       7086       7085       7195       7196       7207       7206  
      7075       7076       7087       7086       7196       7197       7208       7207  
      7076       7077       7088       7087       7197       7198       7209       7208  
      7077       7078       7089       7088       7198       7199       7210       7209  
      7078       7079       7090       7089       7199       7200       7211       7210  
      7079       7080       7091       7090       7200       7201       7212       7211  
      7080       7081       7092       7091       7201       7202       7213       7212  
      7081       7082       7093       7092       7202       7203       7214       7213  
      7082       7083       7094       7093       7203       7204       7215       7214  
      7083       7084       7095       7094       7204       7205       7216       7215  
      7085       7086       7097       7096       7206       7207       7218       7217  
      7086       7087       7098       7097       7207       7208       7219       7218  
      7087       7088       7099       7098       7208       7209       7220       7219  
      7088       7089       7100       7099       7209       7210       7221       7220  
      7089       7090       7101       7100       7210       7211       7222       7221  
      7090       7091       7102       7101       7211       7212       7223       7222  
      7091       7092       7103       7102       7212       7213       7224       7223  
      7092       7093       7104       7103       7213       7214       7225       7224  
      7093       7094       7105       7104       7214       7215       7226       7225  
      7094       7095       7106       7105       7215       7216       7227       7226  
      7096       7097       7108       7107       7217       7218       7229       7228  
      7097       7098       7109       7108       7218       7219       7230       7229  
      7098       7099       7110       7109       7219       7220       7231       7230  
      7099       7100       7111       7110       7220       7221       7232       7231  
      7100       7101       7112       7111       7221       7222       7233       7232  
      7101       7102       7113       7112       7222       7223       7234       7233  
      7102       7103       7114       7113       7223       7224       7235       7234  
      7103       7104       7115       7114       7224       7225       7236       7235  
      7104       7105       7116       7115       7225       7226       7237       7236  
      7105       7106       7117       7116       7226       7227       7238       7237  
      7107       7108       7119       7118       7228       7229       7240       7239  
      7108       7109       7120       7119       7229       7230       7241       7240  
      7109       7110       7121       7120       7230       7231       7242       7241  
      7110       7111       7122       7121       7231       7232       7243       7242  
      7111       7112       7123       7122       7232       7233       7244       7243  
      7112       7113       7124       7123       7233       7234       7245       7244  
      7113       7114       7125       7124       7234       7235       7246       7245  
      7114       7115       7126       7125       7235       7236       7247       7246  
      7115       7116       7127       7126       7236       7237       7248       7247  
      7116       7117       7128       7127       7237       7238       7249       7248  
      7118       7119       7130       7129       7239       7240       7251       7250  
      7119       7120       7131       7130       7240       7241       7252       7251  
      7120       7121       7132       7131       7241       7242       7253       7252  
      7121       7122       7133       7132       7242       7243       7254       7253  
      7122       7123       7134       7133       7243       7244       7255       7254  
      7123       7124       7135       7134       7244       7245       7256       7255  
      7124       7125       7136       7135       7245       7246       7257       7256  
      7125       7126       7137       7136       7246       7247       7258       7257  
      7126       7127       7138       7137       7247       7248       7259       7258  
      7127       7128       7139       7138       7248       7249       7260       7259  
      7140       7141       7152       7151       7261       7262       7273       7272  
      7141       7142       7153       7152       7262       7263       7274       7273  
      7142       7143       7154       7153       7263       7264       7275       7274  
      7143       7144       7155       7154       7264       7265       7276       7275  
      7144       7145       7156       7155       7265       7266       7277       7276  
      7145       7146       7157       7156       7266       7267       7278       7277  
      7146       7147       7158       7157       7267       7268       7279       7278  
      7147       7148       7159       7158       7268       7269       7280       7279  
      7148       7149       7160       7159       7269       7270       7281       7280  
      7149       7150       7161       7160       7270       7271       7282       7281  
      7151       7152       7163       7162       7272       7273       7284       7283  
      7152       7153       7164       7163       7273       7274       7285       7284  
      7153       7154       7165       7164       7274       7275       7286       7285  
      7154       7155       7166       7165       7275       7276       7287       7286  
      7155       7156       7167       7166       7276       7277       7288       7287  
      7156       7157       7168       7167       7277       7278       7289       7288  
      7157       7158       7169       7168       7278       7279       7290       7289  
      7158       7159       7170       7169       7279       7280       7291       7290  
      7159       7160       7171       7170       7280       7281       7292       7291  
      7160       7161       7172       7171       7281       7282       7293       7292  
      7162       7163       7174       7173       7283       7284       7295       7294  
      7163       7164       7175       7174       7284       7285       7296       7295  
      7164       7165       7176       7175       7285       7286       7297       7296  
      7165       7166       7177       7176       7286       7287       7298       7297  
      7166       7167       7178       7177       7287       7288       7299       7298  
      7167       7168       7179       7178       7288       7289       7300       7299  
      7168       7169       7180       7179       7289       7290       7301       7300  
      7169       7170       7181       7180       7290       7291       7302       7301  
      7170       7171       7182       7181       7291       7292       7303       7302  
      7171       7172       7183       7182       7292       7293       7304       7303  
      7173       7174       7185       7184       7294       7295       7306       7305  
      7174       7175       7186       7185       7295       7296       7307       7306  
      7175       7176       7187       7186       7296       7297       7308       7307  
      7176       7177       7188       7187       7297       7298       7309       7308  
      7177       7178       7189       7188       7298       7299       7310       7309  
      7178       7179       7190       7189       7299       7300       7311       7310  
      7179       7180       7191       7190       7300       7301       7312       7311  
      7180       7181       7192       7191       7301       7302       7313       7312  
      7181       7182       7193       7192       7302       7303       7314       7313  
      7182       7183       7194       7193       7303       7304       7315       7314  
      7184       7185       7196       7195       7305       7306       7317       7316  
      7185       7186       7197       7196       7306       7307       7318       7317  
      7186       7187       7198       7197       7307       7308       7319       7318  
      7187       7188       7199       7198       7308       7309       7320       7319  
      7188       7189       7200       7199       7309       7310       7321       7320  
      7189       7190       7201       7200       7310       7311       7322       7321  
      7190       7191       7202       7201       7311       7312       7323       7322  
      7191       7192       7203       7202       7312       7313       7324       7323  
      7192       7193       7204       7203       7313       7314       7325       7324  
      7193       7194       7205       7204       7314       7315       7326       7325  
      7195       7196       7207       7206       7316       7317       7328       7327  
      7196       7197       7208       7207       7317       7318       7329       7328  
      7197       7198       7209       7208       7318       7319       7330       7329  
      7198       7199       7210       7209       7319       7320       7331       7330  
      7199       7200       7211       7210       7320       7321       7332       7331  
      7200       7201       7212       7211       7321       7322       7333       7332  
      7201       7202       7213       7212       7322       7323       7334       7333  
      7202       7203       7214       7213       7323       7324       7335       7334  
      7203       7204       7215       7214       7324       7325       7336       7335  
      7204       7205       7216       7215       7325       7326       7337       7336  
      7206       7207       7218       7217       7327       7328       7339       7338  
      7207       7208       7219       7218       7328       7329       7340       7339  
      7208       7209       7220       7219       7329       7330       7341       7340  
      7209       7210       7221       7220       7330       7331       7342       7341  
      7210       7211       7222       7221       7331       7332       7343       7342  
      7211       7212       7223       7222       7332       7333       7344       7343  
      7212       7213       7224       7223       7333       7334       7345       7344  
      7213       7214       7225       7224       7334       7335       7346       7345  
      7214       7215       7226       7225       7335       7336       7347       7346  
      7215       7216       7227       7226       7336       7337       7348       7347  
      7217       7218       7229       7228       7338       7339       7350       7349  
      7218       7219       7230       7229       7339       7340       7351       7350  
      7219       7220       7231       7230       7340       7341       7352       7351  
      7220       7221       7232       7231       7341       7342       7353       7352  
      7221       7222       7233       7232       7342       7343       7354       7353  
      7222       7223       7234       7233       7343       7344       7355       7354  
      7223       7224       7235       7234       7344       7345       7356       7355  
      7224       7225       7236       7235       7345       7346       7357       7356  
      7225       7226       7237       7236       7346       7347       7358       7357  
      7226       7227       7238       7237       7347       7348       7359       7358  
      7228       7229       7240       7239       7349       7350       7361       7360  
      7229       7230       7241       7240       7350       7351       7362       7361  
      7230       7231       7242       7241       7351       7352       7363       7362  
      7231       7232       7243       7242       7352       7353       7364       7363  
      7232       7233       7244       7243       7353       7354       7365       7364  
      7233       7234       7245       7244       7354       7355       7366       7365  
      7234       7235       7246       7245       7355       7356       7367       7366  
      7235       7236       7247       7246       7356       7357       7368       7367  
      7236       7237       7248       7247       7357       7358       7369       7368  
      7237       7238       7249       7248       7358       7359       7370       7369  
      7239       7240       7251       7250       7360       7361       7372       7371  
      7240       7241       7252       7251       7361       7362       7373       7372  
      7241       7242       7253       7252       7362       7363       7374       7373  
      7242       7243       7254       7253       7363       7364       7375       7374  
      7243       7244       7255       7254       7364       7365       7376       7375  
      7244       7245       7256       7255       7365       7366       7377       7376  
      7245       7246       7257       7256       7366       7367       7378       7377  
      7246       7247       7258       7257       7367       7368       7379       7378  
      7247       7248       7259       7258       7368       7369       7380       7379  
      7248       7249       7260       7259       7369       7370       7381       7380  
      7261       7262       7273       7272       7382       7383       7394       7393  
      7262       7263       7274       7273       7383       7384       7395       7394  
      7263       7264       7275       7274       7384       7385       7396       7395  
      7264       7265       7276       7275       7385       7386       7397       7396  
      7265       7266       7277       7276       7386       7387       7398       7397  
      7266       7267       7278       7277       7387       7388       7399       7398  
      7267       7268       7279       7278       7388       7389       7400       7399  
      7268       7269       7280       7279       7389       7390       7401       7400  
      7269       7270       7281       7280       7390       7391       7402       7401  
      7270       7271       7282       7281       7391       7392       7403       7402  
      7272       7273       7284       7283       7393       7394       7405       7404  
      7273       7274       7285       7284       7394       7395       7406       7405  
      7274       7275       7286       7285       7395       7396       7407       7406  
      7275       7276       7287       7286       7396       7397       7408       7407  
      7276       7277       7288       7287       7397       7398       7409       7408  
      7277       7278       7289       7288       7398       7399       7410       7409  
      7278       7279       7290       7289       7399       7400       7411       7410  
      7279       7280       7291       7290       7400       7401       7412       7411  
      7280       7281       7292       7291       7401       7402       7413       7412  
      7281       7282       7293       7292       7402       7403       7414       7413  
      7283       7284       7295       7294       7404       7405       7416       7415  
      7284       7285       7296       7295       7405       7406       7417       7416  
      7285       7286       7297       7296       7406       7407       7418       7417  
      7286       7287       7298       7297       7407       7408       7419       7418  
      7287       7288       7299       7298       7408       7409       7420       7419  
      7288       7289       7300       7299       7409       7410       7421       7420  
      7289       7290       7301       7300       7410       7411       7422       7421  
      7290       7291       7302       7301       7411       7412       7423       7422  
      7291       7292       7303       7302       7412       7413       7424       7423  
      7292       7293       7304       7303       7413       7414       7425       7424  
      7294       7295       7306       7305       7415       7416       7427       7426  
      7295       7296       7307       7306       7416       7417       7428       7427  
      7296       7297       7308       7307       7417       7418       7429       7428  
      7297       7298       7309       7308       7418       7419       7430       7429  
      7298       7299       7310       7309       7419       7420       7431       7430  
      7299       7300       7311       7310       7420       7421       7432       7431  
      7300       7301       7312       7311       7421       7422       7433       7432  
      7301       7302       7313       7312       7422       7423       7434       7433  
      7302       7303       7314       7313       7423       7424       7435       7434  
      7303       7304       7315       7314       7424       7425       7436       7435  
      7305       7306       7317       7316       7426       7427       7438       7437  
      7306       7307       7318       7317       7427       7428       7439       7438  
      7307       7308       7319       7318       7428       7429       7440       7439  
      7308       7309       7320       7319       7429       7430       7441       7440  
      7309       7310       7321       7320       7430       7431       7442       7441  
      7310       7311       7322       7321       7431       7432       7443       7442  
      7311       7312       7323       7322       7432       7433       7444       7443  
      7312       7313       7324       7323       7433       7434       7445       7444  
      7313       7314       7325       7324       7434       7435       7446       7445  
      7314       7315       7326       7325       7435       7436       7447       7446  
      7316       7317       7328       7327       7437       7438       7449       7448  
      7317       7318       7329       7328       7438       7439       7450       7449  
      7318       7319       7330       7329       7439       7440       7451       7450  
      7319       7320       7331       7330       7440       7441       7452       7451  
      7320       7321       7332       7331       7441       7442       7453       7452  
      7321       7322       7333       7332       7442       7443       7454       7453  
      7322       7323       7334       7333       7443       7444       7455       7454  
      7323       7324       7335       7334       7444       7445       7456       7455  
      7324       7325       7336       7335       7445       7446       7457       7456  
      7325       7326       7337       7336       7446       7447       7458       7457  
      7327       7328       7339       7338       7448       7449       7460       7459  
      7328       7329       7340       7339       7449       7450       7461       7460  
      7329       7330       7341       7340       7450       7451       7462       7461  
      7330       7331       7342       7341       7451       7452       7463       7462  
      7331       7332       7343       7342       7452       7453       7464       7463  
      7332       7333       7344       7343       7453       7454       7465       7464  
      7333       7334       7345       7344       7454       7455       7466       7465  
      7334       7335       7346       7345       7455       7456       7467       7466  
      7335       7336       7347       7346       7456       7457       7468       7467  
      7336       7337       7348       7347       7457       7458       7469       7468  
      7338       7339       7350       7349       7459       7460       7471       7470  
      7339       7340       7351       7350       7460       7461       7472       7471  
      7340       7341       7352       7351       7461       7462       7473       7472  
      7341       7342       7353       7352       7462       7463       7474       7473  
      7342       7343       7354       7353       7463       7464       7475       7474  
      7343       7344       7355       7354       7464       7465       7476       7475  
      7344       7345       7356       7355       7465       7466       7477       7476  
      7345       7346       7357       7356       7466       7467       7478       7477  
      7346       7347       7358       7357       7467       7468       7479       7478  
      7347       7348       7359       7358       7468       7469       7480       7479  
      7349       7350       7361       7360       7470       7471       7482       7481  
      7350       7351       7362       7361       7471       7472       7483       7482  
      7351       7352       7363       7362       7472       7473       7484       7483  
      7352       7353       7364       7363       7473       7474       7485       7484  
      7353       7354       7365       7364       7474       7475       7486       7485  
      7354       7355       7366       7365       7475       7476       7487       7486  
      7355       7356       7367       7366       7476       7477       7488       7487  
      7356       7357       7368       7367       7477       7478       7489       7488  
      7357       7358       7369       7368       7478       7479       7490       7489  
      7358       7359       7370       7369       7479       7480       7491       7490  
      7360       7361       7372       7371       7481       7482       7493       7492  
      7361       7362       7373       7372       7482       7483       7494       7493  
      7362       7363       7374       7373       7483       7484       7495       7494  
      7363       7364       7375       7374       7484       7485       7496       7495  
      7364       7365       7376       7375       7485       7486       7497       7496  
      7365       7366       7377       7376       7486       7487       7498       7497  
      7366       7367       7378       7377       7487       7488       7499       7498  
      7367       7368       7379       7378       7488       7489       7500       7499  
      7368       7369       7380       7379       7489       7490       7501       7500  
      7369       7370       7381       7380       7490       7491       7502       7501  
      7382       7383       7394       7393       7503       7504       7515       7514  
      7383       7384       7395       7394       7504       7505       7516       7515  
      7384       7385       7396       7395       7505       7506       7517       7516  
      7385       7386       7397       7396       7506       7507       7518       7517  
      7386       7387       7398       7397       7507       7508       7519       7518  
      7387       7388       7399       7398       7508       7509       7520       7519  
      7388       7389       7400       7399       7509       7510       7521       7520  
      7389       7390       7401       7400       7510       7511       7522       7521  
      7390       7391       7402       7401       7511       7512       7523       7522  
      7391       7392       7403       7402       7512       7513       7524       7523  
      7393       7394       7405       7404       7514       7515       7526       7525  
      7394       7395       7406       7405       7515       7516       7527       7526  
      7395       7396       7407       7406       7516       7517       7528       7527  
      7396       7397       7408       7407       7517       7518       7529       7528  
      7397       7398       7409       7408       7518       7519       7530       7529  
      7398       7399       7410       7409       7519       7520       7531       7530  
      7399       7400       7411       7410       7520       7521       7532       7531  
      7400       7401       7412       7411       7521       7522       7533       7532  
      7401       7402       7413       7412       7522       7523       7534       7533  
      7402       7403       7414       7413       7523       7524       7535       7534  
      7404       7405       7416       7415       7525       7526       7537       7536  
      7405       7406       7417       7416       7526       7527       7538       7537  
      7406       7407       7418       7417       7527       7528       7539       7538  
      7407       7408       7419       7418       7528       7529       7540       7539  
      7408       7409       7420       7419       7529       7530       7541       7540  
      7409       7410       7421       7420       7530       7531       7542       7541  
      7410       7411       7422       7421       7531       7532       7543       7542  
      7411       7412       7423       7422       7532       7533       7544       7543  
      7412       7413       7424       7423       7533       7534       7545       7544  
      7413       7414       7425       7424       7534       7535       7546       7545  
      7415       7416       7427       7426       7536       7537       7548       7547  
      7416       7417       7428       7427       7537       7538       7549       7548  
      7417       7418       7429       7428       7538       7539       7550       7549  
      7418       7419       7430       7429       7539       7540       7551       7550  
      7419       7420       7431       7430       7540       7541       7552       7551  
      7420       7421       7432       7431       7541       7542       7553       7552  
      7421       7422       7433       7432       7542       7543       7554       7553  
      7422       7423       7434       7433       7543       7544       7555       7554  
      7423       7424       7435       7434       7544       7545       7556       7555  
      7424       7425       7436       7435       7545       7546       7557       7556  
      7426       7427       7438       7437       7547       7548       7559       7558  
      7427       7428       7439       7438       7548       7549       7560       7559  
      7428       7429       7440       7439       7549       7550       7561       7560  
      7429       7430       7441       7440       7550       7551       7562       7561  
      7430       7431       7442       7441       7551       7552       7563       7562  
      7431       7432       7443       7442       7552       7553       7564       7563  
      7432       7433       7444       7443       7553       7554       7565       7564  
      7433       7434       7445       7444       7554       7555       7566       7565  
      7434       7435       7446       7445       7555       7556       7567       7566  
      7435       7436       7447       7446       7556       7557       7568       7567  
      7437       7438       7449       7448       7558       7559       7570       7569  
      7438       7439       7450       7449       7559       7560       7571       7570  
      7439       7440       7451       7450       7560       7561       7572       7571  
      7440       7441       7452       7451       7561       7562       7573       7572  
      7441       7442       7453       7452       7562       7563       7574       7573  
      7442       7443       7454       7453       7563       7564       7575       7574  
      7443       7444       7455       7454       7564       7565       7576       7575  
      7444       7445       7456       7455       7565       7566       7577       7576  
      7445       7446       7457       7456       7566       7567       7578       7577  
      7446       7447       7458       7457       7567       7568       7579       7578  
      7448       7449       7460       7459       7569       7570       7581       7580  
      7449       7450       7461       7460       7570       7571       7582       7581  
      7450       7451       7462       7461       7571       7572       7583       7582  
      7451       7452       7463       7462       7572       7573       7584       7583  
      7452       7453       7464       7463       7573       7574       7585       7584  
      7453       7454       7465       7464       7574       7575       7586       7585  
      7454       7455       7466       7465       7575       7576       7587       7586  
      7455       7456       7467       7466       7576       7577       7588       7587  
      7456       7457       7468       7467       7577       7578       7589       7588  
      7457       7458       7469       7468       7578       7579       7590       7589  
      7459       7460       7471       7470       7580       7581       7592       7591  
      7460       7461       7472       7471       7581       7582       7593       7592  
      7461       7462       7473       7472       7582       7583       7594       7593  
      7462       7463       7474       7473       7583       7584       7595       7594  
      7463       7464       7475       7474       7584       7585       7596       7595  
      7464       7465       7476       7475       7585       7586       7597       7596  
      7465       7466       7477       7476       7586       7587       7598       7597  
      7466       7467       7478       7477       7587       7588       7599       7598  
      7467       7468       7479       7478       7588       7589       7600       7599  
      7468       7469       7480       7479       7589       7590       7601       7600  
      7470       7471       7482       7481       7591       7592       7603       7602  
      7471       7472       7483       7482       7592       7593       7604       7603  
      7472       7473       7484       7483       7593       7594       7605       7604  
      7473       7474       7485       7484       7594       7595       7606       7605  
      7474       7475       7486       7485       7595       7596       7607       7606  
      7475       7476       7487       7486       7596       7597       7608       7607  
      7476       7477       7488       7487       7597       7598       7609       7608  
      7477       7478       7489       7488       7598       7599       7610       7609  
      7478       7479       7490       7489       7599       7600       7611       7610  
      7479       7480       7491       7490       7600       7601       7612       7611  
      7481       7482       7493       7492       7602       7603       7614       7613  
      7482       7483       7494       7493       7603       7604       7615       7614  
      7483       7484       7495       7494       7604       7605       7616       7615  
      7484       7485       7496       7495       7605       7606       7617       7616  
      7485       7486       7497       7496       7606       7607       7618       7617  
      7486       7487       7498       7497       7607       7608       7619       7618  
      7487       7488       7499       7498       7608       7609       7620       7619  
      7488       7489       7500       7499       7609       7610       7621       7620  
      7489       7490       7501       7500       7610       7611       7622       7621  
      7490       7491       7502       7501       7611       7612       7623       7622  
      7503       7504       7515       7514       7624       7625       7636       7635  
      7504       7505       7516       7515       7625       7626       7637       7636  
      7505       7506       7517       7516       7626       7627       7638       7637  
      7506       7507       7518       7517       7627       7628       7639       7638  
      7507       7508       7519       7518       7628       7629       7640       7639  
      7508       7509       7520       7519       7629       7630       7641       7640  
      7509       7510       7521       7520       7630       7631       7642       7641  
      7510       7511       7522       7521       7631       7632       7643       7642  
      7511       7512       7523       7522       7632       7633       7644       7643  
      7512       7513       7524       7523       7633       7634       7645       7644  
      7514       7515       7526       7525       7635       7636       7647       7646  
      7515       7516       7527       7526       7636       7637       7648       7647  
      7516       7517       7528       7527       7637       7638       7649       7648  
      7517       7518       7529       7528       7638       7639       7650       7649  
      7518       7519       7530       7529       7639       7640       7651       7650  
      7519       7520       7531       7530       7640       7641       7652       7651  
      7520       7521       7532       7531       7641       7642       7653       7652  
      7521       7522       7533       7532       7642       7643       7654       7653  
      7522       7523       7534       7533       7643       7644       7655       7654  
      7523       7524       7535       7534       7644       7645       7656       7655  
      7525       7526       7537       7536       7646       7647       7658       7657  
      7526       7527       7538       7537       7647       7648       7659       7658  
      7527       7528       7539       7538       7648       7649       7660       7659  
      7528       7529       7540       7539       7649       7650       7661       7660  
      7529       7530       7541       7540       7650       7651       7662       7661  
      7530       7531       7542       7541       7651       7652       7663       7662  
      7531       7532       7543       7542       7652       7653       7664       7663  
      7532       7533       7544       7543       7653       7654       7665       7664  
      7533       7534       7545       7544       7654       7655       7666       7665  
      7534       7535       7546       7545       7655       7656       7667       7666  
      7536       7537       7548       7547       7657       7658       7669       7668  
      7537       7538       7549       7548       7658       7659       7670       7669  
      7538       7539       7550       7549       7659       7660       7671       7670  
      7539       7540       7551       7550       7660       7661       7672       7671  
      7540       7541       7552       7551       7661       7662       7673       7672  
      7541       7542       7553       7552       7662       7663       7674       7673  
      7542       7543       7554       7553       7663       7664       7675       7674  
      7543       7544       7555       7554       7664       7665       7676       7675  
      7544       7545       7556       7555       7665       7666       7677       7676  
      7545       7546       7557       7556       7666       7667       7678       7677  
      7547       7548       7559       7558       7668       7669       7680       7679  
      7548       7549       7560       7559       7669       7670       7681       7680  
      7549       7550       7561       7560       7670       7671       7682       7681  
      7550       7551       7562       7561       7671       7672       7683       7682  
      7551       7552       7563       7562       7672       7673       7684       7683  
      7552       7553       7564       7563       7673       7674       7685       7684  
      7553       7554       7565       7564       7674       7675       7686       7685  
      7554       7555       7566       7565       7675       7676       7687       7686  
      7555       7556       7567       7566       7676       7677       7688       7687  
      7556       7557       7568       7567       7677       7678       7689       7688  
      7558       7559       7570       7569       7679       7680       7691       7690  
      7559       7560       7571       7570       7680       7681       7692       7691  
      7560       7561       7572       7571       7681       7682       7693       7692  
      7561       7562       7573       7572       7682       7683       7694       7693  
      7562       7563       7574       7573       7683       7684       7695       7694  
      7563       7564       7575       7574       7684       7685       7696       7695  
      7564       7565       7576       7575       7685       7686       7697       7696  
      7565       7566       7577       7576       7686       7687       7698       7697  
      7566       7567       7578       7577       7687       7688       7699       7698  
      7567       7568       7579       7578       7688       7689       7700       7699  
      7569       7570       7581       7580       7690       7691       7702       7701  
      7570       7571       7582       7581       7691       7692       7703       7702  
      7571       7572       7583       7582       7692       7693       7704       7703  
      7572       7573       7584       7583       7693       7694       7705       7704  
      7573       7574       7585       7584       7694       7695       7706       7705  
      7574       7575       7586       7585       7695       7696       7707       7706  
      7575       7576       7587       7586       7696       7697       7708       7707  
      7576       7577       7588       7587       7697       7698       7709       7708  
      7577       7578       7589       7588       7698       7699       7710       7709  
      7578       7579       7590       7589       7699       7700       7711       7710  
      7580       7581       7592       7591       7701       7702       7713       7712  
      7581       7582       7593       7592       7702       7703       7714       7713  
      7582       7583       7594       7593       7703       7704       7715       7714  
      7583       7584       7595       7594       7704       7705       7716       7715  
      7584       7585       7596       7595       7705       7706       7717       7716  
      7585       7586       7597       7596       7706       7707       7718       7717  
      7586       7587       7598       7597       7707       7708       7719       7718  
      7587       7588       7599       7598       7708       7709       7720       7719  
      7588       7589       7600       7599       7709       7710       7721       7720  
      7589       7590       7601       7600       7710       7711       7722       7721  
      7591       7592       7603       7602       7712       7713       7724       7723  
      7592       7593       7604       7603       7713       7714       7725       7724  
      7593       7594       7605       7604       7714       7715       7726       7725  
      7594       7595       7606       7605       7715       7716       7727       7726  
      7595       7596       7607       7606       7716       7717       7728       7727  
      7596       7597       7608       7607       7717       7718       7729       7728  
      7597       7598       7609       7608       7718       7719       7730       7729  
      7598       7599       7610       7609       7719       7720       7731       7730  
      7599       7600       7611       7610       7720       7721       7732       7731  
      7600       7601       7612       7611       7721       7722       7733       7732  
      7602       7603       7614       7613       7723       7724       7735       7734  
      7603       7604       7615       7614       7724       7725       7736       7735  
      7604       7605       7616       7615       7725       7726       7737       7736  
      7605       7606       7617       7616       7726       7727       7738       7737  
      7606       7607       7618       7617       7727       7728       7739       7738  
      7607       7608       7619       7618       7728       7729       7740       7739  
      7608       7609       7620       7619       7729       7730       7741       7740  
      7609       7610       7621       7620       7730       7731       7742       7741  
      7610       7611       7622       7621       7731       7732       7743       7742  
      7611       7612       7623       7622       7732       7733       7744       7743  
      7624       7625       7636       7635       7745       7746       7757       7756  
      7625       7626       7637       7636       7746       7747       7758       7757  
      7626       7627       7638       7637       7747       7748       7759       7758  
      7627       7628       7639       7638       7748       7749       7760       7759  
      7628       7629       7640       7639       7749       7750       7761       7760  
      7629       7630       7641       7640       7750       7751       7762       7761  
      7630       7631       7642       7641       7751       7752       7763       7762  
      7631       7632       7643       7642       7752       7753       7764       7763  
      7632       7633       7644       7643       7753       7754       7765       7764  
      7633       7634       7645       7644       7754       7755       7766       7765  
      7635       7636       7647       7646       7756       7757       7768       7767  
      7636       7637       7648       7647       7757       7758       7769       7768  
      7637       7638       7649       7648       7758       7759       7770       7769  
      7638       7639       7650       7649       7759       7760       7771       7770  
      7639       7640       7651       7650       7760       7761       7772       7771  
      7640       7641       7652       7651       7761       7762       7773       7772  
      7641       7642       7653       7652       7762       7763       7774       7773  
      7642       7643       7654       7653       7763       7764       7775       7774  
      7643       7644       7655       7654       7764       7765       7776       7775  
      7644       7645       7656       7655       7765       7766       7777       7776  
      7646       7647       7658       7657       7767       7768       7779       7778  
      7647       7648       7659       7658       7768       7769       7780       7779  
      7648       7649       7660       7659       7769       7770       7781       7780  
      7649       7650       7661       7660       7770       7771       7782       7781  
      7650       7651       7662       7661       7771       7772       7783       7782  
      7651       7652       7663       7662       7772       7773       7784       7783  
      7652       7653       7664       7663       7773       7774       7785       7784  
      7653       7654       7665       7664       7774       7775       7786       7785  
      7654       7655       7666       7665       7775       7776       7787       7786  
      7655       7656       7667       7666       7776       7777       7788       7787  
      7657       7658       7669       7668       7778       7779       7790       7789  
      7658       7659       7670       7669       7779       7780       7791       7790  
      7659       7660       7671       7670       7780       7781       7792       7791  
      7660       7661       7672       7671       7781       7782       7793       7792  
      7661       7662       7673       7672       7782       7783       7794       7793  
      7662       7663       7674       7673       7783       7784       7795       7794  
      7663       7664       7675       7674       7784       7785       7796       7795  
      7664       7665       7676       7675       7785       7786       7797       7796  
      7665       7666       7677       7676       7786       7787       7798       7797  
      7666       7667       7678       7677       7787       7788       7799       7798  
      7668       7669       7680       7679       7789       7790       7801       7800  
      7669       7670       7681       7680       7790       7791       7802       7801  
      7670       7671       7682       7681       7791       7792       7803       7802  
      7671       7672       7683       7682       7792       7793       7804       7803  
      7672       7673       7684       7683       7793       7794       7805       7804  
      7673       7674       7685       7684       7794       7795       7806       7805  
      7674       7675       7686       7685       7795       7796       7807       7806  
      7675       7676       7687       7686       7796       7797       7808       7807  
      7676       7677       7688       7687       7797       7798       7809       7808  
      7677       7678       7689       7688       7798       7799       7810       7809  
      7679       7680       7691       7690       7800       7801       7812       7811  
      7680       7681       7692       7691       7801       7802       7813       7812  
      7681       7682       7693       7692       7802       7803       7814       7813  
      7682       7683       7694       7693       7803       7804       7815       7814  
      7683       7684       7695       7694       7804       7805       7816       7815  
      7684       7685       7696       7695       7805       7806       7817       7816  
      7685       7686       7697       7696       7806       7807       7818       7817  
      7686       7687       7698       7697       7807       7808       7819       7818  
      7687       7688       7699       7698       7808       7809       7820       7819  
      7688       7689       7700       7699       7809       7810       7821       7820  
      7690       7691       7702       7701       7811       7812       7823       7822  
      7691       7692       7703       7702       7812       7813       7824       7823  
      7692       7693       7704       7703       7813       7814       7825       7824  
      7693       7694       7705       7704       7814       7815       7826       7825  
      7694       7695       7706       7705       7815       7816       7827       7826  
      7695       7696       7707       7706       7816       7817       7828       7827  
      7696       7697       7708       7707       7817       7818       7829       7828  
      7697       7698       7709       7708       7818       7819       7830       7829  
      7698       7699       7710       7709       7819       7820       7831       7830  
      7699       7700       7711       7710       7820       7821       7832       7831  
      7701       7702       7713       7712       7822       7823       7834       7833  
      7702       7703       7714       7713       7823       7824       7835       7834  
      7703       7704       7715       7714       7824       7825       7836       7835  
      7704       7705       7716       7715       7825       7826       7837       7836  
      7705       7706       7717       7716       7826       7827       7838       7837  
      7706       7707       7718       7717       7827       7828       7839       7838  
      7707       7708       7719       7718       7828       7829       7840       7839  
      7708       7709       7720       7719       7829       7830       7841       7840  
      7709       7710       7721       7720       7830       7831       7842       7841  
      7710       7711       7722       7721       7831       7832       7843       7842  
      7712       7713       7724       7723       7833       7834       7845       7844  
      7713       7714       7725       7724       7834       7835       7846       7845  
      7714       7715       7726       7725       7835       7836       7847       7846  
      7715       7716       7727       7726       7836       7837       7848       7847  
      7716       7717       7728       7727       7837       7838       7849       7848  
      7717       7718       7729       7728       7838       7839       7850       7849  
      7718       7719       7730       7729       7839       7840       7851       7850  
      7719       7720       7731       7730       7840       7841       7852       7851  
      7720       7721       7732       7731       7841       7842       7853       7852  
      7721       7722       7733       7732       7842       7843       7854       7853  
      7723       7724       7735       7734       7844       7845       7856       7855  
      7724       7725       7736       7735       7845       7846       7857       7856  
      7725       7726       7737       7736       7846       7847       7858       7857  
      7726       7727       7738       7737       7847       7848       7859       7858  
      7727       7728       7739       7738       7848       7849       7860       7859  
      7728       7729       7740       7739       7849       7850       7861       7860  
      7729       7730       7741       7740       7850       7851       7862       7861  
      7730       7731       7742       7741       7851       7852       7863       7862  
      7731       7732       7743       7742       7852       7853       7864       7863  
      7732       7733       7744       7743       7853       7854       7865       7864  
      7745       7746       7757       7756       7866       7867       7878       7877  
      7746       7747       7758       7757       7867       7868       7879       7878  
      7747       7748       7759       7758       7868       7869       7880       7879  
      7748       7749       7760       7759       7869       7870       7881       7880  
      7749       7750       7761       7760       7870       7871       7882       7881  
      7750       7751       7762       7761       7871       7872       7883       7882  
      7751       7752       7763       7762       7872       7873       7884       7883  
      7752       7753       7764       7763       7873       7874       7885       7884  
      7753       7754       7765       7764       7874       7875       7886       7885  
      7754       7755       7766       7765       7875       7876       7887       7886  
      7756       7757       7768       7767       7877       7878       7889       7888  
      7757       7758       7769       7768       7878       7879       7890       7889  
      7758       7759       7770       7769       7879       7880       7891       7890  
      7759       7760       7771       7770       7880       7881       7892       7891  
      7760       7761       7772       7771       7881       7882       7893       7892  
      7761       7762       7773       7772       7882       7883       7894       7893  
      7762       7763       7774       7773       7883       7884       7895       7894  
      7763       7764       7775       7774       7884       7885       7896       7895  
      7764       7765       7776       7775       7885       7886       7897       7896  
      7765       7766       7777       7776       7886       7887       7898       7897  
      7767       7768       7779       7778       7888       7889       7900       7899  
      7768       7769       7780       7779       7889       7890       7901       7900  
      7769       7770       7781       7780       7890       7891       7902       7901  
      7770       7771       7782       7781       7891       7892       7903       7902  
      7771       7772       7783       7782       7892       7893       7904       7903  
      7772       7773       7784       7783       7893       7894       7905       7904  
      7773       7774       7785       7784       7894       7895       7906       7905  
      7774       7775       7786       7785       7895       7896       7907       7906  
      7775       7776       7787       7786       7896       7897       7908       7907  
      7776       7777       7788       7787       7897       7898       7909       7908  
      7778       7779       7790       7789       7899       7900       7911       7910  
      7779       7780       7791       7790       7900       7901       7912       7911  
      7780       7781       7792       7791       7901       7902       7913       7912  
      7781       7782       7793       7792       7902       7903       7914       7913  
      7782       7783       7794       7793       7903       7904       7915       7914  
      7783       7784       7795       7794       7904       7905       7916       7915  
      7784       7785       7796       7795       7905       7906       7917       7916  
      7785       7786       7797       7796       7906       7907       7918       7917  
      7786       7787       7798       7797       7907       7908       7919       7918  
      7787       7788       7799       7798       7908       7909       7920       7919  
      7789       7790       7801       7800       7910       7911       7922       7921  
      7790       7791       7802       7801       7911       7912       7923       7922  
      7791       7792       7803       7802       7912       7913       7924       7923  
      7792       7793       7804       7803       7913       7914       7925       7924  
      7793       7794       7805       7804       7914       7915       7926       7925  
      7794       7795       7806       7805       7915       7916       7927       7926  
      7795       7796       7807       7806       7916       7917       7928       7927  
      7796       7797       7808       7807       7917       7918       7929       7928  
      7797       7798       7809       7808       7918       7919       7930       7929  
      7798       7799       7810       7809       7919       7920       7931       7930  
      7800       7801       7812       7811       7921       7922       7933       7932  
      7801       7802       7813       7812       7922       7923       7934       7933  
      7802       7803       7814       7813       7923       7924       7935       7934  
      7803       7804       7815       7814       7924       7925       7936       7935  
      7804       7805       7816       7815       7925       7926       7937       7936  
      7805       7806       7817       7816       7926       7927       7938       7937  
      7806       7807       7818       7817       7927       7928       7939       7938  
      7807       7808       7819       7818       7928       7929       7940       7939  
      7808       7809       7820       7819       7929       7930       7941       7940  
      7809       7810       7821       7820       7930       7931       7942       7941  
      7811       7812       7823       7822       7932       7933       7944       7943  
      7812       7813       7824       7823       7933       7934       7945       7944  
      7813       7814       7825       7824       7934       7935       7946       7945  
      7814       7815       7826       7825       7935       7936       7947       7946  
      7815       7816       7827       7826       7936       7937       7948       7947  
      7816       7817       7828       7827       7937       7938       7949       7948  
      7817       7818       7829       7828       7938       7939       7950       7949  
      7818       7819       7830       7829       7939       7940       7951       7950  
      7819       7820       7831       7830       7940       7941       7952       7951  
      7820       7821       7832       7831       7941       7942       7953       7952  
      7822       7823       7834       7833       7943       7944       7955       7954  
      7823       7824       7835       7834       7944       7945       7956       7955  
      7824       7825       7836       7835       7945       7946       7957       7956  
      7825       7826       7837       7836       7946       7947       7958       7957  
      7826       7827       7838       7837       7947       7948       7959       7958  
      7827       7828       7839       7838       7948       7949       7960       7959  
      7828       7829       7840       7839       7949       7950       7961       7960  
      7829       7830       7841       7840       7950       7951       7962       7961  
      7830       7831       7842       7841       7951       7952       7963       7962  
      7831       7832       7843       7842       7952       7953       7964       7963  
      7833       7834       7845       7844       7954       7955       7966       7965  
      7834       7835       7846       7845       7955       7956       7967       7966  
      7835       7836       7847       7846       7956       7957       7968       7967  
      7836       7837       7848       7847       7957       7958       7969       7968  
      7837       7838       7849       7848       7958       7959       7970       7969  
      7838       7839       7850       7849       7959       7960       7971       7970  
      7839       7840       7851       7850       7960       7961       7972       7971  
      7840       7841       7852       7851       7961       7962       7973       7972  
      7841       7842       7853       7852       7962       7963       7974       7973  
      7842       7843       7854       7853       7963       7964       7975       7974  
      7844       7845       7856       7855       7965       7966       7977       7976  
      7845       7846       7857       7856       7966       7967       7978       7977  
      7846       7847       7858       7857       7967       7968       7979       7978  
      7847       7848       7859       7858       7968       7969       7980       7979  
      7848       7849       7860       7859       7969       7970       7981       7980  
      7849       7850       7861       7860       7970       7971       7982       7981  
      7850       7851       7862       7861       7971       7972       7983       7982  
      7851       7852       7863       7862       7972       7973       7984       7983  
      7852       7853       7864       7863       7973       7974       7985       7984  
      7853       7854       7865       7864       7974       7975       7986       7985  
      7866       7867       7878       7877       7987       7988       7999       7998  
      7867       7868       7879       7878       7988       7989       8000       7999  
      7868       7869       7880       7879       7989       7990       8001       8000  
      7869       7870       7881       7880       7990       7991       8002       8001  
      7870       7871       7882       7881       7991       7992       8003       8002  
      7871       7872       7883       7882       7992       7993       8004       8003  
      7872       7873       7884       7883       7993       7994       8005       8004  
      7873       7874       7885       7884       7994       7995       8006       8005  
      7874       7875       7886       7885       7995       7996       8007       8006  
      7875       7876       7887       7886       7996       7997       8008       8007  
      7877       7878       7889       7888       7998       7999       8010       8009  
      7878       7879       7890       7889       7999       8000       8011       8010  
      7879       7880       7891       7890       8000       8001       8012       8011  
      7880       7881       7892       7891       8001       8002       8013       8012  
      7881       7882       7893       7892       8002       8003       8014       8013  
      7882       7883       7894       7893       8003       8004       8015       8014  
      7883       7884       7895       7894       8004       8005       8016       8015  
      7884       7885       7896       7895       8005       8006       8017       8016  
      7885       7886       7897       7896       8006       8007       8018       8017  
      7886       7887       7898       7897       8007       8008       8019       8018  
      7888       7889       7900       7899       8009       8010       8021       8020  
      7889       7890       7901       7900       8010       8011       8022       8021  
      7890       7891       7902       7901       8011       8012       8023       8022  
      7891       7892       7903       7902       8012       8013       8024       8023  
      7892       7893       7904       7903       8013       8014       8025       8024  
      7893       7894       7905       7904       8014       8015       8026       8025  
      7894       7895       7906       7905       8015       8016       8027       8026  
      7895       7896       7907       7906       8016       8017       8028       8027  
      7896       7897       7908       7907       8017       8018       8029       8028  
      7897       7898       7909       7908       8018       8019       8030       8029  
      7899       7900       7911       7910       8020       8021       8032       8031  
      7900       7901       7912       7911       8021       8022       8033       8032  
      7901       7902       7913       7912       8022       8023       8034       8033  
      7902       7903       7914       7913       8023       8024       8035       8034  
      7903       7904       7915       7914       8024       8025       8036       8035  
      7904       7905       7916       7915       8025       8026       8037       8036  
      7905       7906       7917       7916       8026       8027       8038       8037  
      7906       7907       7918       7917       8027       8028       8039       8038  
      7907       7908       7919       7918       8028       8029       8040       8039  
      7908       7909       7920       7919       8029       8030       8041       8040  
      7910       7911       7922       7921       8031       8032       8043       8042  
      7911       7912       7923       7922       8032       8033       8044       8043  
      7912       7913       7924       7923       8033       8034       8045       8044  
      7913       7914       7925       7924       8034       8035       8046       8045  
      7914       7915       7926       7925       8035       8036       8047       8046  
      7915       7916       7927       7926       8036       8037       8048       8047  
      7916       7917       7928       7927       8037       8038       8049       8048  
      7917       7918       7929       7928       8038       8039       8050       8049  
      7918       7919       7930       7929       8039       8040       8051       8050  
      7919       7920       7931       7930       8040       8041       8052       8051  
      7921       7922       7933       7932       8042       8043       8054       8053  
      7922       7923       7934       7933       8043       8044       8055       8054  
      7923       7924       7935       7934       8044       8045       8056       8055  
      7924       7925       7936       7935       8045       8046       8057       8056  
      7925       7926       7937       7936       8046       8047       8058       8057  
      7926       7927       7938       7937       8047       8048       8059       8058  
      7927       7928       7939       7938       8048       8049       8060       8059  
      7928       7929       7940       7939       8049       8050       8061       8060  
      7929       7930       7941       7940       8050       8051       8062       8061  
      7930       7931       7942       7941       8051       8052       8063       8062  
      7932       7933       7944       7943       8053       8054       8065       8064  
      7933       7934       7945       7944       8054       8055       8066       8065  
      7934       7935       7946       7945       8055       8056       8067       8066  
      7935       7936       7947       7946       8056       8057       8068       8067  
      7936       7937       7948       7947       8057       8058       8069       8068  
      7937       7938       7949       7948       8058       8059       8070       8069  
      7938       7939       7950       7949       8059       8060       8071       8070  
      7939       7940       7951       7950       8060       8061       8072       8071  
      7940       7941       7952       7951       8061       8062       8073       8072  
      7941       7942       7953       7952       8062       8063       8074       8073  
      7943       7944       7955       7954       8064       8065       8076       8075  
      7944       7945       7956       7955       8065       8066       8077       8076  
      7945       7946       7957       7956       8066       8067       8078       8077  
      7946       7947       7958       7957       8067       8068       8079       8078  
      7947       7948       7959       7958       8068       8069       8080       8079  
      7948       7949       7960       7959       8069       8070       8081       8080  
      7949       7950       7961       7960       8070       8071       8082       8081  
      7950       7951       7962       7961       8071       8072       8083       8082  
      7951       7952       7963       7962       8072       8073       8084       8083  
      7952       7953       7964       7963       8073       8074       8085       8084  
      7954       7955       7966       7965       8075       8076       8087       8086  
      7955       7956       7967       7966       8076       8077       8088       8087  
      7956       7957       7968       7967       8077       8078       8089       8088  
      7957       7958       7969       7968       8078       8079       8090       8089  
      7958       7959       7970       7969       8079       8080       8091       8090  
      7959       7960       7971       7970       8080       8081       8092       8091  
      7960       7961       7972       7971       8081       8082       8093       8092  
      7961       7962       7973       7972       8082       8083       8094       8093  
      7962       7963       7974       7973       8083       8084       8095       8094  
      7963       7964       7975       7974       8084       8085       8096       8095  
      7965       7966       7977       7976       8086       8087       8098       8097  
      7966       7967       7978       7977       8087       8088       8099       8098  
      7967       7968       7979       7978       8088       8089       8100       8099  
      7968       7969       7980       7979       8089       8090       8101       8100  
      7969       7970       7981       7980       8090       8091       8102       8101  
      7970       7971       7982       7981       8091       8092       8103       8102  
      7971       7972       7983       7982       8092       8093       8104       8103  
      7972       7973       7984       7983       8093       8094       8105       8104  
      7973       7974       7985       7984       8094       8095       8106       8105  
      7974       7975       7986       7985       8095       8096       8107       8106  
      7987       7988       7999       7998       8108       8109       8120       8119  
      7988       7989       8000       7999       8109       8110       8121       8120  
      7989       7990       8001       8000       8110       8111       8122       8121  
      7990       7991       8002       8001       8111       8112       8123       8122  
      7991       7992       8003       8002       8112       8113       8124       8123  
      7992       7993       8004       8003       8113       8114       8125       8124  
      7993       7994       8005       8004       8114       8115       8126       8125  
      7994       7995       8006       8005       8115       8116       8127       8126  
      7995       7996       8007       8006       8116       8117       8128       8127  
      7996       7997       8008       8007       8117       8118       8129       8128  
      7998       7999       8010       8009       8119       8120       8131       8130  
      7999       8000       8011       8010       8120       8121       8132       8131  
      8000       8001       8012       8011       8121       8122       8133       8132  
      8001       8002       8013       8012       8122       8123       8134       8133  
      8002       8003       8014       8013       8123       8124       8135       8134  
      8003       8004       8015       8014       8124       8125       8136       8135  
      8004       8005       8016       8015       8125       8126       8137       8136  
      8005       8006       8017       8016       8126       8127       8138       8137  
      8006       8007       8018       8017       8127       8128       8139       8138  
      8007       8008       8019       8018       8128       8129       8140       8139  
      8009       8010       8021       8020       8130       8131       8142       8141  
      8010       8011       8022       8021       8131       8132       8143       8142  
      8011       8012       8023       8022       8132       8133       8144       8143  
      8012       8013       8024       8023       8133       8134       8145       8144  
      8013       8014       8025       8024       8134       8135       8146       8145  
      8014       8015       8026       8025       8135       8136       8147       8146  
      8015       8016       8027       8026       8136       8137       8148       8147  
      8016       8017       8028       8027       8137       8138       8149       8148  
      8017       8018       8029       8028       8138       8139       8150       8149  
      8018       8019       8030       8029       8139       8140       8151       8150  
      8020       8021       8032       8031       8141       8142       8153       8152  
      8021       8022       8033       8032       8142       8143       8154       8153  
      8022       8023       8034       8033       8143       8144       8155       8154  
      8023       8024       8035       8034       8144       8145       8156       8155  
      8024       8025       8036       8035       8145       8146       8157       8156  
      8025       8026       8037       8036       8146       8147       8158       8157  
      8026       8027       8038       8037       8147       8148       8159       8158  
      8027       8028       8039       8038       8148       8149       8160       8159  
      8028       8029       8040       8039       8149       8150       8161       8160  
      8029       8030       8041       8040       8150       8151       8162       8161  
      8031       8032       8043       8042       8152       8153       8164       8163  
      8032       8033       8044       8043       8153       8154       8165       8164  
      8033       8034       8045       8044       8154       8155       8166       8165  
      8034       8035       8046       8045       8155       8156       8167       8166  
      8035       8036       8047       8046       8156       8157       8168       8167  
      8036       8037       8048       8047       8157       8158       8169       8168  
      8037       8038       8049       8048       8158       8159       8170       8169  
      8038       8039       8050       8049       8159       8160       8171       8170  
      8039       8040       8051       8050       8160       8161       8172       8171  
      8040       8041       8052       8051       8161       8162       8173       8172  
      8042       8043       8054       8053       8163       8164       8175       8174  
      8043       8044       8055       8054       8164       8165       8176       8175  
      8044       8045       8056       8055       8165       8166       8177       8176  
      8045       8046       8057       8056       8166       8167       8178       8177  
      8046       8047       8058       8057       8167       8168       8179       8178  
      8047       8048       8059       8058       8168       8169       8180       8179  
      8048       8049       8060       8059       8169       8170       8181       8180  
      8049       8050       8061       8060       8170       8171       8182       8181  
      8050       8051       8062       8061       8171       8172       8183       8182  
      8051       8052       8063       8062       8172       8173       8184       8183  
      8053       8054       8065       8064       8174       8175       8186       8185  
      8054       8055       8066       8065       8175       8176       8187       8186  
      8055       8056       8067       8066       8176       8177       8188       8187  
      8056       8057       8068       8067       8177       8178       8189       8188  
      8057       8058       8069       8068       8178       8179       8190       8189  
      8058       8059       8070       8069       8179       8180       8191       8190  
      8059       8060       8071       8070       8180       8181       8192       8191  
      8060       8061       8072       8071       8181       8182       8193       8192  
      8061       8062       8073       8072       8182       8183       8194       8193  
      8062       8063       8074       8073       8183       8184       8195       8194  
      8064       8065       8076       8075       8185       8186       8197       8196  
      8065       8066       8077       8076       8186       8187       8198       8197  
      8066       8067       8078       8077       8187       8188       8199       8198  
      8067       8068       8079       8078       8188       8189       8200       8199  
      8068       8069       8080       8079       8189       8190       8201       8200  
      8069       8070       8081       8080       8190       8191       8202       8201  
      8070       8071       8082       8081       8191       8192       8203       8202  
      8071       8072       8083       8082       8192       8193       8204       8203  
      8072       8073       8084       8083       8193       8194       8205       8204  
      8073       8074       8085       8084       8194       8195       8206       8205  
      8075       8076       8087       8086       8196       8197       8208       8207  
      8076       8077       8088       8087       8197       8198       8209       8208  
      8077       8078       8089       8088       8198       8199       8210       8209  
      8078       8079       8090       8089       8199       8200       8211       8210  
      8079       8080       8091       8090       8200       8201       8212       8211  
      8080       8081       8092       8091       8201       8202       8213       8212  
      8081       8082       8093       8092       8202       8203       8214       8213  
      8082       8083       8094       8093       8203       8204       8215       8214  
      8083       8084       8095       8094       8204       8205       8216       8215  
      8084       8085       8096       8095       8205       8206       8217       8216  
      8086       8087       8098       8097       8207       8208       8219       8218  
      8087       8088       8099       8098       8208       8209       8220       8219  
      8088       8089       8100       8099       8209       8210       8221       8220  
      8089       8090       8101       8100       8210       8211       8222       8221  
      8090       8091       8102       8101       8211       8212       8223       8222  
      8091       8092       8103       8102       8212       8213       8224       8223  
      8092       8093       8104       8103       8213       8214       8225       8224  
      8093       8094       8105       8104       8214       8215       8226       8225  
      8094       8095       8106       8105       8215       8216       8227       8226  
      8095       8096       8107       8106       8216       8217       8228       8227  
      8108       8109       8120       8119       8229       8230       8241       8240  
      8109       8110       8121       8120       8230       8231       8242       8241  
      8110       8111       8122       8121       8231       8232       8243       8242  
      8111       8112       8123       8122       8232       8233       8244       8243  
      8112       8113       8124       8123       8233       8234       8245       8244  
      8113       8114       8125       8124       8234       8235       8246       8245  
      8114       8115       8126       8125       8235       8236       8247       8246  
      8115       8116       8127       8126       8236       8237       8248       8247  
      8116       8117       8128       8127       8237       8238       8249       8248  
      8117       8118       8129       8128       8238       8239       8250       8249  
      8119       8120       8131       8130       8240       8241       8252       8251  
      8120       8121       8132       8131       8241       8242       8253       8252  
      8121       8122       8133       8132       8242       8243       8254       8253  
      8122       8123       8134       8133       8243       8244       8255       8254  
      8123       8124       8135       8134       8244       8245       8256       8255  
      8124       8125       8136       8135       8245       8246       8257       8256  
      8125       8126       8137       8136       8246       8247       8258       8257  
      8126       8127       8138       8137       8247       8248       8259       8258  
      8127       8128       8139       8138       8248       8249       8260       8259  
      8128       8129       8140       8139       8249       8250       8261       8260  
      8130       8131       8142       8141       8251       8252       8263       8262  
      8131       8132       8143       8142       8252       8253       8264       8263  
      8132       8133       8144       8143       8253       8254       8265       8264  
      8133       8134       8145       8144       8254       8255       8266       8265  
      8134       8135       8146       8145       8255       8256       8267       8266  
      8135       8136       8147       8146       8256       8257       8268       8267  
      8136       8137       8148       8147       8257       8258       8269       8268  
      8137       8138       8149       8148       8258       8259       8270       8269  
      8138       8139       8150       8149       8259       8260       8271       8270  
      8139       8140       8151       8150       8260       8261       8272       8271  
      8141       8142       8153       8152       8262       8263       8274       8273  
      8142       8143       8154       8153       8263       8264       8275       8274  
      8143       8144       8155       8154       8264       8265       8276       8275  
      8144       8145       8156       8155       8265       8266       8277       8276  
      8145       8146       8157       8156       8266       8267       8278       8277  
      8146       8147       8158       8157       8267       8268       8279       8278  
      8147       8148       8159       8158       8268       8269       8280       8279  
      8148       8149       8160       8159       8269       8270       8281       8280  
      8149       8150       8161       8160       8270       8271       8282       8281  
      8150       8151       8162       8161       8271       8272       8283       8282  
      8152       8153       8164       8163       8273       8274       8285       8284  
      8153       8154       8165       8164       8274       8275       8286       8285  
      8154       8155       8166       8165       8275       8276       8287       8286  
      8155       8156       8167       8166       8276       8277       8288       8287  
      8156       8157       8168       8167       8277       8278       8289       8288  
      8157       8158       8169       8168       8278       8279       8290       8289  
      8158       8159       8170       8169       8279       8280       8291       8290  
      8159       8160       8171       8170       8280       8281       8292       8291  
      8160       8161       8172       8171       8281       8282       8293       8292  
      8161       8162       8173       8172       8282       8283       8294       8293  
      8163       8164       8175       8174       8284       8285       8296       8295  
      8164       8165       8176       8175       8285       8286       8297       8296  
      8165       8166       8177       8176       8286       8287       8298       8297  
      8166       8167       8178       8177       8287       8288       8299       8298  
      8167       8168       8179       8178       8288       8289       8300       8299  
      8168       8169       8180       8179       8289       8290       8301       8300  
      8169       8170       8181       8180       8290       8291       8302       8301  
      8170       8171       8182       8181       8291       8292       8303       8302  
      8171       8172       8183       8182       8292       8293       8304       8303  
      8172       8173       8184       8183       8293       8294       8305       8304  
      8174       8175       8186       8185       8295       8296       8307       8306  
      8175       8176       8187       8186       8296       8297       8308       8307  
      8176       8177       8188       8187       8297       8298       8309       8308  
      8177       8178       8189       8188       8298       8299       8310       8309  
      8178       8179       8190       8189       8299       8300       8311       8310  
      8179       8180       8191       8190       8300       8301       8312       8311  
      8180       8181       8192       8191       8301       8302       8313       8312  
      8181       8182       8193       8192       8302       8303       8314       8313  
      8182       8183       8194       8193       8303       8304       8315       8314  
      8183       8184       8195       8194       8304       8305       8316       8315  
      8185       8186       8197       8196       8306       8307       8318       8317  
      8186       8187       8198       8197       8307       8308       8319       8318  
      8187       8188       8199       8198       8308       8309       8320       8319  
      8188       8189       8200       8199       8309       8310       8321       8320  
      8189       8190       8201       8200       8310       8311       8322       8321  
      8190       8191       8202       8201       8311       8312       8323       8322  
      8191       8192       8203       8202       8312       8313       8324       8323  
      8192       8193       8204       8203       8313       8314       8325       8324  
      8193       8194       8205       8204       8314       8315       8326       8325  
      8194       8195       8206       8205       8315       8316       8327       8326  
      8196       8197       8208       8207       8317       8318       8329       8328  
      8197       8198       8209       8208       8318       8319       8330       8329  
      8198       8199       8210       8209       8319       8320       8331       8330  
      8199       8200       8211       8210       8320       8321       8332       8331  
      8200       8201       8212       8211       8321       8322       8333       8332  
      8201       8202       8213       8212       8322       8323       8334       8333  
      8202       8203       8214       8213       8323       8324       8335       8334  
      8203       8204       8215       8214       8324       8325       8336       8335  
      8204       8205       8216       8215       8325       8326       8337       8336  
      8205       8206       8217       8216       8326       8327       8338       8337  
      8207       8208       8219       8218       8328       8329       8340       8339  
      8208       8209       8220       8219       8329       8330       8341       8340  
      8209       8210       8221       8220       8330       8331       8342       8341  
      8210       8211       8222       8221       8331       8332       8343       8342  
      8211       8212       8223       8222       8332       8333       8344       8343  
      8212       8213       8224       8223       8333       8334       8345       8344  
      8213       8214       8225       8224       8334       8335       8346       8345  
      8214       8215       8226       8225       8335       8336       8347       8346  
      8215       8216       8227       8226       8336       8337       8348       8347  
      8216       8217       8228       8227       8337       8338       8349       8348  
      8229       8230       8241       8240       8350       8351       8362       8361  
      8230       8231       8242       8241       8351       8352       8363       8362  
      8231       8232       8243       8242       8352       8353       8364       8363  
      8232       8233       8244       8243       8353       8354       8365       8364  
      8233       8234       8245       8244       8354       8355       8366       8365  
      8234       8235       8246       8245       8355       8356       8367       8366  
      8235       8236       8247       8246       8356       8357       8368       8367  
      8236       8237       8248       8247       8357       8358       8369       8368  
      8237       8238       8249       8248       8358       8359       8370       8369  
      8238       8239       8250       8249       8359       8360       8371       8370  
      8240       8241       8252       8251       8361       8362       8373       8372  
      8241       8242       8253       8252       8362       8363       8374       8373  
      8242       8243       8254       8253       8363       8364       8375       8374  
      8243       8244       8255       8254       8364       8365       8376       8375  
      8244       8245       8256       8255       8365       8366       8377       8376  
      8245       8246       8257       8256       8366       8367       8378       8377  
      8246       8247       8258       8257       8367       8368       8379       8378  
      8247       8248       8259       8258       8368       8369       8380       8379  
      8248       8249       8260       8259       8369       8370       8381       8380  
      8249       8250       8261       8260       8370       8371       8382       8381  
      8251       8252       8263       8262       8372       8373       8384       8383  
      8252       8253       8264       8263       8373       8374       8385       8384  
      8253       8254       8265       8264       8374       8375       8386       8385  
      8254       8255       8266       8265       8375       8376       8387       8386  
      8255       8256       8267       8266       8376       8377       8388       8387  
      8256       8257       8268       8267       8377       8378       8389       8388  
      8257       8258       8269       8268       8378       8379       8390       8389  
      8258       8259       8270       8269       8379       8380       8391       8390  
      8259       8260       8271       8270       8380       8381       8392       8391  
      8260       8261       8272       8271       8381       8382       8393       8392  
      8262       8263       8274       8273       8383       8384       8395       8394  
      8263       8264       8275       8274       8384       8385       8396       8395  
      8264       8265       8276       8275       8385       8386       8397       8396  
      8265       8266       8277       8276       8386       8387       8398       8397  
      8266       8267       8278       8277       8387       8388       8399       8398  
      8267       8268       8279       8278       8388       8389       8400       8399  
      8268       8269       8280       8279       8389       8390       8401       8400  
      8269       8270       8281       8280       8390       8391       8402       8401  
      8270       8271       8282       8281       8391       8392       8403       8402  
      8271       8272       8283       8282       8392       8393       8404       8403  
      8273       8274       8285       8284       8394       8395       8406       8405  
      8274       8275       8286       8285       8395       8396       8407       8406  
      8275       8276       8287       8286       8396       8397       8408       8407  
      8276       8277       8288       8287       8397       8398       8409       8408  
      8277       8278       8289       8288       8398       8399       8410       8409  
      8278       8279       8290       8289       8399       8400       8411       8410  
      8279       8280       8291       8290       8400       8401       8412       8411  
      8280       8281       8292       8291       8401       8402       8413       8412  
      8281       8282       8293       8292       8402       8403       8414       8413  
      8282       8283       8294       8293       8403       8404       8415       8414  
      8284       8285       8296       8295       8405       8406       8417       8416  
      8285       8286       8297       8296       8406       8407       8418       8417  
      8286       8287       8298       8297       8407       8408       8419       8418  
      8287       8288       8299       8298       8408       8409       8420       8419  
      8288       8289       8300       8299       8409       8410       8421       8420  
      8289       8290       8301       8300       8410       8411       8422       8421  
      8290       8291       8302       8301       8411       8412       8423       8422  
      8291       8292       8303       8302       8412       8413       8424       8423  
      8292       8293       8304       8303       8413       8414       8425       8424  
      8293       8294       8305       8304       8414       8415       8426       8425  
      8295       8296       8307       8306       8416       8417       8428       8427  
      8296       8297       8308       8307       8417       8418       8429       8428  
      8297       8298       8309       8308       8418       8419       8430       8429  
      8298       8299       8310       8309       8419       8420       8431       8430  
      8299       8300       8311       8310       8420       8421       8432       8431  
      8300       8301       8312       8311       8421       8422       8433       8432  
      8301       8302       8313       8312       8422       8423       8434       8433  
      8302       8303       8314       8313       8423       8424       8435       8434  
      8303       8304       8315       8314       8424       8425       8436       8435  
      8304       8305       8316       8315       8425       8426       8437       8436  
      8306       8307       8318       8317       8427       8428       8439       8438  
      8307       8308       8319       8318       8428       8429       8440       8439  
      8308       8309       8320       8319       8429       8430       8441       8440  
      8309       8310       8321       8320       8430       8431       8442       8441  
      8310       8311       8322       8321       8431       8432       8443       8442  
      8311       8312       8323       8322       8432       8433       8444       8443  
      8312       8313       8324       8323       8433       8434       8445       8444  
      8313       8314       8325       8324       8434       8435       8446       8445  
      8314       8315       8326       8325       8435       8436       8447       8446  
      8315       8316       8327       8326       8436       8437       8448       8447  
      8317       8318       8329       8328       8438       8439       8450       8449  
      8318       8319       8330       8329       8439       8440       8451       8450  
      8319       8320       8331       8330       8440       8441       8452       8451  
      8320       8321       8332       8331       8441       8442       8453       8452  
      8321       8322       8333       8332       8442       8443       8454       8453  
      8322       8323       8334       8333       8443       8444       8455       8454  
      8323       8324       8335       8334       8444       8445       8456       8455  
      8324       8325       8336       8335       8445       8446       8457       8456  
      8325       8326       8337       8336       8446       8447       8458       8457  
      8326       8327       8338       8337       8447       8448       8459       8458  
      8328       8329       8340       8339       8449       8450       8461       8460  
      8329       8330       8341       8340       8450       8451       8462       8461  
      8330       8331       8342       8341       8451       8452       8463       8462  
      8331       8332       8343       8342       8452       8453       8464       8463  
      8332       8333       8344       8343       8453       8454       8465       8464  
      8333       8334       8345       8344       8454       8455       8466       8465  
      8334       8335       8346       8345       8455       8456       8467       8466  
      8335       8336       8347       8346       8456       8457       8468       8467  
      8336       8337       8348       8347       8457       8458       8469       8468  
      8337       8338       8349       8348       8458       8459       8470       8469  
      8350       8351       8362       8361       8471       8472       8483       8482  
      8351       8352       8363       8362       8472       8473       8484       8483  
      8352       8353       8364       8363       8473       8474       8485       8484  
      8353       8354       8365       8364       8474       8475       8486       8485  
      8354       8355       8366       8365       8475       8476       8487       8486  
      8355       8356       8367       8366       8476       8477       8488       8487  
      8356       8357       8368       8367       8477       8478       8489       8488  
      8357       8358       8369       8368       8478       8479       8490       8489  
      8358       8359       8370       8369       8479       8480       8491       8490  
      8359       8360       8371       8370       8480       8481       8492       8491  
      8361       8362       8373       8372       8482       8483       8494       8493  
      8362       8363       8374       8373       8483       8484       8495       8494  
      8363       8364       8375       8374       8484       8485       8496       8495  
      8364       8365       8376       8375       8485       8486       8497       8496  
      8365       8366       8377       8376       8486       8487       8498       8497  
      8366       8367       8378       8377       8487       8488       8499       8498  
      8367       8368       8379       8378       8488       8489       8500       8499  
      8368       8369       8380       8379       8489       8490       8501       8500  
      8369       8370       8381       8380       8490       8491       8502       8501  
      8370       8371       8382       8381       8491       8492       8503       8502  
      8372       8373       8384       8383       8493       8494       8505       8504  
      8373       8374       8385       8384       8494       8495       8506       8505  
      8374       8375       8386       8385       8495       8496       8507       8506  
      8375       8376       8387       8386       8496       8497       8508       8507  
      8376       8377       8388       8387       8497       8498       8509       8508  
      8377       8378       8389       8388       8498       8499       8510       8509  
      8378       8379       8390       8389       8499       8500       8511       8510  
      8379       8380       8391       8390       8500       8501       8512       8511  
      8380       8381       8392       8391       8501       8502       8513       8512  
      8381       8382       8393       8392       8502       8503       8514       8513  
      8383       8384       8395       8394       8504       8505       8516       8515  
      8384       8385       8396       8395       8505       8506       8517       8516  
      8385       8386       8397       8396       8506       8507       8518       8517  
      8386       8387       8398       8397       8507       8508       8519       8518  
      8387       8388       8399       8398       8508       8509       8520       8519  
      8388       8389       8400       8399       8509       8510       8521       8520  
      8389       8390       8401       8400       8510       8511       8522       8521  
      8390       8391       8402       8401       8511       8512       8523       8522  
      8391       8392       8403       8402       8512       8513       8524       8523  
      8392       8393       8404       8403       8513       8514       8525       8524  
      8394       8395       8406       8405       8515       8516       8527       8526  
      8395       8396       8407       8406       8516       8517       8528       8527  
      8396       8397       8408       8407       8517       8518       8529       8528  
      8397       8398       8409       8408       8518       8519       8530       8529  
      8398       8399       8410       8409       8519       8520       8531       8530  
      8399       8400       8411       8410       8520       8521       8532       8531  
      8400       8401       8412       8411       8521       8522       8533       8532  
      8401       8402       8413       8412       8522       8523       8534       8533  
      8402       8403       8414       8413       8523       8524       8535       8534  
      8403       8404       8415       8414       8524       8525       8536       8535  
      8405       8406       8417       8416       8526       8527       8538       8537  
      8406       8407       8418       8417       8527       8528       8539       8538  
      8407       8408       8419       8418       8528       8529       8540       8539  
      8408       8409       8420       8419       8529       8530       8541       8540  
      8409       8410       8421       8420       8530       8531       8542       8541  
      8410       8411       8422       8421       8531       8532       8543       8542  
      8411       8412       8423       8422       8532       8533       8544       8543  
      8412       8413       8424       8423       8533       8534       8545       8544  
      8413       8414       8425       8424       8534       8535       8546       8545  
      8414       8415       8426       8425       8535       8536       8547       8546  
      8416       8417       8428       8427       8537       8538       8549       8548  
      8417       8418       8429       8428       8538       8539       8550       8549  
      8418       8419       8430       8429       8539       8540       8551       8550  
      8419       8420       8431       8430       8540       8541       8552       8551  
      8420       8421       8432       8431       8541       8542       8553       8552  
      8421       8422       8433       8432       8542       8543       8554       8553  
      8422       8423       8434       8433       8543       8544       8555       8554  
      8423       8424       8435       8434       8544       8545       8556       8555  
      8424       8425       8436       8435       8545       8546       8557       8556  
      8425       8426       8437       8436       8546       8547       8558       8557  
      8427       8428       8439       8438       8548       8549       8560       8559  
      8428       8429       8440       8439       8549       8550       8561       8560  
      8429       8430       8441       8440       8550       8551       8562       8561  
      8430       8431       8442       8441       8551       8552       8563       8562  
      8431       8432       8443       8442       8552       8553       8564       8563  
      8432       8433       8444       8443       8553       8554       8565       8564  
      8433       8434       8445       8444       8554       8555       8566       8565  
      8434       8435       8446       8445       8555       8556       8567       8566  
      8435       8436       8447       8446       8556       8557       8568       8567  
      8436       8437       8448       8447       8557       8558       8569       8568  
      8438       8439       8450       8449       8559       8560       8571       8570  
      8439       8440       8451       8450       8560       8561       8572       8571  
      8440       8441       8452       8451       8561       8562       8573       8572  
      8441       8442       8453       8452       8562       8563       8574       8573  
      8442       8443       8454       8453       8563       8564       8575       8574  
      8443       8444       8455       8454       8564       8565       8576       8575  
      8444       8445       8456       8455       8565       8566       8577       8576  
      8445       8446       8457       8456       8566       8567       8578       8577  
      8446       8447       8458       8457       8567       8568       8579       8578  
      8447       8448       8459       8458       8568       8569       8580       8579  
      8449       8450       8461       8460       8570       8571       8582       8581  
      8450       8451       8462       8461       8571       8572       8583       8582  
      8451       8452       8463       8462       8572       8573       8584       8583  
      8452       8453       8464       8463       8573       8574       8585       8584  
      8453       8454       8465       8464       8574       8575       8586       8585  
      8454       8455       8466       8465       8575       8576       8587       8586  
      8455       8456       8467       8466       8576       8577       8588       8587  
      8456       8457       8468       8467       8577       8578       8589       8588  
      8457       8458       8469       8468       8578       8579       8590       8589  
      8458       8459       8470       8469       8579       8580       8591       8590  
      8471       8472       8483       8482       8592       8593       8604       8603  
      8472       8473       8484       8483       8593       8594       8605       8604  
      8473       8474       8485       8484       8594       8595       8606       8605  
      8474       8475       8486       8485       8595       8596       8607       8606  
      8475       8476       8487       8486       8596       8597       8608       8607  
      8476       8477       8488       8487       8597       8598       8609       8608  
      8477       8478       8489       8488       8598       8599       8610       8609  
      8478       8479       8490       8489       8599       8600       8611       8610  
      8479       8480       8491       8490       8600       8601       8612       8611  
      8480       8481       8492       8491       8601       8602       8613       8612  
      8482       8483       8494       8493       8603       8604       8615       8614  
      8483       8484       8495       8494       8604       8605       8616       8615  
      8484       8485       8496       8495       8605       8606       8617       8616  
      8485       8486       8497       8496       8606       8607       8618       8617  
      8486       8487       8498       8497       8607       8608       8619       8618  
      8487       8488       8499       8498       8608       8609       8620       8619  
      8488       8489       8500       8499       8609       8610       8621       8620  
      8489       8490       8501       8500       8610       8611       8622       8621  
      8490       8491       8502       8501       8611       8612       8623       8622  
      8491       8492       8503       8502       8612       8613       8624       8623  
      8493       8494       8505       8504       8614       8615       8626       8625  
      8494       8495       8506       8505       8615       8616       8627       8626  
      8495       8496       8507       8506       8616       8617       8628       8627  
      8496       8497       8508       8507       8617       8618       8629       8628  
      8497       8498       8509       8508       8618       8619       8630       8629  
      8498       8499       8510       8509       8619       8620       8631       8630  
      8499       8500       8511       8510       8620       8621       8632       8631  
      8500       8501       8512       8511       8621       8622       8633       8632  
      8501       8502       8513       8512       8622       8623       8634       8633  
      8502       8503       8514       8513       8623       8624       8635       8634  
      8504       8505       8516       8515       8625       8626       8637       8636  
      8505       8506       8517       8516       8626       8627       8638       8637  
      8506       8507       8518       8517       8627       8628       8639       8638  
      8507       8508       8519       8518       8628       8629       8640       8639  
      8508       8509       8520       8519       8629       8630       8641       8640  
      8509       8510       8521       8520       8630       8631       8642       8641  
      8510       8511       8522       8521       8631       8632       8643       8642  
      8511       8512       8523       8522       8632       8633       8644       8643  
      8512       8513       8524       8523       8633       8634       8645       8644  
      8513       8514       8525       8524       8634       8635       8646       8645  
      8515       8516       8527       8526       8636       8637       8648       8647  
      8516       8517       8528       8527       8637       8638       8649       8648  
      8517       8518       8529       8528       8638       8639       8650       8649  
      8518       8519       8530       8529       8639       8640       8651       8650  
      8519       8520       8531       8530       8640       8641       8652       8651  
      8520       8521       8532       8531       8641       8642       8653       8652  
      8521       8522       8533       8532       8642       8643       8654       8653  
      8522       8523       8534       8533       8643       8644       8655       8654  
      8523       8524       8535       8534       8644       8645       8656       8655  
      8524       8525       8536       8535       8645       8646       8657       8656  
      8526       8527       8538       8537       8647       8648       8659       8658  
      8527       8528       8539       8538       8648       8649       8660       8659  
      8528       8529       8540       8539       8649       8650       8661       8660  
      8529       8530       8541       8540       8650       8651       8662       8661  
      8530       8531       8542       8541       8651       8652       8663       8662  
      8531       8532       8543       8542       8652       8653       8664       8663  
      8532       8533       8544       8543       8653       8654       8665       8664  
      8533       8534       8545       8544       8654       8655       8666       8665  
      8534       8535       8546       8545       8655       8656       8667       8666  
      8535       8536       8547       8546       8656       8657       8668       8667  
      8537       8538       8549       8548       8658       8659       8670       8669  
      8538       8539       8550       8549       8659       8660       8671       8670  
      8539       8540       8551       8550       8660       8661       8672       8671  
      8540       8541       8552       8551       8661       8662       8673       8672  
      8541       8542       8553       8552       8662       8663       8674       8673  
      8542       8543       8554       8553       8663       8664       8675       8674  
      8543       8544       8555       8554       8664       8665       8676       8675  
      8544       8545       8556       8555       8665       8666       8677       8676  
      8545       8546       8557       8556       8666       8667       8678       8677  
      8546       8547       8558       8557       8667       8668       8679       8678  
      8548       8549       8560       8559       8669       8670       8681       8680  
      8549       8550       8561       8560       8670       8671       8682       8681  
      8550       8551       8562       8561       8671       8672       8683       8682  
      8551       8552       8563       8562       8672       8673       8684       8683  
      8552       8553       8564       8563       8673       8674       8685       8684  
      8553       8554       8565       8564       8674       8675       8686       8685  
      8554       8555       8566       8565       8675       8676       8687       8686  
      8555       8556       8567       8566       8676       8677       8688       8687  
      8556       8557       8568       8567       8677       8678       8689       8688  
      8557       8558       8569       8568       8678       8679       8690       8689  
      8559       8560       8571       8570       8680       8681       8692       8691  
      8560       8561       8572       8571       8681       8682       8693       8692  
      8561       8562       8573       8572       8682       8683       8694       8693  
      8562       8563       8574       8573       8683       8684       8695       8694  
      8563       8564       8575       8574       8684       8685       8696       8695  
      8564       8565       8576       8575       8685       8686       8697       8696  
      8565       8566       8577       8576       8686       8687       8698       8697  
      8566       8567       8578       8577       8687       8688       8699       8698  
      8567       8568       8579       8578       8688       8689       8700       8699  
      8568       8569       8580       8579       8689       8690       8701       8700  
      8570       8571       8582       8581       8691       8692       8703       8702  
      8571       8572       8583       8582       8692       8693       8704       8703  
      8572       8573       8584       8583       8693       8694       8705       8704  
      8573       8574       8585       8584       8694       8695       8706       8705  
      8574       8575       8586       8585       8695       8696       8707       8706  
      8575       8576       8587       8586       8696       8697       8708       8707  
      8576       8577       8588       8587       8697       8698       8709       8708  
      8577       8578       8589       8588       8698       8699       8710       8709  
      8578       8579       8590       8589       8699       8700       8711       8710  
      8579       8580       8591       8590       8700       8701       8712       8711  
      8592       8593       8604       8603       8713       8714       8725       8724  
      8593       8594       8605       8604       8714       8715       8726       8725  
      8594       8595       8606       8605       8715       8716       8727       8726  
      8595       8596       8607       8606       8716       8717       8728       8727  
      8596       8597       8608       8607       8717       8718       8729       8728  
      8597       8598       8609       8608       8718       8719       8730       8729  
      8598       8599       8610       8609       8719       8720       8731       8730  
      8599       8600       8611       8610       8720       8721       8732       8731  
      8600       8601       8612       8611       8721       8722       8733       8732  
      8601       8602       8613       8612       8722       8723       8734       8733  
      8603       8604       8615       8614       8724       8725       8736       8735  
      8604       8605       8616       8615       8725       8726       8737       8736  
      8605       8606       8617       8616       8726       8727       8738       8737  
      8606       8607       8618       8617       8727       8728       8739       8738  
      8607       8608       8619       8618       8728       8729       8740       8739  
      8608       8609       8620       8619       8729       8730       8741       8740  
      8609       8610       8621       8620       8730       8731       8742       8741  
      8610       8611       8622       8621       8731       8732       8743       8742  
      8611       8612       8623       8622       8732       8733       8744       8743  
      8612       8613       8624       8623       8733       8734       8745       8744  
      8614       8615       8626       8625       8735       8736       8747       8746  
      8615       8616       8627       8626       8736       8737       8748       8747  
      8616       8617       8628       8627       8737       8738       8749       8748  
      8617       8618       8629       8628       8738       8739       8750       8749  
      8618       8619       8630       8629       8739       8740       8751       8750  
      8619       8620       8631       8630       8740       8741       8752       8751  
      8620       8621       8632       8631       8741       8742       8753       8752  
      8621       8622       8633       8632       8742       8743       8754       8753  
      8622       8623       8634       8633       8743       8744       8755       8754  
      8623       8624       8635       8634       8744       8745       8756       8755  
      8625       8626       8637       8636       8746       8747       8758       8757  
      8626       8627       8638       8637       8747       8748       8759       8758  
      8627       8628       8639       8638       8748       8749       8760       8759  
      8628       8629       8640       8639       8749       8750       8761       8760  
      8629       8630       8641       8640       8750       8751       8762       8761  
      8630       8631       8642       8641       8751       8752       8763       8762  
      8631       8632       8643       8642       8752       8753       8764       8763  
      8632       8633       8644       8643       8753       8754       8765       8764  
      8633       8634       8645       8644       8754       8755       8766       8765  
      8634       8635       8646       8645       8755       8756       8767       8766  
      8636       8637       8648       8647       8757       8758       8769       8768  
      8637       8638       8649       8648       8758       8759       8770       8769  
      8638       8639       8650       8649       8759       8760       8771       8770  
      8639       8640       8651       8650       8760       8761       8772       8771  
      8640       8641       8652       8651       8761       8762       8773       8772  
      8641       8642       8653       8652       8762       8763       8774       8773  
      8642       8643       8654       8653       8763       8764       8775       8774  
      8643       8644       8655       8654       8764       8765       8776       8775  
      8644       8645       8656       8655       8765       8766       8777       8776  
      8645       8646       8657       8656       8766       8767       8778       8777  
      8647       8648       8659       8658       8768       8769       8780       8779  
      8648       8649       8660       8659       8769       8770       8781       8780  
      8649       8650       8661       8660       8770       8771       8782       8781  
      8650       8651       8662       8661       8771       8772       8783       8782  
      8651       8652       8663       8662       8772       8773       8784       8783  
      8652       8653       8664       8663       8773       8774       8785       8784  
      8653       8654       8665       8664       8774       8775       8786       8785  
      8654       8655       8666       8665       8775       8776       8787       8786  
      8655       8656       8667       8666       8776       8777       8788       8787  
      8656       8657       8668       8667       8777       8778       8789       8788  
      8658       8659       8670       8669       8779       8780       8791       8790  
      8659       8660       8671       8670       8780       8781       8792       8791  
      8660       8661       8672       8671       8781       8782       8793       8792  
      8661       8662       8673       8672       8782       8783       8794       8793  
      8662       8663       8674       8673       8783       8784       8795       8794  
      8663       8664       8675       8674       8784       8785       8796       8795  
      8664       8665       8676       8675       8785       8786       8797       8796  
      8665       8666       8677       8676       8786       8787       8798       8797  
      8666       8667       8678       8677       8787       8788       8799       8798  
      8667       8668       8679       8678       8788       8789       8800       8799  
      8669       8670       8681       8680       8790       8791       8802       8801  
      8670       8671       8682       8681       8791       8792       8803       8802  
      8671       8672       8683       8682       8792       8793       8804       8803  
      8672       8673       8684       8683       8793       8794       8805       8804  
      8673       8674       8685       8684       8794       8795       8806       8805  
      8674       8675       8686       8685       8795       8796       8807       8806  
      8675       8676       8687       8686       8796       8797       8808       8807  
      8676       8677       8688       8687       8797       8798       8809       8808  
      8677       8678       8689       8688       8798       8799       8810       8809  
      8678       8679       8690       8689       8799       8800       8811       8810  
      8680       8681       8692       8691       8801       8802       8813       8812  
      8681       8682       8693       8692       8802       8803       8814       8813  
      8682       8683       8694       8693       8803       8804       8815       8814  
      8683       8684       8695       8694       8804       8805       8816       8815  
      8684       8685       8696       8695       8805       8806       8817       8816  
      8685       8686       8697       8696       8806       8807       8818       8817  
      8686       8687       8698       8697       8807       8808       8819       8818  
      8687       8688       8699       8698       8808       8809       8820       8819  
      8688       8689       8700       8699       8809       8810       8821       8820  
      8689       8690       8701       8700       8810       8811       8822       8821  
      8691       8692       8703       8702       8812       8813       8824       8823  
      8692       8693       8704       8703       8813       8814       8825       8824  
      8693       8694       8705       8704       8814       8815       8826       8825  
      8694       8695       8706       8705       8815       8816       8827       8826  
      8695       8696       8707       8706       8816       8817       8828       8827  
      8696       8697       8708       8707       8817       8818       8829       8828  
      8697       8698       8709       8708       8818       8819       8830       8829  
      8698       8699       8710       8709       8819       8820       8831       8830  
      8699       8700       8711       8710       8820       8821       8832       8831  
      8700       8701       8712       8711       8821       8822       8833       8832  
      8713       8714       8725       8724       8834       8835       8846       8845  
      8714       8715       8726       8725       8835       8836       8847       8846  
      8715       8716       8727       8726       8836       8837       8848       8847  
      8716       8717       8728       8727       8837       8838       8849       8848  
      8717       8718       8729       8728       8838       8839       8850       8849  
      8718       8719       8730       8729       8839       8840       8851       8850  
      8719       8720       8731       8730       8840       8841       8852       8851  
      8720       8721       8732       8731       8841       8842       8853       8852  
      8721       8722       8733       8732       8842       8843       8854       8853  
      8722       8723       8734       8733       8843       8844       8855       8854  
      8724       8725       8736       8735       8845       8846       8857       8856  
      8725       8726       8737       8736       8846       8847       8858       8857  
      8726       8727       8738       8737       8847       8848       8859       8858  
      8727       8728       8739       8738       8848       8849       8860       8859  
      8728       8729       8740       8739       8849       8850       8861       8860  
      8729       8730       8741       8740       8850       8851       8862       8861  
      8730       8731       8742       8741       8851       8852       8863       8862  
      8731       8732       8743       8742       8852       8853       8864       8863  
      8732       8733       8744       8743       8853       8854       8865       8864  
      8733       8734       8745       8744       8854       8855       8866       8865  
      8735       8736       8747       8746       8856       8857       8868       8867  
      8736       8737       8748       8747       8857       8858       8869       8868  
      8737       8738       8749       8748       8858       8859       8870       8869  
      8738       8739       8750       8749       8859       8860       8871       8870  
      8739       8740       8751       8750       8860       8861       8872       8871  
      8740       8741       8752       8751       8861       8862       8873       8872  
      8741       8742       8753       8752       8862       8863       8874       8873  
      8742       8743       8754       8753       8863       8864       8875       8874  
      8743       8744       8755       8754       8864       8865       8876       8875  
      8744       8745       8756       8755       8865       8866       8877       8876  
      8746       8747       8758       8757       8867       8868       8879       8878  
      8747       8748       8759       8758       8868       8869       8880       8879  
      8748       8749       8760       8759       8869       8870       8881       8880  
      8749       8750       8761       8760       8870       8871       8882       8881  
      8750       8751       8762       8761       8871       8872       8883       8882  
      8751       8752       8763       8762       8872       8873       8884       8883  
      8752       8753       8764       8763       8873       8874       8885       8884  
      8753       8754       8765       8764       8874       8875       8886       8885  
      8754       8755       8766       8765       8875       8876       8887       8886  
      8755       8756       8767       8766       8876       8877       8888       8887  
      8757       8758       8769       8768       8878       8879       8890       8889  
      8758       8759       8770       8769       8879       8880       8891       8890  
      8759       8760       8771       8770       8880       8881       8892       8891  
      8760       8761       8772       8771       8881       8882       8893       8892  
      8761       8762       8773       8772       8882       8883       8894       8893  
      8762       8763       8774       8773       8883       8884       8895       8894  
      8763       8764       8775       8774       8884       8885       8896       8895  
      8764       8765       8776       8775       8885       8886       8897       8896  
      8765       8766       8777       8776       8886       8887       8898       8897  
      8766       8767       8778       8777       8887       8888       8899       8898  
      8768       8769       8780       8779       8889       8890       8901       8900  
      8769       8770       8781       8780       8890       8891       8902       8901  
      8770       8771       8782       8781       8891       8892       8903       8902  
      8771       8772       8783       8782       8892       8893       8904       8903  
      8772       8773       8784       8783       8893       8894       8905       8904  
      8773       8774       8785       8784       8894       8895       8906       8905  
      8774       8775       8786       8785       8895       8896       8907       8906  
      8775       8776       8787       8786       8896       8897       8908       8907  
      8776       8777       8788       8787       8897       8898       8909       8908  
      8777       8778       8789       8788       8898       8899       8910       8909  
      8779       8780       8791       8790       8900       8901       8912       8911  
      8780       8781       8792       8791       8901       8902       8913       8912  
      8781       8782       8793       8792       8902       8903       8914       8913  
      8782       8783       8794       8793       8903       8904       8915       8914  
      8783       8784       8795       8794       8904       8905       8916       8915  
      8784       8785       8796       8795       8905       8906       8917       8916  
      8785       8786       8797       8796       8906       8907       8918       8917  
      8786       8787       8798       8797       8907       8908       8919       8918  
      8787       8788       8799       8798       8908       8909       8920       8919  
      8788       8789       8800       8799       8909       8910       8921       8920  
      8790       8791       8802       8801       8911       8912       8923       8922  
      8791       8792       8803       8802       8912       8913       8924       8923  
      8792       8793       8804       8803       8913       8914       8925       8924  
      8793       8794       8805       8804       8914       8915       8926       8925  
      8794       8795       8806       8805       8915       8916       8927       8926  
      8795       8796       8807       8806       8916       8917       8928       8927  
      8796       8797       8808       8807       8917       8918       8929       8928  
      8797       8798       8809       8808       8918       8919       8930       8929  
      8798       8799       8810       8809       8919       8920       8931       8930  
      8799       8800       8811       8810       8920       8921       8932       8931  
      8801       8802       8813       8812       8922       8923       8934       8933  
      8802       8803       8814       8813       8923       8924       8935       8934  
      8803       8804       8815       8814       8924       8925       8936       8935  
      8804       8805       8816       8815       8925       8926       8937       8936  
      8805       8806       8817       8816       8926       8927       8938       8937  
      8806       8807       8818       8817       8927       8928       8939       8938  
      8807       8808       8819       8818       8928       8929       8940       8939  
      8808       8809       8820       8819       8929       8930       8941       8940  
      8809       8810       8821       8820       8930       8931       8942       8941  
      8810       8811       8822       8821       8931       8932       8943       8942  
      8812       8813       8824       8823       8933       8934       8945       8944  
      8813       8814       8825       8824       8934       8935       8946       8945  
      8814       8815       8826       8825       8935       8936       8947       8946  
      8815       8816       8827       8826       8936       8937       8948       8947  
      8816       8817       8828       8827       8937       8938       8949       8948  
      8817       8818       8829       8828       8938       8939       8950       8949  
      8818       8819       8830       8829       8939       8940       8951       8950  
      8819       8820       8831       8830       8940       8941       8952       8951  
      8820       8821       8832       8831       8941       8942       8953       8952  
      8821       8822       8833       8832       8942       8943       8954       8953  
      8834       8835       8846       8845       8955       8956       8967       8966  
      8835       8836       8847       8846       8956       8957       8968       8967  
      8836       8837       8848       8847       8957       8958       8969       8968  
      8837       8838       8849       8848       8958       8959       8970       8969  
      8838       8839       8850       8849       8959       8960       8971       8970  
      8839       8840       8851       8850       8960       8961       8972       8971  
      8840       8841       8852       8851       8961       8962       8973       8972  
      8841       8842       8853       8852       8962       8963       8974       8973  
      8842       8843       8854       8853       8963       8964       8975       8974  
      8843       8844       8855       8854       8964       8965       8976       8975  
      8845       8846       8857       8856       8966       8967       8978       8977  
      8846       8847       8858       8857       8967       8968       8979       8978  
      8847       8848       8859       8858       8968       8969       8980       8979  
      8848       8849       8860       8859       8969       8970       8981       8980  
      8849       8850       8861       8860       8970       8971       8982       8981  
      8850       8851       8862       8861       8971       8972       8983       8982  
      8851       8852       8863       8862       8972       8973       8984       8983  
      8852       8853       8864       8863       8973       8974       8985       8984  
      8853       8854       8865       8864       8974       8975       8986       8985  
      8854       8855       8866       8865       8975       8976       8987       8986  
      8856       8857       8868       8867       8977       8978       8989       8988  
      8857       8858       8869       8868       8978       8979       8990       8989  
      8858       8859       8870       8869       8979       8980       8991       8990  
      8859       8860       8871       8870       8980       8981       8992       8991  
      8860       8861       8872       8871       8981       8982       8993       8992  
      8861       8862       8873       8872       8982       8983       8994       8993  
      8862       8863       8874       8873       8983       8984       8995       8994  
      8863       8864       8875       8874       8984       8985       8996       8995  
      8864       8865       8876       8875       8985       8986       8997       8996  
      8865       8866       8877       8876       8986       8987       8998       8997  
      8867       8868       8879       8878       8988       8989       9000       8999  
      8868       8869       8880       8879       8989       8990       9001       9000  
      8869       8870       8881       8880       8990       8991       9002       9001  
      8870       8871       8882       8881       8991       8992       9003       9002  
      8871       8872       8883       8882       8992       8993       9004       9003  
      8872       8873       8884       8883       8993       8994       9005       9004  
      8873       8874       8885       8884       8994       8995       9006       9005  
      8874       8875       8886       8885       8995       8996       9007       9006  
      8875       8876       8887       8886       8996       8997       9008       9007  
      8876       8877       8888       8887       8997       8998       9009       9008  
      8878       8879       8890       8889       8999       9000       9011       9010  
      8879       8880       8891       8890       9000       9001       9012       9011  
      8880       8881       8892       8891       9001       9002       9013       9012  
      8881       8882       8893       8892       9002       9003       9014       9013  
      8882       8883       8894       8893       9003       9004       9015       9014  
      8883       8884       8895       8894       9004       9005       9016       9015  
      8884       8885       8896       8895       9005       9006       9017       9016  
      8885       8886       8897       8896       9006       9007       9018       9017  
      8886       8887       8898       8897       9007       9008       9019       9018  
      8887       8888       8899       8898       9008       9009       9020       9019  
      8889       8890       8901       8900       9010       9011       9022       9021  
      8890       8891       8902       8901       9011       9012       9023       9022  
      8891       8892       8903       8902       9012       9013       9024       9023  
      8892       8893       8904       8903       9013       9014       9025       9024  
      8893       8894       8905       8904       9014       9015       9026       9025  
      8894       8895       8906       8905       9015       9016       9027       9026  
      8895       8896       8907       8906       9016       9017       9028       9027  
      8896       8897       8908       8907       9017       9018       9029       9028  
      8897       8898       8909       8908       9018       9019       9030       9029  
      8898       8899       8910       8909       9019       9020       9031       9030  
      8900       8901       8912       8911       9021       9022       9033       9032  
      8901       8902       8913       8912       9022       9023       9034       9033  
      8902       8903       8914       8913       9023       9024       9035       9034  
      8903       8904       8915       8914       9024       9025       9036       9035  
      8904       8905       8916       8915       9025       9026       9037       9036  
      8905       8906       8917       8916       9026       9027       9038       9037  
      8906       8907       8918       8917       9027       9028       9039       9038  
      8907       8908       8919       8918       9028       9029       9040       9039  
      8908       8909       8920       8919       9029       9030       9041       9040  
      8909       8910       8921       8920       9030       9031       9042       9041  
      8911       8912       8923       8922       9032       9033       9044       9043  
      8912       8913       8924       8923       9033       9034       9045       9044  
      8913       8914       8925       8924       9034       9035       9046       9045  
      8914       8915       8926       8925       9035       9036       9047       9046  
      8915       8916       8927       8926       9036       9037       9048       9047  
      8916       8917       8928       8927       9037       9038       9049       9048  
      8917       8918       8929       8928       9038       9039       9050       9049  
      8918       8919       8930       8929       9039       9040       9051       9050  
      8919       8920       8931       8930       9040       9041       9052       9051  
      8920       8921       8932       8931       9041       9042       9053       9052  
      8922       8923       8934       8933       9043       9044       9055       9054  
      8923       8924       8935       8934       9044       9045       9056       9055  
      8924       8925       8936       8935       9045       9046       9057       9056  
      8925       8926       8937       8936       9046       9047       9058       9057  
      8926       8927       8938       8937       9047       9048       9059       9058  
      8927       8928       8939       8938       9048       9049       9060       9059  
      8928       8929       8940       8939       9049       9050       9061       9060  
      8929       8930       8941       8940       9050       9051       9062       9061  
      8930       8931       8942       8941       9051       9052       9063       9062  
      8931       8932       8943       8942       9052       9053       9064       9063  
      8933       8934       8945       8944       9054       9055       9066       9065  
      8934       8935       8946       8945       9055       9056       9067       9066  
      8935       8936       8947       8946       9056       9057       9068       9067  
      8936       8937       8948       8947       9057       9058       9069       9068  
      8937       8938       8949       8948       9058       9059       9070       9069  
      8938       8939       8950       8949       9059       9060       9071       9070  
      8939       8940       8951       8950       9060       9061       9072       9071  
      8940       8941       8952       8951       9061       9062       9073       9072  
      8941       8942       8953       8952       9062       9063       9074       9073  
      8942       8943       8954       8953       9063       9064       9075       9074  
      8955       8956       8967       8966       9076       9077       9088       9087  
      8956       8957       8968       8967       9077       9078       9089       9088  
      8957       8958       8969       8968       9078       9079       9090       9089  
      8958       8959       8970       8969       9079       9080       9091       9090  
      8959       8960       8971       8970       9080       9081       9092       9091  
      8960       8961       8972       8971       9081       9082       9093       9092  
      8961       8962       8973       8972       9082       9083       9094       9093  
      8962       8963       8974       8973       9083       9084       9095       9094  
      8963       8964       8975       8974       9084       9085       9096       9095  
      8964       8965       8976       8975       9085       9086       9097       9096  
      8966       8967       8978       8977       9087       9088       9099       9098  
      8967       8968       8979       8978       9088       9089       9100       9099  
      8968       8969       8980       8979       9089       9090       9101       9100  
      8969       8970       8981       8980       9090       9091       9102       9101  
      8970       8971       8982       8981       9091       9092       9103       9102  
      8971       8972       8983       8982       9092       9093       9104       9103  
      8972       8973       8984       8983       9093       9094       9105       9104  
      8973       8974       8985       8984       9094       9095       9106       9105  
      8974       8975       8986       8985       9095       9096       9107       9106  
      8975       8976       8987       8986       9096       9097       9108       9107  
      8977       8978       8989       8988       9098       9099       9110       9109  
      8978       8979       8990       8989       9099       9100       9111       9110  
      8979       8980       8991       8990       9100       9101       9112       9111  
      8980       8981       8992       8991       9101       9102       9113       9112  
      8981       8982       8993       8992       9102       9103       9114       9113  
      8982       8983       8994       8993       9103       9104       9115       9114  
      8983       8984       8995       8994       9104       9105       9116       9115  
      8984       8985       8996       8995       9105       9106       9117       9116  
      8985       8986       8997       8996       9106       9107       9118       9117  
      8986       8987       8998       8997       9107       9108       9119       9118  
      8988       8989       9000       8999       9109       9110       9121       9120  
      8989       8990       9001       9000       9110       9111       9122       9121  
      8990       8991       9002       9001       9111       9112       9123       9122  
      8991       8992       9003       9002       9112       9113       9124       9123  
      8992       8993       9004       9003       9113       9114       9125       9124  
      8993       8994       9005       9004       9114       9115       9126       9125  
      8994       8995       9006       9005       9115       9116       9127       9126  
      8995       8996       9007       9006       9116       9117       9128       9127  
      8996       8997       9008       9007       9117       9118       9129       9128  
      8997       8998       9009       9008       9118       9119       9130       9129  
      8999       9000       9011       9010       9120       9121       9132       9131  
      9000       9001       9012       9011       9121       9122       9133       9132  
      9001       9002       9013       9012       9122       9123       9134       9133  
      9002       9003       9014       9013       9123       9124       9135       9134  
      9003       9004       9015       9014       9124       9125       9136       9135  
      9004       9005       9016       9015       9125       9126       9137       9136  
      9005       9006       9017       9016       9126       9127       9138       9137  
      9006       9007       9018       9017       9127       9128       9139       9138  
      9007       9008       9019       9018       9128       9129       9140       9139  
      9008       9009       9020       9019       9129       9130       9141       9140  
      9010       9011       9022       9021       9131       9132       9143       9142  
      9011       9012       9023       9022       9132       9133       9144       9143  
      9012       9013       9024       9023       9133       9134       9145       9144  
      9013       9014       9025       9024       9134       9135       9146       9145  
      9014       9015       9026       9025       9135       9136       9147       9146  
      9015       9016       9027       9026       9136       9137       9148       9147  
      9016       9017       9028       9027       9137       9138       9149       9148  
      9017       9018       9029       9028       9138       9139       9150       9149  
      9018       9019       9030       9029       9139       9140       9151       9150  
      9019       9020       9031       9030       9140       9141       9152       9151  
      9021       9022       9033       9032       9142       9143       9154       9153  
      9022       9023       9034       9033       9143       9144       9155       9154  
      9023       9024       9035       9034       9144       9145       9156       9155  
      9024       9025       9036       9035       9145       9146       9157       9156  
      9025       9026       9037       9036       9146       9147       9158       9157  
      9026       9027       9038       9037       9147       9148       9159       9158  
      9027       9028       9039       9038       9148       9149       9160       9159  
      9028       9029       9040       9039       9149       9150       9161       9160  
      9029       9030       9041       9040       9150       9151       9162       9161  
      9030       9031       9042       9041       9151       9152       9163       9162  
      9032       9033       9044       9043       9153       9154       9165       9164  
      9033       9034       9045       9044       9154       9155       9166       9165  
      9034       9035       9046       9045       9155       9156       9167       9166  
      9035       9036       9047       9046       9156       9157       9168       9167  
      9036       9037       9048       9047       9157       9158       9169       9168  
      9037       9038       9049       9048       9158       9159       9170       9169  
      9038       9039       9050       9049       9159       9160       9171       9170  
      9039       9040       9051       9050       9160       9161       9172       9171  
      9040       9041       9052       9051       9161       9162       9173       9172  
      9041       9042       9053       9052       9162       9163       9174       9173  
      9043       9044       9055       9054       9164       9165       9176       9175  
      9044       9045       9056       9055       9165       9166       9177       9176  
      9045       9046       9057       9056       9166       9167       9178       9177  
      9046       9047       9058       9057       9167       9168       9179       9178  
      9047       9048       9059       9058       9168       9169       9180       9179  
      9048       9049       9060       9059       9169       9170       9181       9180  
      9049       9050       9061       9060       9170       9171       9182       9181  
      9050       9051       9062       9061       9171       9172       9183       9182  
      9051       9052       9063       9062       9172       9173       9184       9183  
      9052       9053       9064       9063       9173       9174       9185       9184  
      9054       9055       9066       9065       9175       9176       9187       9186  
      9055       9056       9067       9066       9176       9177       9188       9187  
      9056       9057       9068       9067       9177       9178       9189       9188  
      9057       9058       9069       9068       9178       9179       9190       9189  
      9058       9059       9070       9069       9179       9180       9191       9190  
      9059       9060       9071       9070       9180       9181       9192       9191  
      9060       9061       9072       9071       9181       9182       9193       9192  
      9061       9062       9073       9072       9182       9183       9194       9193  
      9062       9063       9074       9073       9183       9184       9195       9194  
      9063       9064       9075       9074       9184       9185       9196       9195  
      9076       9077       9088       9087       9197       9198       9209       9208  
      9077       9078       9089       9088       9198       9199       9210       9209  
      9078       9079       9090       9089       9199       9200       9211       9210  
      9079       9080       9091       9090       9200       9201       9212       9211  
      9080       9081       9092       9091       9201       9202       9213       9212  
      9081       9082       9093       9092       9202       9203       9214       9213  
      9082       9083       9094       9093       9203       9204       9215       9214  
      9083       9084       9095       9094       9204       9205       9216       9215  
      9084       9085       9096       9095       9205       9206       9217       9216  
      9085       9086       9097       9096       9206       9207       9218       9217  
      9087       9088       9099       9098       9208       9209       9220       9219  
      9088       9089       9100       9099       9209       9210       9221       9220  
      9089       9090       9101       9100       9210       9211       9222       9221  
      9090       9091       9102       9101       9211       9212       9223       9222  
      9091       9092       9103       9102       9212       9213       9224       9223  
      9092       9093       9104       9103       9213       9214       9225       9224  
      9093       9094       9105       9104       9214       9215       9226       9225  
      9094       9095       9106       9105       9215       9216       9227       9226  
      9095       9096       9107       9106       9216       9217       9228       9227  
      9096       9097       9108       9107       9217       9218       9229       9228  
      9098       9099       9110       9109       9219       9220       9231       9230  
      9099       9100       9111       9110       9220       9221       9232       9231  
      9100       9101       9112       9111       9221       9222       9233       9232  
      9101       9102       9113       9112       9222       9223       9234       9233  
      9102       9103       9114       9113       9223       9224       9235       9234  
      9103       9104       9115       9114       9224       9225       9236       9235  
      9104       9105       9116       9115       9225       9226       9237       9236  
      9105       9106       9117       9116       9226       9227       9238       9237  
      9106       9107       9118       9117       9227       9228       9239       9238  
      9107       9108       9119       9118       9228       9229       9240       9239  
      9109       9110       9121       9120       9230       9231       9242       9241  
      9110       9111       9122       9121       9231       9232       9243       9242  
      9111       9112       9123       9122       9232       9233       9244       9243  
      9112       9113       9124       9123       9233       9234       9245       9244  
      9113       9114       9125       9124       9234       9235       9246       9245  
      9114       9115       9126       9125       9235       9236       9247       9246  
      9115       9116       9127       9126       9236       9237       9248       9247  
      9116       9117       9128       9127       9237       9238       9249       9248  
      9117       9118       9129       9128       9238       9239       9250       9249  
      9118       9119       9130       9129       9239       9240       9251       9250  
      9120       9121       9132       9131       9241       9242       9253       9252  
      9121       9122       9133       9132       9242       9243       9254       9253  
      9122       9123       9134       9133       9243       9244       9255       9254  
      9123       9124       9135       9134       9244       9245       9256       9255  
      9124       9125       9136       9135       9245       9246       9257       9256  
      9125       9126       9137       9136       9246       9247       9258       9257  
      9126       9127       9138       9137       9247       9248       9259       9258  
      9127       9128       9139       9138       9248       9249       9260       9259  
      9128       9129       9140       9139       9249       9250       9261       9260  
      9129       9130       9141       9140       9250       9251       9262       9261  
      9131       9132       9143       9142       9252       9253       9264       9263  
      9132       9133       9144       9143       9253       9254       9265       9264  
      9133       9134       9145       9144       9254       9255       9266       9265  
      9134       9135       9146       9145       9255       9256       9267       9266  
      9135       9136       9147       9146       9256       9257       9268       9267  
      9136       9137       9148       9147       9257       9258       9269       9268  
      9137       9138       9149       9148       9258       9259       9270       9269  
      9138       9139       9150       9149       9259       9260       9271       9270  
      9139       9140       9151       9150       9260       9261       9272       9271  
      9140       9141       9152       9151       9261       9262       9273       9272  
      9142       9143       9154       9153       9263       9264       9275       9274  
      9143       9144       9155       9154       9264       9265       9276       9275  
      9144       9145       9156       9155       9265       9266       9277       9276  
      9145       9146       9157       9156       9266       9267       9278       9277  
      9146       9147       9158       9157       9267       9268       9279       9278  
      9147       9148       9159       9158       9268       9269       9280       9279  
      9148       9149       9160       9159       9269       9270       9281       9280  
      9149       9150       9161       9160       9270       9271       9282       9281  
      9150       9151       9162       9161       9271       9272       9283       9282  
      9151       9152       9163       9162       9272       9273       9284       9283  
      9153       9154       9165       9164       9274       9275       9286       9285  
      9154       9155       9166       9165       9275       9276       9287       9286  
      9155       9156       9167       9166       9276       9277       9288       9287  
      9156       9157       9168       9167       9277       9278       9289       9288  
      9157       9158       9169       9168       9278       9279       9290       9289  
      9158       9159       9170       9169       9279       9280       9291       9290  
      9159       9160       9171       9170       9280       9281       9292       9291  
      9160       9161       9172       9171       9281       9282       9293       9292  
      9161       9162       9173       9172       9282       9283       9294       9293  
      9162       9163       9174       9173       9283       9284       9295       9294  
      9164       9165       9176       9175       9285       9286       9297       9296  
      9165       9166       9177       9176       9286       9287       9298       9297  
      9166       9167       9178       9177       9287       9288       9299       9298  
      9167       9168       9179       9178       9288       9289       9300       9299  
      9168       9169       9180       9179       9289       9290       9301       9300  
      9169       9170       9181       9180       9290       9291       9302       9301  
      9170       9171       9182       9181       9291       9292       9303       9302  
      9171       9172       9183       9182       9292       9293       9304       9303  
      9172       9173       9184       9183       9293       9294       9305       9304  
      9173       9174       9185       9184       9294       9295       9306       9305  
      9175       9176       9187       9186       9296       9297       9308       9307  
      9176       9177       9188       9187       9297       9298       9309       9308  
      9177       9178       9189       9188       9298       9299       9310       9309  
      9178       9179       9190       9189       9299       9300       9311       9310  
      9179       9180       9191       9190       9300       9301       9312       9311  
      9180       9181       9192       9191       9301       9302       9313       9312  
      9181       9182       9193       9192       9302       9303       9314       9313  
      9182       9183       9194       9193       9303       9304       9315       9314  
      9183       9184       9195       9194       9304       9305       9316       9315  
      9184       9185       9196       9195       9305       9306       9317       9316  
      9197       9198       9209       9208       9318       9319       9330       9329  
      9198       9199       9210       9209       9319       9320       9331       9330  
      9199       9200       9211       9210       9320       9321       9332       9331  
      9200       9201       9212       9211       9321       9322       9333       9332  
      9201       9202       9213       9212       9322       9323       9334       9333  
      9202       9203       9214       9213       9323       9324       9335       9334  
      9203       9204       9215       9214       9324       9325       9336       9335  
      9204       9205       9216       9215       9325       9326       9337       9336  
      9205       9206       9217       9216       9326       9327       9338       9337  
      9206       9207       9218       9217       9327       9328       9339       9338  
      9208       9209       9220       9219       9329       9330       9341       9340  
      9209       9210       9221       9220       9330       9331       9342       9341  
      9210       9211       9222       9221       9331       9332       9343       9342  
      9211       9212       9223       9222       9332       9333       9344       9343  
      9212       9213       9224       9223       9333       9334       9345       9344  
      9213       9214       9225       9224       9334       9335       9346       9345  
      9214       9215       9226       9225       9335       9336       9347       9346  
      9215       9216       9227       9226       9336       9337       9348       9347  
      9216       9217       9228       9227       9337       9338       9349       9348  
      9217       9218       9229       9228       9338       9339       9350       9349  
      9219       9220       9231       9230       9340       9341       9352       9351  
      9220       9221       9232       9231       9341       9342       9353       9352  
      9221       9222       9233       9232       9342       9343       9354       9353  
      9222       9223       9234       9233       9343       9344       9355       9354  
      9223       9224       9235       9234       9344       9345       9356       9355  
      9224       9225       9236       9235       9345       9346       9357       9356  
      9225       9226       9237       9236       9346       9347       9358       9357  
      9226       9227       9238       9237       9347       9348       9359       9358  
      9227       9228       9239       9238       9348       9349       9360       9359  
      9228       9229       9240       9239       9349       9350       9361       9360  
      9230       9231       9242       9241       9351       9352       9363       9362  
      9231       9232       9243       9242       9352       9353       9364       9363  
      9232       9233       9244       9243       9353       9354       9365       9364  
      9233       9234       9245       9244       9354       9355       9366       9365  
      9234       9235       9246       9245       9355       9356       9367       9366  
      9235       9236       9247       9246       9356       9357       9368       9367  
      9236       9237       9248       9247       9357       9358       9369       9368  
      9237       9238       9249       9248       9358       9359       9370       9369  
      9238       9239       9250       9249       9359       9360       9371       9370  
      9239       9240       9251       9250       9360       9361       9372       9371  
      9241       9242       9253       9252       9362       9363       9374       9373  
      9242       9243       9254       9253       9363       9364       9375       9374  
      9243       9244       9255       9254       9364       9365       9376       9375  
      9244       9245       9256       9255       9365       9366       9377       9376  
      9245       9246       9257       9256       9366       9367       9378       9377  
      9246       9247       9258       9257       9367       9368       9379       9378  
      9247       9248       9259       9258       9368       9369       9380       9379  
      9248       9249       9260       9259       9369       9370       9381       9380  
      9249       9250       9261       9260       9370       9371       9382       9381  
      9250       9251       9262       9261       9371       9372       9383       9382  
      9252       9253       9264       9263       9373       9374       9385       9384  
      9253       9254       9265       9264       9374       9375       9386       9385  
      9254       9255       9266       9265       9375       9376       9387       9386  
      9255       9256       9267       9266       9376       9377       9388       9387  
      9256       9257       9268       9267       9377       9378       9389       9388  
      9257       9258       9269       9268       9378       9379       9390       9389  
      9258       9259       9270       9269       9379       9380       9391       9390  
      9259       9260       9271       9270       9380       9381       9392       9391  
      9260       9261       9272       9271       9381       9382       9393       9392  
      9261       9262       9273       9272       9382       9383       9394       9393  
      9263       9264       9275       9274       9384       9385       9396       9395  
      9264       9265       9276       9275       9385       9386       9397       9396  
      9265       9266       9277       9276       9386       9387       9398       9397  
      9266       9267       9278       9277       9387       9388       9399       9398  
      9267       9268       9279       9278       9388       9389       9400       9399  
      9268       9269       9280       9279       9389       9390       9401       9400  
      9269       9270       9281       9280       9390       9391       9402       9401  
      9270       9271       9282       9281       9391       9392       9403       9402  
      9271       9272       9283       9282       9392       9393       9404       9403  
      9272       9273       9284       9283       9393       9394       9405       9404  
      9274       9275       9286       9285       9395       9396       9407       9406  
      9275       9276       9287       9286       9396       9397       9408       9407  
      9276       9277       9288       9287       9397       9398       9409       9408  
      9277       9278       9289       9288       9398       9399       9410       9409  
      9278       9279       9290       9289       9399       9400       9411       9410  
      9279       9280       9291       9290       9400       9401       9412       9411  
      9280       9281       9292       9291       9401       9402       9413       9412  
      9281       9282       9293       9292       9402       9403       9414       9413  
      9282       9283       9294       9293       9403       9404       9415       9414  
      9283       9284       9295       9294       9404       9405       9416       9415  
      9285       9286       9297       9296       9406       9407       9418       9417  
      9286       9287       9298       9297       9407       9408       9419       9418  
      9287       9288       9299       9298       9408       9409       9420       9419  
      9288       9289       9300       9299       9409       9410       9421       9420  
      9289       9290       9301       9300       9410       9411       9422       9421  
      9290       9291       9302       9301       9411       9412       9423       9422  
      9291       9292       9303       9302       9412       9413       9424       9423  
      9292       9293       9304       9303       9413       9414       9425       9424  
      9293       9294       9305       9304       9414       9415       9426       9425  
      9294       9295       9306       9305       9415       9416       9427       9426  
      9296       9297       9308       9307       9417       9418       9429       9428  
      9297       9298       9309       9308       9418       9419       9430       9429  
      9298       9299       9310       9309       9419       9420       9431       9430  
      9299       9300       9311       9310       9420       9421       9432       9431  
      9300       9301       9312       9311       9421       9422       9433       9432  
      9301       9302       9313       9312       9422       9423       9434       9433  
      9302       9303       9314       9313       9423       9424       9435       9434  
      9303       9304       9315       9314       9424       9425       9436       9435  
      9304       9305       9316       9315       9425       9426       9437       9436  
      9305       9306       9317       9316       9426       9427       9438       9437  
      9318       9319       9330       9329       9439       9440       9451       9450  
      9319       9320       9331       9330       9440       9441       9452       9451  
      9320       9321       9332       9331       9441       9442       9453       9452  
      9321       9322       9333       9332       9442       9443       9454       9453  
      9322       9323       9334       9333       9443       9444       9455       9454  
      9323       9324       9335       9334       9444       9445       9456       9455  
      9324       9325       9336       9335       9445       9446       9457       9456  
      9325       9326       9337       9336       9446       9447       9458       9457  
      9326       9327       9338       9337       9447       9448       9459       9458  
      9327       9328       9339       9338       9448       9449       9460       9459  
      9329       9330       9341       9340       9450       9451       9462       9461  
      9330       9331       9342       9341       9451       9452       9463       9462  
      9331       9332       9343       9342       9452       9453       9464       9463  
      9332       9333       9344       9343       9453       9454       9465       9464  
      9333       9334       9345       9344       9454       9455       9466       9465  
      9334       9335       9346       9345       9455       9456       9467       9466  
      9335       9336       9347       9346       9456       9457       9468       9467  
      9336       9337       9348       9347       9457       9458       9469       9468  
      9337       9338       9349       9348       9458       9459       9470       9469  
      9338       9339       9350       9349       9459       9460       9471       9470  
      9340       9341       9352       9351       9461       9462       9473       9472  
      9341       9342       9353       9352       9462       9463       9474       9473  
      9342       9343       9354       9353       9463       9464       9475       9474  
      9343       9344       9355       9354       9464       9465       9476       9475  
      9344       9345       9356       9355       9465       9466       9477       9476  
      9345       9346       9357       9356       9466       9467       9478       9477  
      9346       9347       9358       9357       9467       9468       9479       9478  
      9347       9348       9359       9358       9468       9469       9480       9479  
      9348       9349       9360       9359       9469       9470       9481       9480  
      9349       9350       9361       9360       9470       9471       9482       9481  
      9351       9352       9363       9362       9472       9473       9484       9483  
      9352       9353       9364       9363       9473       9474       9485       9484  
      9353       9354       9365       9364       9474       9475       9486       9485  
      9354       9355       9366       9365       9475       9476       9487       9486  
      9355       9356       9367       9366       9476       9477       9488       9487  
      9356       9357       9368       9367       9477       9478       9489       9488  
      9357       9358       9369       9368       9478       9479       9490       9489  
      9358       9359       9370       9369       9479       9480       9491       9490  
      9359       9360       9371       9370       9480       9481       9492       9491  
      9360       9361       9372       9371       9481       9482       9493       9492  
      9362       9363       9374       9373       9483       9484       9495       9494  
      9363       9364       9375       9374       9484       9485       9496       9495  
      9364       9365       9376       9375       9485       9486       9497       9496  
      9365       9366       9377       9376       9486       9487       9498       9497  
      9366       9367       9378       9377       9487       9488       9499       9498  
      9367       9368       9379       9378       9488       9489       9500       9499  
      9368       9369       9380       9379       9489       9490       9501       9500  
      9369       9370       9381       9380       9490       9491       9502       9501  
      9370       9371       9382       9381       9491       9492       9503       9502  
      9371       9372       9383       9382       9492       9493       9504       9503  
      9373       9374       9385       9384       9494       9495       9506       9505  
      9374       9375       9386       9385       9495       9496       9507       9506  
      9375       9376       9387       9386       9496       9497       9508       9507  
      9376       9377       9388       9387       9497       9498       9509       9508  
      9377       9378       9389       9388       9498       9499       9510       9509  
      9378       9379       9390       9389       9499       9500       9511       9510  
      9379       9380       9391       9390       9500       9501       9512       9511  
      9380       9381       9392       9391       9501       9502       9513       9512  
      9381       9382       9393       9392       9502       9503       9514       9513  
      9382       9383       9394       9393       9503       9504       9515       9514  
      9384       9385       9396       9395       9505       9506       9517       9516  
      9385       9386       9397       9396       9506       9507       9518       9517  
      9386       9387       9398       9397       9507       9508       9519       9518  
      9387       9388       9399       9398       9508       9509       9520       9519  
      9388       9389       9400       9399       9509       9510       9521       9520  
      9389       9390       9401       9400       9510       9511       9522       9521  
      9390       9391       9402       9401       9511       9512       9523       9522  
      9391       9392       9403       9402       9512       9513       9524       9523  
      9392       9393       9404       9403       9513       9514       9525       9524  
      9393       9394       9405       9404       9514       9515       9526       9525  
      9395       9396       9407       9406       9516       9517       9528       9527  
      9396       9397       9408       9407       9517       9518       9529       9528  
      9397       9398       9409       9408       9518       9519       9530       9529  
      9398       9399       9410       9409       9519       9520       9531       9530  
      9399       9400       9411       9410       9520       9521       9532       9531  
      9400       9401       9412       9411       9521       9522       9533       9532  
      9401       9402       9413       9412       9522       9523       9534       9533  
      9402       9403       9414       9413       9523       9524       9535       9534  
      9403       9404       9415       9414       9524       9525       9536       9535  
      9404       9405       9416       9415       9525       9526       9537       9536  
      9406       9407       9418       9417       9527       9528       9539       9538  
      9407       9408       9419       9418       9528       9529       9540       9539  
      9408       9409       9420       9419       9529       9530       9541       9540  
      9409       9410       9421       9420       9530       9531       9542       9541  
      9410       9411       9422       9421       9531       9532       9543       9542  
      9411       9412       9423       9422       9532       9533       9544       9543  
      9412       9413       9424       9423       9533       9534       9545       9544  
      9413       9414       9425       9424       9534       9535       9546       9545  
      9414       9415       9426       9425       9535       9536       9547       9546  
      9415       9416       9427       9426       9536       9537       9548       9547  
      9417       9418       9429       9428       9538       9539       9550       9549  
      9418       9419       9430       9429       9539       9540       9551       9550  
      9419       9420       9431       9430       9540       9541       9552       9551  
      9420       9421       9432       9431       9541       9542       9553       9552  
      9421       9422       9433       9432       9542       9543       9554       9553  
      9422       9423       9434       9433       9543       9544       9555       9554  
      9423       9424       9435       9434       9544       9545       9556       9555  
      9424       9425       9436       9435       9545       9546       9557       9556  
      9425       9426       9437       9436       9546       9547       9558       9557  
      9426       9427       9438       9437       9547       9548       9559       9558  
      9439       9440       9451       9450       9560       9561       9572       9571  
      9440       9441       9452       9451       9561       9562       9573       9572  
      9441       9442       9453       9452       9562       9563       9574       9573  
      9442       9443       9454       9453       9563       9564       9575       9574  
      9443       9444       9455       9454       9564       9565       9576       9575  
      9444       9445       9456       9455       9565       9566       9577       9576  
      9445       9446       9457       9456       9566       9567       9578       9577  
      9446       9447       9458       9457       9567       9568       9579       9578  
      9447       9448       9459       9458       9568       9569       9580       9579  
      9448       9449       9460       9459       9569       9570       9581       9580  
      9450       9451       9462       9461       9571       9572       9583       9582  
      9451       9452       9463       9462       9572       9573       9584       9583  
      9452       9453       9464       9463       9573       9574       9585       9584  
      9453       9454       9465       9464       9574       9575       9586       9585  
      9454       9455       9466       9465       9575       9576       9587       9586  
      9455       9456       9467       9466       9576       9577       9588       9587  
      9456       9457       9468       9467       9577       9578       9589       9588  
      9457       9458       9469       9468       9578       9579       9590       9589  
      9458       9459       9470       9469       9579       9580       9591       9590  
      9459       9460       9471       9470       9580       9581       9592       9591  
      9461       9462       9473       9472       9582       9583       9594       9593  
      9462       9463       9474       9473       9583       9584       9595       9594  
      9463       9464       9475       9474       9584       9585       9596       9595  
      9464       9465       9476       9475       9585       9586       9597       9596  
      9465       9466       9477       9476       9586       9587       9598       9597  
      9466       9467       9478       9477       9587       9588       9599       9598  
      9467       9468       9479       9478       9588       9589       9600       9599  
      9468       9469       9480       9479       9589       9590       9601       9600  
      9469       9470       9481       9480       9590       9591       9602       9601  
      9470       9471       9482       9481       9591       9592       9603       9602  
      9472       9473       9484       9483       9593       9594       9605       9604  
      9473       9474       9485       9484       9594       9595       9606       9605  
      9474       9475       9486       9485       9595       9596       9607       9606  
      9475       9476       9487       9486       9596       9597       9608       9607  
      9476       9477       9488       9487       9597       9598       9609       9608  
      9477       9478       9489       9488       9598       9599       9610       9609  
      9478       9479       9490       9489       9599       9600       9611       9610  
      9479       9480       9491       9490       9600       9601       9612       9611  
      9480       9481       9492       9491       9601       9602       9613       9612  
      9481       9482       9493       9492       9602       9603       9614       9613  
      9483       9484       9495       9494       9604       9605       9616       9615  
      9484       9485       9496       9495       9605       9606       9617       9616  
      9485       9486       9497       9496       9606       9607       9618       9617  
      9486       9487       9498       9497       9607       9608       9619       9618  
      9487       9488       9499       9498       9608       9609       9620       9619  
      9488       9489       9500       9499       9609       9610       9621       9620  
      9489       9490       9501       9500       9610       9611       9622       9621  
      9490       9491       9502       9501       9611       9612       9623       9622  
      9491       9492       9503       9502       9612       9613       9624       9623  
      9492       9493       9504       9503       9613       9614       9625       9624  
      9494       9495       9506       9505       9615       9616       9627       9626  
      9495       9496       9507       9506       9616       9617       9628       9627  
      9496       9497       9508       9507       9617       9618       9629       9628  
      9497       9498       9509       9508       9618       9619       9630       9629  
      9498       9499       9510       9509       9619       9620       9631       9630  
      9499       9500       9511       9510       9620       9621       9632       9631  
      9500       9501       9512       9511       9621       9622       9633       9632  
      9501       9502       9513       9512       9622       9623       9634       9633  
      9502       9503       9514       9513       9623       9624       9635       9634  
      9503       9504       9515       9514       9624       9625       9636       9635  
      9505       9506       9517       9516       9626       9627       9638       9637  
      9506       9507       9518       9517       9627       9628       9639       9638  
      9507       9508       9519       9518       9628       9629       9640       9639  
      9508       9509       9520       9519       9629       9630       9641       9640  
      9509       9510       9521       9520       9630       9631       9642       9641  
      9510       9511       9522       9521       9631       9632       9643       9642  
      9511       9512       9523       9522       9632       9633       9644       9643  
      9512       9513       9524       9523       9633       9634       9645       9644  
      9513       9514       9525       9524       9634       9635       9646       9645  
      9514       9515       9526       9525       9635       9636       9647       9646  
      9516       9517       9528       9527       9637       9638       9649       9648  
      9517       9518       9529       9528       9638       9639       9650       9649  
      9518       9519       9530       9529       9639       9640       9651       9650  
      9519       9520       9531       9530       9640       9641       9652       9651  
      9520       9521       9532       9531       9641       9642       9653       9652  
      9521       9522       9533       9532       9642       9643       9654       9653  
      9522       9523       9534       9533       9643       9644       9655       9654  
      9523       9524       9535       9534       9644       9645       9656       9655  
      9524       9525       9536       9535       9645       9646       9657       9656  
      9525       9526       9537       9536       9646       9647       9658       9657  
      9527       9528       9539       9538       9648       9649       9660       9659  
      9528       9529       9540       9539       9649       9650       9661       9660  
      9529       9530       9541       9540       9650       9651       9662       9661  
      9530       9531       9542       9541       9651       9652       9663       9662  
      9531       9532       9543       9542       9652       9653       9664       9663  
      9532       9533       9544       9543       9653       9654       9665       9664  
      9533       9534       9545       9544       9654       9655       9666       9665  
      9534       9535       9546       9545       9655       9656       9667       9666  
      9535       9536       9547       9546       9656       9657       9668       9667  
      9536       9537       9548       9547       9657       9658       9669       9668  
      9538       9539       9550       9549       9659       9660       9671       9670  
      9539       9540       9551       9550       9660       9661       9672       9671  
      9540       9541       9552       9551       9661       9662       9673       9672  
      9541       9542       9553       9552       9662       9663       9674       9673  
      9542       9543       9554       9553       9663       9664       9675       9674  
      9543       9544       9555       9554       9664       9665       9676       9675  
      9544       9545       9556       9555       9665       9666       9677       9676  
      9545       9546       9557       9556       9666       9667       9678       9677  
      9546       9547       9558       9557       9667       9668       9679       9678  
      9547       9548       9559       9558       9668       9669       9680       9679  
      9560       9561       9572       9571       9681       9682       9693       9692  
      9561       9562       9573       9572       9682       9683       9694       9693  
      9562       9563       9574       9573       9683       9684       9695       9694  
      9563       9564       9575       9574       9684       9685       9696       9695  
      9564       9565       9576       9575       9685       9686       9697       9696  
      9565       9566       9577       9576       9686       9687       9698       9697  
      9566       9567       9578       9577       9687       9688       9699       9698  
      9567       9568       9579       9578       9688       9689       9700       9699  
      9568       9569       9580       9579       9689       9690       9701       9700  
      9569       9570       9581       9580       9690       9691       9702       9701  
      9571       9572       9583       9582       9692       9693       9704       9703  
      9572       9573       9584       9583       9693       9694       9705       9704  
      9573       9574       9585       9584       9694       9695       9706       9705  
      9574       9575       9586       9585       9695       9696       9707       9706  
      9575       9576       9587       9586       9696       9697       9708       9707  
      9576       9577       9588       9587       9697       9698       9709       9708  
      9577       9578       9589       9588       9698       9699       9710       9709  
      9578       9579       9590       9589       9699       9700       9711       9710  
      9579       9580       9591       9590       9700       9701       9712       9711  
      9580       9581       9592       9591       9701       9702       9713       9712  
      9582       9583       9594       9593       9703       9704       9715       9714  
      9583       9584       9595       9594       9704       9705       9716       9715  
      9584       9585       9596       9595       9705       9706       9717       9716  
      9585       9586       9597       9596       9706       9707       9718       9717  
      9586       9587       9598       9597       9707       9708       9719       9718  
      9587       9588       9599       9598       9708       9709       9720       9719  
      9588       9589       9600       9599       9709       9710       9721       9720  
      9589       9590       9601       9600       9710       9711       9722       9721  
      9590       9591       9602       9601       9711       9712       9723       9722  
      9591       9592       9603       9602       9712       9713       9724       9723  
      9593       9594       9605       9604       9714       9715       9726       9725  
      9594       9595       9606       9605       9715       9716       9727       9726  
      9595       9596       9607       9606       9716       9717       9728       9727  
      9596       9597       9608       9607       9717       9718       9729       9728  
      9597       9598       9609       9608       9718       9719       9730       9729  
      9598       9599       9610       9609       9719       9720       9731       9730  
      9599       9600       9611       9610       9720       9721       9732       9731  
      9600       9601       9612       9611       9721       9722       9733       9732  
      9601       9602       9613       9612       9722       9723       9734       9733  
      9602       9603       9614       9613       9723       9724       9735       9734  
      9604       9605       9616       9615       9725       9726       9737       9736  
      9605       9606       9617       9616       9726       9727       9738       9737  
      9606       9607       9618       9617       9727       9728       9739       9738  
      9607       9608       9619       9618       9728       9729       9740       9739  
      9608       9609       9620       9619       9729       9730       9741       9740  
      9609       9610       9621       9620       9730       9731       9742       9741  
      9610       9611       9622       9621       9731       9732       9743       9742  
      9611       9612       9623       9622       9732       9733       9744       9743  
      9612       9613       9624       9623       9733       9734       9745       9744  
      9613       9614       9625       9624       9734       9735       9746       9745  
      9615       9616       9627       9626       9736       9737       9748       9747  
      9616       9617       9628       9627       9737       9738       9749       9748  
      9617       9618       9629       9628       9738       9739       9750       9749  
      9618       9619       9630       9629       9739       9740       9751       9750  
      9619       9620       9631       9630       9740       9741       9752       9751  
      9620       9621       9632       9631       9741       9742       9753       9752  
      9621       9622       9633       9632       9742       9743       9754       9753  
      9622       9623       9634       9633       9743       9744       9755       9754  
      9623       9624       9635       9634       9744       9745       9756       9755  
      9624       9625       9636       9635       9745       9746       9757       9756  
      9626       9627       9638       9637       9747       9748       9759       9758  
      9627       9628       9639       9638       9748       9749       9760       9759  
      9628       9629       9640       9639       9749       9750       9761       9760  
      9629       9630       9641       9640       9750       9751       9762       9761  
      9630       9631       9642       9641       9751       9752       9763       9762  
      9631       9632       9643       9642       9752       9753       9764       9763  
      9632       9633       9644       9643       9753       9754       9765       9764  
      9633       9634       9645       9644       9754       9755       9766       9765  
      9634       9635       9646       9645       9755       9756       9767       9766  
      9635       9636       9647       9646       9756       9757       9768       9767  
      9637       9638       9649       9648       9758       9759       9770       9769  
      9638       9639       9650       9649       9759       9760       9771       9770  
      9639       9640       9651       9650       9760       9761       9772       9771  
      9640       9641       9652       9651       9761       9762       9773       9772  
      9641       9642       9653       9652       9762       9763       9774       9773  
      9642       9643       9654       9653       9763       9764       9775       9774  
      9643       9644       9655       9654       9764       9765       9776       9775  
      9644       9645       9656       9655       9765       9766       9777       9776  
      9645       9646       9657       9656       9766       9767       9778       9777  
      9646       9647       9658       9657       9767       9768       9779       9778  
      9648       9649       9660       9659       9769       9770       9781       9780  
      9649       9650       9661       9660       9770       9771       9782       9781  
      9650       9651       9662       9661       9771       9772       9783       9782  
      9651       9652       9663       9662       9772       9773       9784       9783  
      9652       9653       9664       9663       9773       9774       9785       9784  
      9653       9654       9665       9664       9774       9775       9786       9785  
      9654       9655       9666       9665       9775       9776       9787       9786  
      9655       9656       9667       9666       9776       9777       9788       9787  
      9656       9657       9668       9667       9777       9778       9789       9788  
      9657       9658       9669       9668       9778       9779       9790       9789  
      9659       9660       9671       9670       9780       9781       9792       9791  
      9660       9661       9672       9671       9781       9782       9793       9792  
      9661       9662       9673       9672       9782       9783       9794       9793  
      9662       9663       9674       9673       9783       9784       9795       9794  
      9663       9664       9675       9674       9784       9785       9796       9795  
      9664       9665       9676       9675       9785       9786       9797       9796  
      9665       9666       9677       9676       9786       9787       9798       9797  
      9666       9667       9678       9677       9787       9788       9799       9798  
      9667       9668       9679       9678       9788       9789       9800       9799  
      9668       9669       9680       9679       9789       9790       9801       9800  
      9681       9682       9693       9692       9802       9803       9814       9813  
      9682       9683       9694       9693       9803       9804       9815       9814  
      9683       9684       9695       9694       9804       9805       9816       9815  
      9684       9685       9696       9695       9805       9806       9817       9816  
      9685       9686       9697       9696       9806       9807       9818       9817  
      9686       9687       9698       9697       9807       9808       9819       9818  
      9687       9688       9699       9698       9808       9809       9820       9819  
      9688       9689       9700       9699       9809       9810       9821       9820  
      9689       9690       9701       9700       9810       9811       9822       9821  
      9690       9691       9702       9701       9811       9812       9823       9822  
      9692       9693       9704       9703       9813       9814       9825       9824  
      9693       9694       9705       9704       9814       9815       9826       9825  
      9694       9695       9706       9705       9815       9816       9827       9826  
      9695       9696       9707       9706       9816       9817       9828       9827  
      9696       9697       9708       9707       9817       9818       9829       9828  
      9697       9698       9709       9708       9818       9819       9830       9829  
      9698       9699       9710       9709       9819       9820       9831       9830  
      9699       9700       9711       9710       9820       9821       9832       9831  
      9700       9701       9712       9711       9821       9822       9833       9832  
      9701       9702       9713       9712       9822       9823       9834       9833  
      9703       9704       9715       9714       9824       9825       9836       9835  
      9704       9705       9716       9715       9825       9826       9837       9836  
      9705       9706       9717       9716       9826       9827       9838       9837  
      9706       9707       9718       9717       9827       9828       9839       9838  
      9707       9708       9719       9718       9828       9829       9840       9839  
      9708       9709       9720       9719       9829       9830       9841       9840  
      9709       9710       9721       9720       9830       9831       9842       9841  
      9710       9711       9722       9721       9831       9832       9843       9842  
      9711       9712       9723       9722       9832       9833       9844       9843  
      9712       9713       9724       9723       9833       9834       9845       9844  
      9714       9715       9726       9725       9835       9836       9847       9846  
      9715       9716       9727       9726       9836       9837       9848       9847  
      9716       9717       9728       9727       9837       9838       9849       9848  
      9717       9718       9729       9728       9838       9839       9850       9849  
      9718       9719       9730       9729       9839       9840       9851       9850  
      9719       9720       9731       9730       9840       9841       9852       9851  
      9720       9721       9732       9731       9841       9842       9853       9852  
      9721       9722       9733       9732       9842       9843       9854       9853  
      9722       9723       9734       9733       9843       9844       9855       9854  
      9723       9724       9735       9734       9844       9845       9856       9855  
      9725       9726       9737       9736       9846       9847       9858       9857  
      9726       9727       9738       9737       9847       9848       9859       9858  
      9727       9728       9739       9738       9848       9849       9860       9859  
      9728       9729       9740       9739       9849       9850       9861       9860  
      9729       9730       9741       9740       9850       9851       9862       9861  
      9730       9731       9742       9741       9851       9852       9863       9862  
      9731       9732       9743       9742       9852       9853       9864       9863  
      9732       9733       9744       9743       9853       9854       9865       9864  
      9733       9734       9745       9744       9854       9855       9866       9865  
      9734       9735       9746       9745       9855       9856       9867       9866  
      9736       9737       9748       9747       9857       9858       9869       9868  
      9737       9738       9749       9748       9858       9859       9870       9869  
      9738       9739       9750       9749       9859       9860       9871       9870  
      9739       9740       9751       9750       9860       9861       9872       9871  
      9740       9741       9752       9751       9861       9862       9873       9872  
      9741       9742       9753       9752       9862       9863       9874       9873  
      9742       9743       9754       9753       9863       9864       9875       9874  
      9743       9744       9755       9754       9864       9865       9876       9875  
      9744       9745       9756       9755       9865       9866       9877       9876  
      9745       9746       9757       9756       9866       9867       9878       9877  
      9747       9748       9759       9758       9868       9869       9880       9879  
      9748       9749       9760       9759       9869       9870       9881       9880  
      9749       9750       9761       9760       9870       9871       9882       9881  
      9750       9751       9762       9761       9871       9872       9883       9882  
      9751       9752       9763       9762       9872       9873       9884       9883  
      9752       9753       9764       9763       9873       9874       9885       9884  
      9753       9754       9765       9764       9874       9875       9886       9885  
      9754       9755       9766       9765       9875       9876       9887       9886  
      9755       9756       9767       9766       9876       9877       9888       9887  
      9756       9757       9768       9767       9877       9878       9889       9888  
      9758       9759       9770       9769       9879       9880       9891       9890  
      9759       9760       9771       9770       9880       9881       9892       9891  
      9760       9761       9772       9771       9881       9882       9893       9892  
      9761       9762       9773       9772       9882       9883       9894       9893  
      9762       9763       9774       9773       9883       9884       9895       9894  
      9763       9764       9775       9774       9884       9885       9896       9895  
      9764       9765       9776       9775       9885       9886       9897       9896  
      9765       9766       9777       9776       9886       9887       9898       9897  
      9766       9767       9778       9777       9887       9888       9899       9898  
      9767       9768       9779       9778       9888       9889       9900       9899  
      9769       9770       9781       9780       9890       9891       9902       9901  
      9770       9771       9782       9781       9891       9892       9903       9902  
      9771       9772       9783       9782       9892       9893       9904       9903  
      9772       9773       9784       9783       9893       9894       9905       9904  
      9773       9774       9785       9784       9894       9895       9906       9905  
      9774       9775       9786       9785       9895       9896       9907       9906  
      9775       9776       9787       9786       9896       9897       9908       9907  
      9776       9777       9788       9787       9897       9898       9909       9908  
      9777       9778       9789       9788       9898       9899       9910       9909  
      9778       9779       9790       9789       9899       9900       9911       9910  
      9780       9781       9792       9791       9901       9902       9913       9912  
      9781       9782       9793       9792       9902       9903       9914       9913  
      9782       9783       9794       9793       9903       9904       9915       9914  
      9783       9784       9795       9794       9904       9905       9916       9915  
      9784       9785       9796       9795       9905       9906       9917       9916  
      9785       9786       9797       9796       9906       9907       9918       9917  
      9786       9787       9798       9797       9907       9908       9919       9918  
      9787       9788       9799       9798       9908       9909       9920       9919  
      9788       9789       9800       9799       9909       9910       9921       9920  
      9789       9790       9801       9800       9910       9911       9922       9921  
      9802       9803       9814       9813       9923       9924       9935       9934  
      9803       9804       9815       9814       9924       9925       9936       9935  
      9804       9805       9816       9815       9925       9926       9937       9936  
      9805       9806       9817       9816       9926       9927       9938       9937  
      9806       9807       9818       9817       9927       9928       9939       9938  
      9807       9808       9819       9818       9928       9929       9940       9939  
      9808       9809       9820       9819       9929       9930       9941       9940  
      9809       9810       9821       9820       9930       9931       9942       9941  
      9810       9811       9822       9821       9931       9932       9943       9942  
      9811       9812       9823       9822       9932       9933       9944       9943  
      9813       9814       9825       9824       9934       9935       9946       9945  
      9814       9815       9826       9825       9935       9936       9947       9946  
      9815       9816       9827       9826       9936       9937       9948       9947  
      9816       9817       9828       9827       9937       9938       9949       9948  
      9817       9818       9829       9828       9938       9939       9950       9949  
      9818       9819       9830       9829       9939       9940       9951       9950  
      9819       9820       9831       9830       9940       9941       9952       9951  
      9820       9821       9832       9831       9941       9942       9953       9952  
      9821       9822       9833       9832       9942       9943       9954       9953  
      9822       9823       9834       9833       9943       9944       9955       9954  
      9824       9825       9836       9835       9945       9946       9957       9956  
      9825       9826       9837       9836       9946       9947       9958       9957  
      9826       9827       9838       9837       9947       9948       9959       9958  
      9827       9828       9839       9838       9948       9949       9960       9959  
      9828       9829       9840       9839       9949       9950       9961       9960  
      9829       9830       9841       9840       9950       9951       9962       9961  
      9830       9831       9842       9841       9951       9952       9963       9962  
      9831       9832       9843       9842       9952       9953       9964       9963  
      9832       9833       9844       9843       9953       9954       9965       9964  
      9833       9834       9845       9844       9954       9955       9966       9965  
      9835       9836       9847       9846       9956       9957       9968       9967  
      9836       9837       9848       9847       9957       9958       9969       9968  
      9837       9838       9849       9848       9958       9959       9970       9969  
      9838       9839       9850       9849       9959       9960       9971       9970  
      9839       9840       9851       9850       9960       9961       9972       9971  
      9840       9841       9852       9851       9961       9962       9973       9972  
      9841       9842       9853       9852       9962       9963       9974       9973  
      9842       9843       9854       9853       9963       9964       9975       9974  
      9843       9844       9855       9854       9964       9965       9976       9975  
      9844       9845       9856       9855       9965       9966       9977       9976  
      9846       9847       9858       9857       9967       9968       9979       9978  
      9847       9848       9859       9858       9968       9969       9980       9979  
      9848       9849       9860       9859       9969       9970       9981       9980  
      9849       9850       9861       9860       9970       9971       9982       9981  
      9850       9851       9862       9861       9971       9972       9983       9982  
      9851       9852       9863       9862       9972       9973       9984       9983  
      9852       9853       9864       9863       9973       9974       9985       9984  
      9853       9854       9865       9864       9974       9975       9986       9985  
      9854       9855       9866       9865       9975       9976       9987       9986  
      9855       9856       9867       9866       9976       9977       9988       9987  
      9857       9858       9869       9868       9978       9979       9990       9989  
      9858       9859       9870       9869       9979       9980       9991       9990  
      9859       9860       9871       9870       9980       9981       9992       9991  
      9860       9861       9872       9871       9981       9982       9993       9992  
      9861       9862       9873       9872       9982       9983       9994       9993  
      9862       9863       9874       9873       9983       9984       9995       9994  
      9863       9864       9875       9874       9984       9985       9996       9995  
      9864       9865       9876       9875       9985       9986       9997       9996  
      9865       9866       9877       9876       9986       9987       9998       9997  
      9866       9867       9878       9877       9987       9988       9999       9998  
      9868       9869       9880       9879       9989       9990      10001      10000  
      9869       9870       9881       9880       9990       9991      10002      10001  
      9870       9871       9882       9881       9991       9992      10003      10002  
      9871       9872       9883       9882       9992       9993      10004      10003  
      9872       9873       9884       9883       9993       9994      10005      10004  
      9873       9874       9885       9884       9994       9995      10006      10005  
      9874       9875       9886       9885       9995       9996      10007      10006  
      9875       9876       9887       9886       9996       9997      10008      10007  
      9876       9877       9888       9887       9997       9998      10009      10008  
      9877       9878       9889       9888       9998       9999      10010      10009  
      9879       9880       9891       9890      10000      10001      10012      10011  
      9880       9881       9892       9891      10001      10002      10013      10012  
      9881       9882       9893       9892      10002      10003      10014      10013  
      9882       9883       9894       9893      10003      10004      10015      10014  
      9883       9884       9895       9894      10004      10005      10016      10015  
      9884       9885       9896       9895      10005      10006      10017      10016  
      9885       9886       9897       9896      10006      10007      10018      10017  
      9886       9887       9898       9897      10007      10008      10019      10018  
      9887       9888       9899       9898      10008      10009      10020      10019  
      9888       9889       9900       9899      10009      10010      10021      10020  
      9890       9891       9902       9901      10011      10012      10023      10022  
      9891       9892       9903       9902      10012      10013      10024      10023  
      9892       9893       9904       9903      10013      10014      10025      10024  
      9893       9894       9905       9904      10014      10015      10026      10025  
      9894       9895       9906       9905      10015      10016      10027      10026  
      9895       9896       9907       9906      10016      10017      10028      10027  
      9896       9897       9908       9907      10017      10018      10029      10028  
      9897       9898       9909       9908      10018      10019      10030      10029  
      9898       9899       9910       9909      10019      10020      10031      10030  
      9899       9900       9911       9910      10020      10021      10032      10031  
      9901       9902       9913       9912      10022      10023      10034      10033  
      9902       9903       9914       9913      10023      10024      10035      10034  
      9903       9904       9915       9914      10024      10025      10036      10035  
      9904       9905       9916       9915      10025      10026      10037      10036  
      9905       9906       9917       9916      10026      10027      10038      10037  
      9906       9907       9918       9917      10027      10028      10039      10038  
      9907       9908       9919       9918      10028      10029      10040      10039  
      9908       9909       9920       9919      10029      10030      10041      10040  
      9909       9910       9921       9920      10030      10031      10042      10041  
      9910       9911       9922       9921      10031      10032      10043      10042  
      9923       9924       9935       9934      10044      10045      10056      10055  
      9924       9925       9936       9935      10045      10046      10057      10056  
      9925       9926       9937       9936      10046      10047      10058      10057  
      9926       9927       9938       9937      10047      10048      10059      10058  
      9927       9928       9939       9938      10048      10049      10060      10059  
      9928       9929       9940       9939      10049      10050      10061      10060  
      9929       9930       9941       9940      10050      10051      10062      10061  
      9930       9931       9942       9941      10051      10052      10063      10062  
      9931       9932       9943       9942      10052      10053      10064      10063  
      9932       9933       9944       9943      10053      10054      10065      10064  
      9934       9935       9946       9945      10055      10056      10067      10066  
      9935       9936       9947       9946      10056      10057      10068      10067  
      9936       9937       9948       9947      10057      10058      10069      10068  
      9937       9938       9949       9948      10058      10059      10070      10069  
      9938       9939       9950       9949      10059      10060      10071      10070  
      9939       9940       9951       9950      10060      10061      10072      10071  
      9940       9941       9952       9951      10061      10062      10073      10072  
      9941       9942       9953       9952      10062      10063      10074      10073  
      9942       9943       9954       9953      10063      10064      10075      10074  
      9943       9944       9955       9954      10064      10065      10076      10075  
      9945       9946       9957       9956      10066      10067      10078      10077  
      9946       9947       9958       9957      10067      10068      10079      10078  
      9947       9948       9959       9958      10068      10069      10080      10079  
      9948       9949       9960       9959      10069      10070      10081      10080  
      9949       9950       9961       9960      10070      10071      10082      10081  
      9950       9951       9962       9961      10071      10072      10083      10082  
      9951       9952       9963       9962      10072      10073      10084      10083  
      9952       9953       9964       9963      10073      10074      10085      10084  
      9953       9954       9965       9964      10074      10075      10086      10085  
      9954       9955       9966       9965      10075      10076      10087      10086  
      9956       9957       9968       9967      10077      10078      10089      10088  
      9957       9958       9969       9968      10078      10079      10090      10089  
      9958       9959       9970       9969      10079      10080      10091      10090  
      9959       9960       9971       9970      10080      10081      10092      10091  
      9960       9961       9972       9971      10081      10082      10093      10092  
      9961       9962       9973       9972      10082      10083      10094      10093  
      9962       9963       9974       9973      10083      10084      10095      10094  
      9963       9964       9975       9974      10084      10085      10096      10095  
      9964       9965       9976       9975      10085      10086      10097      10096  
      9965       9966       9977       9976      10086      10087      10098      10097  
      9967       9968       9979       9978      10088      10089      10100      10099  
      9968       9969       9980       9979      10089      10090      10101      10100  
      9969       9970       9981       9980      10090      10091      10102      10101  
      9970       9971       9982       9981      10091      10092      10103      10102  
      9971       9972       9983       9982      10092      10093      10104      10103  
      9972       9973       9984       9983      10093      10094      10105      10104  
      9973       9974       9985       9984      10094      10095      10106      10105  
      9974       9975       9986       9985      10095      10096      10107      10106  
      9975       9976       9987       9986      10096      10097      10108      10107  
      9976       9977       9988       9987      10097      10098      10109      10108  
      9978       9979       9990       9989      10099      10100      10111      10110  
      9979       9980       9991       9990      10100      10101      10112      10111  
      9980       9981       9992       9991      10101      10102      10113      10112  
      9981       9982       9993       9992      10102      10103      10114      10113  
      9982       9983       9994       9993      10103      10104      10115      10114  
      9983       9984       9995       9994      10104      10105      10116      10115  
      9984       9985       9996       9995      10105      10106      10117      10116  
      9985       9986       9997       9996      10106      10107      10118      10117  
      9986       9987       9998       9997      10107      10108      10119      10118  
      9987       9988       9999       9998      10108      10109      10120      10119  
      9989       9990      10001      10000      10110      10111      10122      10121  
      9990       9991      10002      10001      10111      10112      10123      10122  
      9991       9992      10003      10002      10112      10113      10124      10123  
      9992       9993      10004      10003      10113      10114      10125      10124  
      9993       9994      10005      10004      10114      10115      10126      10125  
      9994       9995      10006      10005      10115      10116      10127      10126  
      9995       9996      10007      10006      10116      10117      10128      10127  
      9996       9997      10008      10007      10117      10118      10129      10128  
      9997       9998      10009      10008      10118      10119      10130      10129  
      9998       9999      10010      10009      10119      10120      10131      10130  
     10000      10001      10012      10011      10121      10122      10133      10132  
     10001      10002      10013      10012      10122      10123      10134      10133  
     10002      10003      10014      10013      10123      10124      10135      10134  
     10003      10004      10015      10014      10124      10125      10136      10135  
     10004      10005      10016      10015      10125      10126      10137      10136  
     10005      10006      10017      10016      10126      10127      10138      10137  
     10006      10007      10018      10017      10127      10128      10139      10138  
     10007      10008      10019      10018      10128      10129      10140      10139  
     10008      10009      10020      10019      10129      10130      10141      10140  
     10009      10010      10021      10020      10130      10131      10142      10141  
     10011      10012      10023      10022      10132      10133      10144      10143  
     10012      10013      10024      10023      10133      10134      10145      10144  
     10013      10014      10025      10024      10134      10135      10146      10145  
     10014      10015      10026      10025      10135      10136      10147      10146  
     10015      10016      10027      10026      10136      10137      10148      10147  
     10016      10017      10028      10027      10137      10138      10149      10148  
     10017      10018      10029      10028      10138      10139      10150      10149  
     10018      10019      10030      10029      10139      10140      10151      10150  
     10019      10020      10031      10030      10140      10141      10152      10151  
     10020      10021      10032      10031      10141      10142      10153      10152  
     10022      10023      10034      10033      10143      10144      10155      10154  
     10023      10024      10035      10034      10144      10145      10156      10155  
     10024      10025      10036      10035      10145      10146      10157      10156  
     10025      10026      10037      10036      10146      10147      10158      10157  
     10026      10027      10038      10037      10147      10148      10159      10158  
     10027      10028      10039      10038      10148      10149      10160      10159  
     10028      10029      10040      10039      10149      10150      10161      10160  
     10029      10030      10041      10040      10150      10151      10162      10161  
     10030      10031      10042      10041      10151      10152      10163      10162  
     10031      10032      10043      10042      10152      10153      10164      10163  
     10044      10045      10056      10055      10165      10166      10177      10176  
     10045      10046      10057      10056      10166      10167      10178      10177  
     10046      10047      10058      10057      10167      10168      10179      10178  
     10047      10048      10059      10058      10168      10169      10180      10179  
     10048      10049      10060      10059      10169      10170      10181      10180  
     10049      10050      10061      10060      10170      10171      10182      10181  
     10050      10051      10062      10061      10171      10172      10183      10182  
     10051      10052      10063      10062      10172      10173      10184      10183  
     10052      10053      10064      10063      10173      10174      10185      10184  
     10053      10054      10065      10064      10174      10175      10186      10185  
     10055      10056      10067      10066      10176      10177      10188      10187  
     10056      10057      10068      10067      10177      10178      10189      10188  
     10057      10058      10069      10068      10178      10179      10190      10189  
     10058      10059      10070      10069      10179      10180      10191      10190  
     10059      10060      10071      10070      10180      10181      10192      10191  
     10060      10061      10072      10071      10181      10182      10193      10192  
     10061      10062      10073      10072      10182      10183      10194      10193  
     10062      10063      10074      10073      10183      10184      10195      10194  
     10063      10064      10075      10074      10184      10185      10196      10195  
     10064      10065      10076      10075      10185      10186      10197      10196  
     10066      10067      10078      10077      10187      10188      10199      10198  
     10067      10068      10079      10078      10188      10189      10200      10199  
     10068      10069      10080      10079      10189      10190      10201      10200  
     10069      10070      10081      10080      10190      10191      10202      10201  
     10070      10071      10082      10081      10191      10192      10203      10202  
     10071      10072      10083      10082      10192      10193      10204      10203  
     10072      10073      10084      10083      10193      10194      10205      10204  
     10073      10074      10085      10084      10194      10195      10206      10205  
     10074      10075      10086      10085      10195      10196      10207      10206  
     10075      10076      10087      10086      10196      10197      10208      10207  
     10077      10078      10089      10088      10198      10199      10210      10209  
     10078      10079      10090      10089      10199      10200      10211      10210  
     10079      10080      10091      10090      10200      10201      10212      10211  
     10080      10081      10092      10091      10201      10202      10213      10212  
     10081      10082      10093      10092      10202      10203      10214      10213  
     10082      10083      10094      10093      10203      10204      10215      10214  
     10083      10084      10095      10094      10204      10205      10216      10215  
     10084      10085      10096      10095      10205      10206      10217      10216  
     10085      10086      10097      10096      10206      10207      10218      10217  
     10086      10087      10098      10097      10207      10208      10219      10218  
     10088      10089      10100      10099      10209      10210      10221      10220  
     10089      10090      10101      10100      10210      10211      10222      10221  
     10090      10091      10102      10101      10211      10212      10223      10222  
     10091      10092      10103      10102      10212      10213      10224      10223  
     10092      10093      10104      10103      10213      10214      10225      10224  
     10093      10094      10105      10104      10214      10215      10226      10225  
     10094      10095      10106      10105      10215      10216      10227      10226  
     10095      10096      10107      10106      10216      10217      10228      10227  
     10096      10097      10108      10107      10217      10218      10229      10228  
     10097      10098      10109      10108      10218      10219      10230      10229  
     10099      10100      10111      10110      10220      10221      10232      10231  
     10100      10101      10112      10111      10221      10222      10233      10232  
     10101      10102      10113      10112      10222      10223      10234      10233  
     10102      10103      10114      10113      10223      10224      10235      10234  
     10103      10104      10115      10114      10224      10225      10236      10235  
     10104      10105      10116      10115      10225      10226      10237      10236  
     10105      10106      10117      10116      10226      10227      10238      10237  
     10106      10107      10118      10117      10227      10228      10239      10238  
     10107      10108      10119      10118      10228      10229      10240      10239  
     10108      10109      10120      10119      10229      10230      10241      10240  
     10110      10111      10122      10121      10231      10232      10243      10242  
     10111      10112      10123      10122      10232      10233      10244      10243  
     10112      10113      10124      10123      10233      10234      10245      10244  
     10113      10114      10125      10124      10234      10235      10246      10245  
     10114      10115      10126      10125      10235      10236      10247      10246  
     10115      10116      10127      10126      10236      10237      10248      10247  
     10116      10117      10128      10127      10237      10238      10249      10248  
     10117      10118      10129      10128      10238      10239      10250      10249  
     10118      10119      10130      10129      10239      10240      10251      10250  
     10119      10120      10131      10130      10240      10241      10252      10251  
     10121      10122      10133      10132      10242      10243      10254      10253  
     10122      10123      10134      10133      10243      10244      10255      10254  
     10123      10124      10135      10134      10244      10245      10256      10255  
     10124      10125      10136      10135      10245      10246      10257      10256  
     10125      10126      10137      10136      10246      10247      10258      10257  
     10126      10127      10138      10137      10247      10248      10259      10258  
     10127      10128      10139      10138      10248      10249      10260      10259  
     10128      10129      10140      10139      10249      10250      10261      10260  
     10129      10130      10141      10140      10250      10251      10262      10261  
     10130      10131      10142      10141      10251      10252      10263      10262  
     10132      10133      10144      10143      10253      10254      10265      10264  
     10133      10134      10145      10144      10254      10255      10266      10265  
     10134      10135      10146      10145      10255      10256      10267      10266  
     10135      10136      10147      10146      10256      10257      10268      10267  
     10136      10137      10148      10147      10257      10258      10269      10268  
     10137      10138      10149      10148      10258      10259      10270      10269  
     10138      10139      10150      10149      10259      10260      10271      10270  
     10139      10140      10151      10150      10260      10261      10272      10271  
     10140      10141      10152      10151      10261      10262      10273      10272  
     10141      10142      10153      10152      10262      10263      10274      10273  
     10143      10144      10155      10154      10264      10265      10276      10275  
     10144      10145      10156      10155      10265      10266      10277      10276  
     10145      10146      10157      10156      10266      10267      10278      10277  
     10146      10147      10158      10157      10267      10268      10279      10278  
     10147      10148      10159      10158      10268      10269      10280      10279  
     10148      10149      10160      10159      10269      10270      10281      10280  
     10149      10150      10161      10160      10270      10271      10282      10281  
     10150      10151      10162      10161      10271      10272      10283      10282  
     10151      10152      10163      10162      10272      10273      10284      10283  
     10152      10153      10164      10163      10273      10274      10285      10284  
     10165      10166      10177      10176      10286      10287      10298      10297  
     10166      10167      10178      10177      10287      10288      10299      10298  
     10167      10168      10179      10178      10288      10289      10300      10299  
     10168      10169      10180      10179      10289      10290      10301      10300  
     10169      10170      10181      10180      10290      10291      10302      10301  
     10170      10171      10182      10181      10291      10292      10303      10302  
     10171      10172      10183      10182      10292      10293      10304      10303  
     10172      10173      10184      10183      10293      10294      10305      10304  
     10173      10174      10185      10184      10294      10295      10306      10305  
     10174      10175      10186      10185      10295      10296      10307      10306  
     10176      10177      10188      10187      10297      10298      10309      10308  
     10177      10178      10189      10188      10298      10299      10310      10309  
     10178      10179      10190      10189      10299      10300      10311      10310  
     10179      10180      10191      10190      10300      10301      10312      10311  
     10180      10181      10192      10191      10301      10302      10313      10312  
     10181      10182      10193      10192      10302      10303      10314      10313  
     10182      10183      10194      10193      10303      10304      10315      10314  
     10183      10184      10195      10194      10304      10305      10316      10315  
     10184      10185      10196      10195      10305      10306      10317      10316  
     10185      10186      10197      10196      10306      10307      10318      10317  
     10187      10188      10199      10198      10308      10309      10320      10319  
     10188      10189      10200      10199      10309      10310      10321      10320  
     10189      10190      10201      10200      10310      10311      10322      10321  
     10190      10191      10202      10201      10311      10312      10323      10322  
     10191      10192      10203      10202      10312      10313      10324      10323  
     10192      10193      10204      10203      10313      10314      10325      10324  
     10193      10194      10205      10204      10314      10315      10326      10325  
     10194      10195      10206      10205      10315      10316      10327      10326  
     10195      10196      10207      10206      10316      10317      10328      10327  
     10196      10197      10208      10207      10317      10318      10329      10328  
     10198      10199      10210      10209      10319      10320      10331      10330  
     10199      10200      10211      10210      10320      10321      10332      10331  
     10200      10201      10212      10211      10321      10322      10333      10332  
     10201      10202      10213      10212      10322      10323      10334      10333  
     10202      10203      10214      10213      10323      10324      10335      10334  
     10203      10204      10215      10214      10324      10325      10336      10335  
     10204      10205      10216      10215      10325      10326      10337      10336  
     10205      10206      10217      10216      10326      10327      10338      10337  
     10206      10207      10218      10217      10327      10328      10339      10338  
     10207      10208      10219      10218      10328      10329      10340      10339  
     10209      10210      10221      10220      10330      10331      10342      10341  
     10210      10211      10222      10221      10331      10332      10343      10342  
     10211      10212      10223      10222      10332      10333      10344      10343  
     10212      10213      10224      10223      10333      10334      10345      10344  
     10213      10214      10225      10224      10334      10335      10346      10345  
     10214      10215      10226      10225      10335      10336      10347      10346  
     10215      10216      10227      10226      10336      10337      10348      10347  
     10216      10217      10228      10227      10337      10338      10349      10348  
     10217      10218      10229      10228      10338      10339      10350      10349  
     10218      10219      10230      10229      10339      10340      10351      10350  
     10220      10221      10232      10231      10341      10342      10353      10352  
     10221      10222      10233      10232      10342      10343      10354      10353  
     10222      10223      10234      10233      10343      10344      10355      10354  
     10223      10224      10235      10234      10344      10345      10356      10355  
     10224      10225      10236      10235      10345      10346      10357      10356  
     10225      10226      10237      10236      10346      10347      10358      10357  
     10226      10227      10238      10237      10347      10348      10359      10358  
     10227      10228      10239      10238      10348      10349      10360      10359  
     10228      10229      10240      10239      10349      10350      10361      10360  
     10229      10230      10241      10240      10350      10351      10362      10361  
     10231      10232      10243      10242      10352      10353      10364      10363  
     10232      10233      10244      10243      10353      10354      10365      10364  
     10233      10234      10245      10244      10354      10355      10366      10365  
     10234      10235      10246      10245      10355      10356      10367      10366  
     10235      10236      10247      10246      10356      10357      10368      10367  
     10236      10237      10248      10247      10357      10358      10369      10368  
     10237      10238      10249      10248      10358      10359      10370      10369  
     10238      10239      10250      10249      10359      10360      10371      10370  
     10239      10240      10251      10250      10360      10361      10372      10371  
     10240      10241      10252      10251      10361      10362      10373      10372  
     10242      10243      10254      10253      10363      10364      10375      10374  
     10243      10244      10255      10254      10364      10365      10376      10375  
     10244      10245      10256      10255      10365      10366      10377      10376  
     10245      10246      10257      10256      10366      10367      10378      10377  
     10246      10247      10258      10257      10367      10368      10379      10378  
     10247      10248      10259      10258      10368      10369      10380      10379  
     10248      10249      10260      10259      10369      10370      10381      10380  
     10249      10250      10261      10260      10370      10371      10382      10381  
     10250      10251      10262      10261      10371      10372      10383      10382  
     10251      10252      10263      10262      10372      10373      10384      10383  
     10253      10254      10265      10264      10374      10375      10386      10385  
     10254      10255      10266      10265      10375      10376      10387      10386  
     10255      10256      10267      10266      10376      10377      10388      10387  
     10256      10257      10268      10267      10377      10378      10389      10388  
     10257      10258      10269      10268      10378      10379      10390      10389  
     10258      10259      10270      10269      10379      10380      10391      10390  
     10259      10260      10271      10270      10380      10381      10392      10391  
     10260      10261      10272      10271      10381      10382      10393      10392  
     10261      10262      10273      10272      10382      10383      10394      10393  
     10262      10263      10274      10273      10383      10384      10395      10394  
     10264      10265      10276      10275      10385      10386      10397      10396  
     10265      10266      10277      10276      10386      10387      10398      10397  
     10266      10267      10278      10277      10387      10388      10399      10398  
     10267      10268      10279      10278      10388      10389      10400      10399  
     10268      10269      10280      10279      10389      10390      10401      10400  
     10269      10270      10281      10280      10390      10391      10402      10401  
     10270      10271      10282      10281      10391      10392      10403      10402  
     10271      10272      10283      10282      10392      10393      10404      10403  
     10272      10273      10284      10283      10393      10394      10405      10404  
     10273      10274      10285      10284      10394      10395      10406      10405  
     10286      10287      10298      10297      10407      10408      10419      10418  
     10287      10288      10299      10298      10408      10409      10420      10419  
     10288      10289      10300      10299      10409      10410      10421      10420  
     10289      10290      10301      10300      10410      10411      10422      10421  
     10290      10291      10302      10301      10411      10412      10423      10422  
     10291      10292      10303      10302      10412      10413      10424      10423  
     10292      10293      10304      10303      10413      10414      10425      10424  
     10293      10294      10305      10304      10414      10415      10426      10425  
     10294      10295      10306      10305      10415      10416      10427      10426  
     10295      10296      10307      10306      10416      10417      10428      10427  
     10297      10298      10309      10308      10418      10419      10430      10429  
     10298      10299      10310      10309      10419      10420      10431      10430  
     10299      10300      10311      10310      10420      10421      10432      10431  
     10300      10301      10312      10311      10421      10422      10433      10432  
     10301      10302      10313      10312      10422      10423      10434      10433  
     10302      10303      10314      10313      10423      10424      10435      10434  
     10303      10304      10315      10314      10424      10425      10436      10435  
     10304      10305      10316      10315      10425      10426      10437      10436  
     10305      10306      10317      10316      10426      10427      10438      10437  
     10306      10307      10318      10317      10427      10428      10439      10438  
     10308      10309      10320      10319      10429      10430      10441      10440  
     10309      10310      10321      10320      10430      10431      10442      10441  
     10310      10311      10322      10321      10431      10432      10443      10442  
     10311      10312      10323      10322      10432      10433      10444      10443  
     10312      10313      10324      10323      10433      10434      10445      10444  
     10313      10314      10325      10324      10434      10435      10446      10445  
     10314      10315      10326      10325      10435      10436      10447      10446  
     10315      10316      10327      10326      10436      10437      10448      10447  
     10316      10317      10328      10327      10437      10438      10449      10448  
     10317      10318      10329      10328      10438      10439      10450      10449  
     10319      10320      10331      10330      10440      10441      10452      10451  
     10320      10321      10332      10331      10441      10442      10453      10452  
     10321      10322      10333      10332      10442      10443      10454      10453  
     10322      10323      10334      10333      10443      10444      10455      10454  
     10323      10324      10335      10334      10444      10445      10456      10455  
     10324      10325      10336      10335      10445      10446      10457      10456  
     10325      10326      10337      10336      10446      10447      10458      10457  
     10326      10327      10338      10337      10447      10448      10459      10458  
     10327      10328      10339      10338      10448      10449      10460      10459  
     10328      10329      10340      10339      10449      10450      10461      10460  
     10330      10331      10342      10341      10451      10452      10463      10462  
     10331      10332      10343      10342      10452      10453      10464      10463  
     10332      10333      10344      10343      10453      10454      10465      10464  
     10333      10334      10345      10344      10454      10455      10466      10465  
     10334      10335      10346      10345      10455      10456      10467      10466  
     10335      10336      10347      10346      10456      10457      10468      10467  
     10336      10337      10348      10347      10457      10458      10469      10468  
     10337      10338      10349      10348      10458      10459      10470      10469  
     10338      10339      10350      10349      10459      10460      10471      10470  
     10339      10340      10351      10350      10460      10461      10472      10471  
     10341      10342      10353      10352      10462      10463      10474      10473  
     10342      10343      10354      10353      10463      10464      10475      10474  
     10343      10344      10355      10354      10464      10465      10476      10475  
     10344      10345      10356      10355      10465      10466      10477      10476  
     10345      10346      10357      10356      10466      10467      10478      10477  
     10346      10347      10358      10357      10467      10468      10479      10478  
     10347      10348      10359      10358      10468      10469      10480      10479  
     10348      10349      10360      10359      10469      10470      10481      10480  
     10349      10350      10361      10360      10470      10471      10482      10481  
     10350      10351      10362      10361      10471      10472      10483      10482  
     10352      10353      10364      10363      10473      10474      10485      10484  
     10353      10354      10365      10364      10474      10475      10486      10485  
     10354      10355      10366      10365      10475      10476      10487      10486  
     10355      10356      10367      10366      10476      10477      10488      10487  
     10356      10357      10368      10367      10477      10478      10489      10488  
     10357      10358      10369      10368      10478      10479      10490      10489  
     10358      10359      10370      10369      10479      10480      10491      10490  
     10359      10360      10371      10370      10480      10481      10492      10491  
     10360      10361      10372      10371      10481      10482      10493      10492  
     10361      10362      10373      10372      10482      10483      10494      10493  
     10363      10364      10375      10374      10484      10485      10496      10495  
     10364      10365      10376      10375      10485      10486      10497      10496  
     10365      10366      10377      10376      10486      10487      10498      10497  
     10366      10367      10378      10377      10487      10488      10499      10498  
     10367      10368      10379      10378      10488      10489      10500      10499  
     10368      10369      10380      10379      10489      10490      10501      10500  
     10369      10370      10381      10380      10490      10491      10502      10501  
     10370      10371      10382      10381      10491      10492      10503      10502  
     10371      10372      10383      10382      10492      10493      10504      10503  
     10372      10373      10384      10383      10493      10494      10505      10504  
     10374      10375      10386      10385      10495      10496      10507      10506  
     10375      10376      10387      10386      10496      10497      10508      10507  
     10376      10377      10388      10387      10497      10498      10509      10508  
     10377      10378      10389      10388      10498      10499      10510      10509  
     10378      10379      10390      10389      10499      10500      10511      10510  
     10379      10380      10391      10390      10500      10501      10512      10511  
     10380      10381      10392      10391      10501      10502      10513      10512  
     10381      10382      10393      10392      10502      10503      10514      10513  
     10382      10383      10394      10393      10503      10504      10515      10514  
     10383      10384      10395      10394      10504      10505      10516      10515  
     10385      10386      10397      10396      10506      10507      10518      10517  
     10386      10387      10398      10397      10507      10508      10519      10518  
     10387      10388      10399      10398      10508      10509      10520      10519  
     10388      10389      10400      10399      10509      10510      10521      10520  
     10389      10390      10401      10400      10510      10511      10522      10521  
     10390      10391      10402      10401      10511      10512      10523      10522  
     10391      10392      10403      10402      10512      10513      10524      10523  
     10392      10393      10404      10403      10513      10514      10525      10524  
     10393      10394      10405      10404      10514      10515      10526      10525  
     10394      10395      10406      10405      10515      10516      10527      10526  
     10407      10408      10419      10418      10528      10529      10540      10539  
     10408      10409      10420      10419      10529      10530      10541      10540  
     10409      10410      10421      10420      10530      10531      10542      10541  
     10410      10411      10422      10421      10531      10532      10543      10542  
     10411      10412      10423      10422      10532      10533      10544      10543  
     10412      10413      10424      10423      10533      10534      10545      10544  
     10413      10414      10425      10424      10534      10535      10546      10545  
     10414      10415      10426      10425      10535      10536      10547      10546  
     10415      10416      10427      10426      10536      10537      10548      10547  
     10416      10417      10428      10427      10537      10538      10549      10548  
     10418      10419      10430      10429      10539      10540      10551      10550  
     10419      10420      10431      10430      10540      10541      10552      10551  
     10420      10421      10432      10431      10541      10542      10553      10552  
     10421      10422      10433      10432      10542      10543      10554      10553  
     10422      10423      10434      10433      10543      10544      10555      10554  
     10423      10424      10435      10434      10544      10545      10556      10555  
     10424      10425      10436      10435      10545      10546      10557      10556  
     10425      10426      10437      10436      10546      10547      10558      10557  
     10426      10427      10438      10437      10547      10548      10559      10558  
     10427      10428      10439      10438      10548      10549      10560      10559  
     10429      10430      10441      10440      10550      10551      10562      10561  
     10430      10431      10442      10441      10551      10552      10563      10562  
     10431      10432      10443      10442      10552      10553      10564      10563  
     10432      10433      10444      10443      10553      10554      10565      10564  
     10433      10434      10445      10444      10554      10555      10566      10565  
     10434      10435      10446      10445      10555      10556      10567      10566  
     10435      10436      10447      10446      10556      10557      10568      10567  
     10436      10437      10448      10447      10557      10558      10569      10568  
     10437      10438      10449      10448      10558      10559      10570      10569  
     10438      10439      10450      10449      10559      10560      10571      10570  
     10440      10441      10452      10451      10561      10562      10573      10572  
     10441      10442      10453      10452      10562      10563      10574      10573  
     10442      10443      10454      10453      10563      10564      10575      10574  
     10443      10444      10455      10454      10564      10565      10576      10575  
     10444      10445      10456      10455      10565      10566      10577      10576  
     10445      10446      10457      10456      10566      10567      10578      10577  
     10446      10447      10458      10457      10567      10568      10579      10578  
     10447      10448      10459      10458      10568      10569      10580      10579  
     10448      10449      10460      10459      10569      10570      10581      10580  
     10449      10450      10461      10460      10570      10571      10582      10581  
     10451      10452      10463      10462      10572      10573      10584      10583  
     10452      10453      10464      10463      10573      10574      10585      10584  
     10453      10454      10465      10464      10574      10575      10586      10585  
     10454      10455      10466      10465      10575      10576      10587      10586  
     10455      10456      10467      10466      10576      10577      10588      10587  
     10456      10457      10468      10467      10577      10578      10589      10588  
     10457      10458      10469      10468      10578      10579      10590      10589  
     10458      10459      10470      10469      10579      10580      10591      10590  
     10459      10460      10471      10470      10580      10581      10592      10591  
     10460      10461      10472      10471      10581      10582      10593      10592  
     10462      10463      10474      10473      10583      10584      10595      10594  
     10463      10464      10475      10474      10584      10585      10596      10595  
     10464      10465      10476      10475      10585      10586      10597      10596  
     10465      10466      10477      10476      10586      10587      10598      10597  
     10466      10467      10478      10477      10587      10588      10599      10598  
     10467      10468      10479      10478      10588      10589      10600      10599  
     10468      10469      10480      10479      10589      10590      10601      10600  
     10469      10470      10481      10480      10590      10591      10602      10601  
     10470      10471      10482      10481      10591      10592      10603      10602  
     10471      10472      10483      10482      10592      10593      10604      10603  
     10473      10474      10485      10484      10594      10595      10606      10605  
     10474      10475      10486      10485      10595      10596      10607      10606  
     10475      10476      10487      10486      10596      10597      10608      10607  
     10476      10477      10488      10487      10597      10598      10609      10608  
     10477      10478      10489      10488      10598      10599      10610      10609  
     10478      10479      10490      10489      10599      10600      10611      10610  
     10479      10480      10491      10490      10600      10601      10612      10611  
     10480      10481      10492      10491      10601      10602      10613      10612  
     10481      10482      10493      10492      10602      10603      10614      10613  
     10482      10483      10494      10493      10603      10604      10615      10614  
     10484      10485      10496      10495      10605      10606      10617      10616  
     10485      10486      10497      10496      10606      10607      10618      10617  
     10486      10487      10498      10497      10607      10608      10619      10618  
     10487      10488      10499      10498      10608      10609      10620      10619  
     10488      10489      10500      10499      10609      10610      10621      10620  
     10489      10490      10501      10500      10610      10611      10622      10621  
     10490      10491      10502      10501      10611      10612      10623      10622  
     10491      10492      10503      10502      10612      10613      10624      10623  
     10492      10493      10504      10503      10613      10614      10625      10624  
     10493      10494      10505      10504      10614      10615      10626      10625  
     10495      10496      10507      10506      10616      10617      10628      10627  
     10496      10497      10508      10507      10617      10618      10629      10628  
     10497      10498      10509      10508      10618      10619      10630      10629  
     10498      10499      10510      10509      10619      10620      10631      10630  
     10499      10500      10511      10510      10620      10621      10632      10631  
     10500      10501      10512      10511      10621      10622      10633      10632  
     10501      10502      10513      10512      10622      10623      10634      10633  
     10502      10503      10514      10513      10623      10624      10635      10634  
     10503      10504      10515      10514      10624      10625      10636      10635  
     10504      10505      10516      10515      10625      10626      10637      10636  
     10506      10507      10518      10517      10627      10628      10639      10638  
     10507      10508      10519      10518      10628      10629      10640      10639  
     10508      10509      10520      10519      10629      10630      10641      10640  
     10509      10510      10521      10520      10630      10631      10642      10641  
     10510      10511      10522      10521      10631      10632      10643      10642  
     10511      10512      10523      10522      10632      10633      10644      10643  
     10512      10513      10524      10523      10633      10634      10645      10644  
     10513      10514      10525      10524      10634      10635      10646      10645  
     10514      10515      10526      10525      10635      10636      10647      10646  
     10515      10516      10527      10526      10636      10637      10648      10647  
     10528      10529      10540      10539      10649      10650      10661      10660  
     10529      10530      10541      10540      10650      10651      10662      10661  
     10530      10531      10542      10541      10651      10652      10663      10662  
     10531      10532      10543      10542      10652      10653      10664      10663  
     10532      10533      10544      10543      10653      10654      10665      10664  
     10533      10534      10545      10544      10654      10655      10666      10665  
     10534      10535      10546      10545      10655      10656      10667      10666  
     10535      10536      10547      10546      10656      10657      10668      10667  
     10536      10537      10548      10547      10657      10658      10669      10668  
     10537      10538      10549      10548      10658      10659      10670      10669  
     10539      10540      10551      10550      10660      10661      10672      10671  
     10540      10541      10552      10551      10661      10662      10673      10672  
     10541      10542      10553      10552      10662      10663      10674      10673  
     10542      10543      10554      10553      10663      10664      10675      10674  
     10543      10544      10555      10554      10664      10665      10676      10675  
     10544      10545      10556      10555      10665      10666      10677      10676  
     10545      10546      10557      10556      10666      10667      10678      10677  
     10546      10547      10558      10557      10667      10668      10679      10678  
     10547      10548      10559      10558      10668      10669      10680      10679  
     10548      10549      10560      10559      10669      10670      10681      10680  
     10550      10551      10562      10561      10671      10672      10683      10682  
     10551      10552      10563      10562      10672      10673      10684      10683  
     10552      10553      10564      10563      10673      10674      10685      10684  
     10553      10554      10565      10564      10674      10675      10686      10685  
     10554      10555      10566      10565      10675      10676      10687      10686  
     10555      10556      10567      10566      10676      10677      10688      10687  
     10556      10557      10568      10567      10677      10678      10689      10688  
     10557      10558      10569      10568      10678      10679      10690      10689  
     10558      10559      10570      10569      10679      10680      10691      10690  
     10559      10560      10571      10570      10680      10681      10692      10691  
     10561      10562      10573      10572      10682      10683      10694      10693  
     10562      10563      10574      10573      10683      10684      10695      10694  
     10563      10564      10575      10574      10684      10685      10696      10695  
     10564      10565      10576      10575      10685      10686      10697      10696  
     10565      10566      10577      10576      10686      10687      10698      10697  
     10566      10567      10578      10577      10687      10688      10699      10698  
     10567      10568      10579      10578      10688      10689      10700      10699  
     10568      10569      10580      10579      10689      10690      10701      10700  
     10569      10570      10581      10580      10690      10691      10702      10701  
     10570      10571      10582      10581      10691      10692      10703      10702  
     10572      10573      10584      10583      10693      10694      10705      10704  
     10573      10574      10585      10584      10694      10695      10706      10705  
     10574      10575      10586      10585      10695      10696      10707      10706  
     10575      10576      10587      10586      10696      10697      10708      10707  
     10576      10577      10588      10587      10697      10698      10709      10708  
     10577      10578      10589      10588      10698      10699      10710      10709  
     10578      10579      10590      10589      10699      10700      10711      10710  
     10579      10580      10591      10590      10700      10701      10712      10711  
     10580      10581      10592      10591      10701      10702      10713      10712  
     10581      10582      10593      10592      10702      10703      10714      10713  
     10583      10584      10595      10594      10704      10705      10716      10715  
     10584      10585      10596      10595      10705      10706      10717      10716  
     10585      10586      10597      10596      10706      10707      10718      10717  
     10586      10587      10598      10597      10707      10708      10719      10718  
     10587      10588      10599      10598      10708      10709      10720      10719  
     10588      10589      10600      10599      10709      10710      10721      10720  
     10589      10590      10601      10600      10710      10711      10722      10721  
     10590      10591      10602      10601      10711      10712      10723      10722  
     10591      10592      10603      10602      10712      10713      10724      10723  
     10592      10593      10604      10603      10713      10714      10725      10724  
     10594      10595      10606      10605      10715      10716      10727      10726  
     10595      10596      10607      10606      10716      10717      10728      10727  
     10596      10597      10608      10607      10717      10718      10729      10728  
     10597      10598      10609      10608      10718      10719      10730      10729  
     10598      10599      10610      10609      10719      10720      10731      10730  
     10599      10600      10611      10610      10720      10721      10732      10731  
     10600      10601      10612      10611      10721      10722      10733      10732  
     10601      10602      10613      10612      10722      10723      10734      10733  
     10602      10603      10614      10613      10723      10724      10735      10734  
     10603      10604      10615      10614      10724      10725      10736      10735  
     10605      10606      10617      10616      10726      10727      10738      10737  
     10606      10607      10618      10617      10727      10728      10739      10738  
     10607      10608      10619      10618      10728      10729      10740      10739  
     10608      10609      10620      10619      10729      10730      10741      10740  
     10609      10610      10621      10620      10730      10731      10742      10741  
     10610      10611      10622      10621      10731      10732      10743      10742  
     10611      10612      10623      10622      10732      10733      10744      10743  
     10612      10613      10624      10623      10733      10734      10745      10744  
     10613      10614      10625      10624      10734      10735      10746      10745  
     10614      10615      10626      10625      10735      10736      10747      10746  
     10616      10617      10628      10627      10737      10738      10749      10748  
     10617      10618      10629      10628      10738      10739      10750      10749  
     10618      10619      10630      10629      10739      10740      10751      10750  
     10619      10620      10631      10630      10740      10741      10752      10751  
     10620      10621      10632      10631      10741      10742      10753      10752  
     10621      10622      10633      10632      10742      10743      10754      10753  
     10622      10623      10634      10633      10743      10744      10755      10754  
     10623      10624      10635      10634      10744      10745      10756      10755  
     10624      10625      10636      10635      10745      10746      10757      10756  
     10625      10626      10637      10636      10746      10747      10758      10757  
     10627      10628      10639      10638      10748      10749      10760      10759  
     10628      10629      10640      10639      10749      10750      10761      10760  
     10629      10630      10641      10640      10750      10751      10762      10761  
     10630      10631      10642      10641      10751      10752      10763      10762  
     10631      10632      10643      10642      10752      10753      10764      10763  
     10632      10633      10644      10643      10753      10754      10765      10764  
     10633      10634      10645      10644      10754      10755      10766      10765  
     10634      10635      10646      10645      10755      10756      10767      10766  
     10635      10636      10647      10646      10756      10757      10768      10767  
     10636      10637      10648      10647      10757      10758      10769      10768  
     10649      10650      10661      10660      10770      10771      10782      10781  
     10650      10651      10662      10661      10771      10772      10783      10782  
     10651      10652      10663      10662      10772      10773      10784      10783  
     10652      10653      10664      10663      10773      10774      10785      10784  
     10653      10654      10665      10664      10774      10775      10786      10785  
     10654      10655      10666      10665      10775      10776      10787      10786  
     10655      10656      10667      10666      10776      10777      10788      10787  
     10656      10657      10668      10667      10777      10778      10789      10788  
     10657      10658      10669      10668      10778      10779      10790      10789  
     10658      10659      10670      10669      10779      10780      10791      10790  
     10660      10661      10672      10671      10781      10782      10793      10792  
     10661      10662      10673      10672      10782      10783      10794      10793  
     10662      10663      10674      10673      10783      10784      10795      10794  
     10663      10664      10675      10674      10784      10785      10796      10795  
     10664      10665      10676      10675      10785      10786      10797      10796  
     10665      10666      10677      10676      10786      10787      10798      10797  
     10666      10667      10678      10677      10787      10788      10799      10798  
     10667      10668      10679      10678      10788      10789      10800      10799  
     10668      10669      10680      10679      10789      10790      10801      10800  
     10669      10670      10681      10680      10790      10791      10802      10801  
     10671      10672      10683      10682      10792      10793      10804      10803  
     10672      10673      10684      10683      10793      10794      10805      10804  
     10673      10674      10685      10684      10794      10795      10806      10805  
     10674      10675      10686      10685      10795      10796      10807      10806  
     10675      10676      10687      10686      10796      10797      10808      10807  
     10676      10677      10688      10687      10797      10798      10809      10808  
     10677      10678      10689      10688      10798      10799      10810      10809  
     10678      10679      10690      10689      10799      10800      10811      10810  
     10679      10680      10691      10690      10800      10801      10812      10811  
     10680      10681      10692      10691      10801      10802      10813      10812  
     10682      10683      10694      10693      10803      10804      10815      10814  
     10683      10684      10695      10694      10804      10805      10816      10815  
     10684      10685      10696      10695      10805      10806      10817      10816  
     10685      10686      10697      10696      10806      10807      10818      10817  
     10686      10687      10698      10697      10807      10808      10819      10818  
     10687      10688      10699      10698      10808      10809      10820      10819  
     10688      10689      10700      10699      10809      10810      10821      10820  
     10689      10690      10701      10700      10810      10811      10822      10821  
     10690      10691      10702      10701      10811      10812      10823      10822  
     10691      10692      10703      10702      10812      10813      10824      10823  
     10693      10694      10705      10704      10814      10815      10826      10825  
     10694      10695      10706      10705      10815      10816      10827      10826  
     10695      10696      10707      10706      10816      10817      10828      10827  
     10696      10697      10708      10707      10817      10818      10829      10828  
     10697      10698      10709      10708      10818      10819      10830      10829  
     10698      10699      10710      10709      10819      10820      10831      10830  
     10699      10700      10711      10710      10820      10821      10832      10831  
     10700      10701      10712      10711      10821      10822      10833      10832  
     10701      10702      10713      10712      10822      10823      10834      10833  
     10702      10703      10714      10713      10823      10824      10835      10834  
     10704      10705      10716      10715      10825      10826      10837      10836  
     10705      10706      10717      10716      10826      10827      10838      10837  
     10706      10707      10718      10717      10827      10828      10839      10838  
     10707      10708      10719      10718      10828      10829      10840      10839  
     10708      10709      10720      10719      10829      10830      10841      10840  
     10709      10710      10721      10720      10830      10831      10842      10841  
     10710      10711      10722      10721      10831      10832      10843      10842  
     10711      10712      10723      10722      10832      10833      10844      10843  
     10712      10713      10724      10723      10833      10834      10845      10844  
     10713      10714      10725      10724      10834      10835      10846      10845  
     10715      10716      10727      10726      10836      10837      10848      10847  
     10716      10717      10728      10727      10837      10838      10849      10848  
     10717      10718      10729      10728      10838      10839      10850      10849  
     10718      10719      10730      10729      10839      10840      10851      10850  
     10719      10720      10731      10730      10840      10841      10852      10851  
     10720      10721      10732      10731      10841      10842      10853      10852  
     10721      10722      10733      10732      10842      10843      10854      10853  
     10722      10723      10734      10733      10843      10844      10855      10854  
     10723      10724      10735      10734      10844      10845      10856      10855  
     10724      10725      10736      10735      10845      10846      10857      10856  
     10726      10727      10738      10737      10847      10848      10859      10858  
     10727      10728      10739      10738      10848      10849      10860      10859  
     10728      10729      10740      10739      10849      10850      10861      10860  
     10729      10730      10741      10740      10850      10851      10862      10861  
     10730      10731      10742      10741      10851      10852      10863      10862  
     10731      10732      10743      10742      10852      10853      10864      10863  
     10732      10733      10744      10743      10853      10854      10865      10864  
     10733      10734      10745      10744      10854      10855      10866      10865  
     10734      10735      10746      10745      10855      10856      10867      10866  
     10735      10736      10747      10746      10856      10857      10868      10867  
     10737      10738      10749      10748      10858      10859      10870      10869  
     10738      10739      10750      10749      10859      10860      10871      10870  
     10739      10740      10751      10750      10860      10861      10872      10871  
     10740      10741      10752      10751      10861      10862      10873      10872  
     10741      10742      10753      10752      10862      10863      10874      10873  
     10742      10743      10754      10753      10863      10864      10875      10874  
     10743      10744      10755      10754      10864      10865      10876      10875  
     10744      10745      10756      10755      10865      10866      10877      10876  
     10745      10746      10757      10756      10866      10867      10878      10877  
     10746      10747      10758      10757      10867      10868      10879      10878  
     10748      10749      10760      10759      10869      10870      10881      10880  
     10749      10750      10761      10760      10870      10871      10882      10881  
     10750      10751      10762      10761      10871      10872      10883      10882  
     10751      10752      10763      10762      10872      10873      10884      10883  
     10752      10753      10764      10763      10873      10874      10885      10884  
     10753      10754      10765      10764      10874      10875      10886      10885  
     10754      10755      10766      10765      10875      10876      10887      10886  
     10755      10756      10767      10766      10876      10877      10888      10887  
     10756      10757      10768      10767      10877      10878      10889      10888  
     10757      10758      10769      10768      10878      10879      10890      10889  
     10770      10771      10782      10781      10891      10892      10903      10902  
     10771      10772      10783      10782      10892      10893      10904      10903  
     10772      10773      10784      10783      10893      10894      10905      10904  
     10773      10774      10785      10784      10894      10895      10906      10905  
     10774      10775      10786      10785      10895      10896      10907      10906  
     10775      10776      10787      10786      10896      10897      10908      10907  
     10776      10777      10788      10787      10897      10898      10909      10908  
     10777      10778      10789      10788      10898      10899      10910      10909  
     10778      10779      10790      10789      10899      10900      10911      10910  
     10779      10780      10791      10790      10900      10901      10912      10911  
     10781      10782      10793      10792      10902      10903      10914      10913  
     10782      10783      10794      10793      10903      10904      10915      10914  
     10783      10784      10795      10794      10904      10905      10916      10915  
     10784      10785      10796      10795      10905      10906      10917      10916  
     10785      10786      10797      10796      10906      10907      10918      10917  
     10786      10787      10798      10797      10907      10908      10919      10918  
     10787      10788      10799      10798      10908      10909      10920      10919  
     10788      10789      10800      10799      10909      10910      10921      10920  
     10789      10790      10801      10800      10910      10911      10922      10921  
     10790      10791      10802      10801      10911      10912      10923      10922  
     10792      10793      10804      10803      10913      10914      10925      10924  
     10793      10794      10805      10804      10914      10915      10926      10925  
     10794      10795      10806      10805      10915      10916      10927      10926  
     10795      10796      10807      10806      10916      10917      10928      10927  
     10796      10797      10808      10807      10917      10918      10929      10928  
     10797      10798      10809      10808      10918      10919      10930      10929  
     10798      10799      10810      10809      10919      10920      10931      10930  
     10799      10800      10811      10810      10920      10921      10932      10931  
     10800      10801      10812      10811      10921      10922      10933      10932  
     10801      10802      10813      10812      10922      10923      10934      10933  
     10803      10804      10815      10814      10924      10925      10936      10935  
     10804      10805      10816      10815      10925      10926      10937      10936  
     10805      10806      10817      10816      10926      10927      10938      10937  
     10806      10807      10818      10817      10927      10928      10939      10938  
     10807      10808      10819      10818      10928      10929      10940      10939  
     10808      10809      10820      10819      10929      10930      10941      10940  
     10809      10810      10821      10820      10930      10931      10942      10941  
     10810      10811      10822      10821      10931      10932      10943      10942  
     10811      10812      10823      10822      10932      10933      10944      10943  
     10812      10813      10824      10823      10933      10934      10945      10944  
     10814      10815      10826      10825      10935      10936      10947      10946  
     10815      10816      10827      10826      10936      10937      10948      10947  
     10816      10817      10828      10827      10937      10938      10949      10948  
     10817      10818      10829      10828      10938      10939      10950      10949  
     10818      10819      10830      10829      10939      10940      10951      10950  
     10819      10820      10831      10830      10940      10941      10952      10951  
     10820      10821      10832      10831      10941      10942      10953      10952  
     10821      10822      10833      10832      10942      10943      10954      10953  
     10822      10823      10834      10833      10943      10944      10955      10954  
     10823      10824      10835      10834      10944      10945      10956      10955  
     10825      10826      10837      10836      10946      10947      10958      10957  
     10826      10827      10838      10837      10947      10948      10959      10958  
     10827      10828      10839      10838      10948      10949      10960      10959  
     10828      10829      10840      10839      10949      10950      10961      10960  
     10829      10830      10841      10840      10950      10951      10962      10961  
     10830      10831      10842      10841      10951      10952      10963      10962  
     10831      10832      10843      10842      10952      10953      10964      10963  
     10832      10833      10844      10843      10953      10954      10965      10964  
     10833      10834      10845      10844      10954      10955      10966      10965  
     10834      10835      10846      10845      10955      10956      10967      10966  
     10836      10837      10848      10847      10957      10958      10969      10968  
     10837      10838      10849      10848      10958      10959      10970      10969  
     10838      10839      10850      10849      10959      10960      10971      10970  
     10839      10840      10851      10850      10960      10961      10972      10971  
     10840      10841      10852      10851      10961      10962      10973      10972  
     10841      10842      10853      10852      10962      10963      10974      10973  
     10842      10843      10854      10853      10963      10964      10975      10974  
     10843      10844      10855      10854      10964      10965      10976      10975  
     10844      10845      10856      10855      10965      10966      10977      10976  
     10845      10846      10857      10856      10966      10967      10978      10977  
     10847      10848      10859      10858      10968      10969      10980      10979  
     10848      10849      10860      10859      10969      10970      10981      10980  
     10849      10850      10861      10860      10970      10971      10982      10981  
     10850      10851      10862      10861      10971      10972      10983      10982  
     10851      10852      10863      10862      10972      10973      10984      10983  
     10852      10853      10864      10863      10973      10974      10985      10984  
     10853      10854      10865      10864      10974      10975      10986      10985  
     10854      10855      10866      10865      10975      10976      10987      10986  
     10855      10856      10867      10866      10976      10977      10988      10987  
     10856      10857      10868      10867      10977      10978      10989      10988  
     10858      10859      10870      10869      10979      10980      10991      10990  
     10859      10860      10871      10870      10980      10981      10992      10991  
     10860      10861      10872      10871      10981      10982      10993      10992  
     10861      10862      10873      10872      10982      10983      10994      10993  
     10862      10863      10874      10873      10983      10984      10995      10994  
     10863      10864      10875      10874      10984      10985      10996      10995  
     10864      10865      10876      10875      10985      10986      10997      10996  
     10865      10866      10877      10876      10986      10987      10998      10997  
     10866      10867      10878      10877      10987      10988      10999      10998  
     10867      10868      10879      10878      10988      10989      11000      10999  
     10869      10870      10881      10880      10990      10991      11002      11001  
     10870      10871      10882      10881      10991      10992      11003      11002  
     10871      10872      10883      10882      10992      10993      11004      11003  
     10872      10873      10884      10883      10993      10994      11005      11004  
     10873      10874      10885      10884      10994      10995      11006      11005  
     10874      10875      10886      10885      10995      10996      11007      11006  
     10875      10876      10887      10886      10996      10997      11008      11007  
     10876      10877      10888      10887      10997      10998      11009      11008  
     10877      10878      10889      10888      10998      10999      11010      11009  
     10878      10879      10890      10889      10999      11000      11011      11010  
     10891      10892      10903      10902      11012      11013      11024      11023  
     10892      10893      10904      10903      11013      11014      11025      11024  
     10893      10894      10905      10904      11014      11015      11026      11025  
     10894      10895      10906      10905      11015      11016      11027      11026  
     10895      10896      10907      10906      11016      11017      11028      11027  
     10896      10897      10908      10907      11017      11018      11029      11028  
     10897      10898      10909      10908      11018      11019      11030      11029  
     10898      10899      10910      10909      11019      11020      11031      11030  
     10899      10900      10911      10910      11020      11021      11032      11031  
     10900      10901      10912      10911      11021      11022      11033      11032  
     10902      10903      10914      10913      11023      11024      11035      11034  
     10903      10904      10915      10914      11024      11025      11036      11035  
     10904      10905      10916      10915      11025      11026      11037      11036  
     10905      10906      10917      10916      11026      11027      11038      11037  
     10906      10907      10918      10917      11027      11028      11039      11038  
     10907      10908      10919      10918      11028      11029      11040      11039  
     10908      10909      10920      10919      11029      11030      11041      11040  
     10909      10910      10921      10920      11030      11031      11042      11041  
     10910      10911      10922      10921      11031      11032      11043      11042  
     10911      10912      10923      10922      11032      11033      11044      11043  
     10913      10914      10925      10924      11034      11035      11046      11045  
     10914      10915      10926      10925      11035      11036      11047      11046  
     10915      10916      10927      10926      11036      11037      11048      11047  
     10916      10917      10928      10927      11037      11038      11049      11048  
     10917      10918      10929      10928      11038      11039      11050      11049  
     10918      10919      10930      10929      11039      11040      11051      11050  
     10919      10920      10931      10930      11040      11041      11052      11051  
     10920      10921      10932      10931      11041      11042      11053      11052  
     10921      10922      10933      10932      11042      11043      11054      11053  
     10922      10923      10934      10933      11043      11044      11055      11054  
     10924      10925      10936      10935      11045      11046      11057      11056  
     10925      10926      10937      10936      11046      11047      11058      11057  
     10926      10927      10938      10937      11047      11048      11059      11058  
     10927      10928      10939      10938      11048      11049      11060      11059  
     10928      10929      10940      10939      11049      11050      11061      11060  
     10929      10930      10941      10940      11050      11051      11062      11061  
     10930      10931      10942      10941      11051      11052      11063      11062  
     10931      10932      10943      10942      11052      11053      11064      11063  
     10932      10933      10944      10943      11053      11054      11065      11064  
     10933      10934      10945      10944      11054      11055      11066      11065  
     10935      10936      10947      10946      11056      11057      11068      11067  
     10936      10937      10948      10947      11057      11058      11069      11068  
     10937      10938      10949      10948      11058      11059      11070      11069  
     10938      10939      10950      10949      11059      11060      11071      11070  
     10939      10940      10951      10950      11060      11061      11072      11071  
     10940      10941      10952      10951      11061      11062      11073      11072  
     10941      10942      10953      10952      11062      11063      11074      11073  
     10942      10943      10954      10953      11063      11064      11075      11074  
     10943      10944      10955      10954      11064      11065      11076      11075  
     10944      10945      10956      10955      11065      11066      11077      11076  
     10946      10947      10958      10957      11067      11068      11079      11078  
     10947      10948      10959      10958      11068      11069      11080      11079  
     10948      10949      10960      10959      11069      11070      11081      11080  
     10949      10950      10961      10960      11070      11071      11082      11081  
     10950      10951      10962      10961      11071      11072      11083      11082  
     10951      10952      10963      10962      11072      11073      11084      11083  
     10952      10953      10964      10963      11073      11074      11085      11084  
     10953      10954      10965      10964      11074      11075      11086      11085  
     10954      10955      10966      10965      11075      11076      11087      11086  
     10955      10956      10967      10966      11076      11077      11088      11087  
     10957      10958      10969      10968      11078      11079      11090      11089  
     10958      10959      10970      10969      11079      11080      11091      11090  
     10959      10960      10971      10970      11080      11081      11092      11091  
     10960      10961      10972      10971      11081      11082      11093      11092  
     10961      10962      10973      10972      11082      11083      11094      11093  
     10962      10963      10974      10973      11083      11084      11095      11094  
     10963      10964      10975      10974      11084      11085      11096      11095  
     10964      10965      10976      10975      11085      11086      11097      11096  
     10965      10966      10977      10976      11086      11087      11098      11097  
     10966      10967      10978      10977      11087      11088      11099      11098  
     10968      10969      10980      10979      11089      11090      11101      11100  
     10969      10970      10981      10980      11090      11091      11102      11101  
     10970      10971      10982      10981      11091      11092      11103      11102  
     10971      10972      10983      10982      11092      11093      11104      11103  
     10972      10973      10984      10983      11093      11094      11105      11104  
     10973      10974      10985      10984      11094      11095      11106      11105  
     10974      10975      10986      10985      11095      11096      11107      11106  
     10975      10976      10987      10986      11096      11097      11108      11107  
     10976      10977      10988      10987      11097      11098      11109      11108  
     10977      10978      10989      10988      11098      11099      11110      11109  
     10979      10980      10991      10990      11100      11101      11112      11111  
     10980      10981      10992      10991      11101      11102      11113      11112  
     10981      10982      10993      10992      11102      11103      11114      11113  
     10982      10983      10994      10993      11103      11104      11115      11114  
     10983      10984      10995      10994      11104      11105      11116      11115  
     10984      10985      10996      10995      11105      11106      11117      11116  
     10985      10986      10997      10996      11106      11107      11118      11117  
     10986      10987      10998      10997      11107      11108      11119      11118  
     10987      10988      10999      10998      11108      11109      11120      11119  
     10988      10989      11000      10999      11109      11110      11121      11120  
     10990      10991      11002      11001      11111      11112      11123      11122  
     10991      10992      11003      11002      11112      11113      11124      11123  
     10992      10993      11004      11003      11113      11114      11125      11124  
     10993      10994      11005      11004      11114      11115      11126      11125  
     10994      10995      11006      11005      11115      11116      11127      11126  
     10995      10996      11007      11006      11116      11117      11128      11127  
     10996      10997      11008      11007      11117      11118      11129      11128  
     10997      10998      11009      11008      11118      11119      11130      11129  
     10998      10999      11010      11009      11119      11120      11131      11130  
     10999      11000      11011      11010      11120      11121      11132      11131  
     11012      11013      11024      11023      11133      11134      11145      11144  
     11013      11014      11025      11024      11134      11135      11146      11145  
     11014      11015      11026      11025      11135      11136      11147      11146  
     11015      11016      11027      11026      11136      11137      11148      11147  
     11016      11017      11028      11027      11137      11138      11149      11148  
     11017      11018      11029      11028      11138      11139      11150      11149  
     11018      11019      11030      11029      11139      11140      11151      11150  
     11019      11020      11031      11030      11140      11141      11152      11151  
     11020      11021      11032      11031      11141      11142      11153      11152  
     11021      11022      11033      11032      11142      11143      11154      11153  
     11023      11024      11035      11034      11144      11145      11156      11155  
     11024      11025      11036      11035      11145      11146      11157      11156  
     11025      11026      11037      11036      11146      11147      11158      11157  
     11026      11027      11038      11037      11147      11148      11159      11158  
     11027      11028      11039      11038      11148      11149      11160      11159  
     11028      11029      11040      11039      11149      11150      11161      11160  
     11029      11030      11041      11040      11150      11151      11162      11161  
     11030      11031      11042      11041      11151      11152      11163      11162  
     11031      11032      11043      11042      11152      11153      11164      11163  
     11032      11033      11044      11043      11153      11154      11165      11164  
     11034      11035      11046      11045      11155      11156      11167      11166  
     11035      11036      11047      11046      11156      11157      11168      11167  
     11036      11037      11048      11047      11157      11158      11169      11168  
     11037      11038      11049      11048      11158      11159      11170      11169  
     11038      11039      11050      11049      11159      11160      11171      11170  
     11039      11040      11051      11050      11160      11161      11172      11171  
     11040      11041      11052      11051      11161      11162      11173      11172  
     11041      11042      11053      11052      11162      11163      11174      11173  
     11042      11043      11054      11053      11163      11164      11175      11174  
     11043      11044      11055      11054      11164      11165      11176      11175  
     11045      11046      11057      11056      11166      11167      11178      11177  
     11046      11047      11058      11057      11167      11168      11179      11178  
     11047      11048      11059      11058      11168      11169      11180      11179  
     11048      11049      11060      11059      11169      11170      11181      11180  
     11049      11050      11061      11060      11170      11171      11182      11181  
     11050      11051      11062      11061      11171      11172      11183      11182  
     11051      11052      11063      11062      11172      11173      11184      11183  
     11052      11053      11064      11063      11173      11174      11185      11184  
     11053      11054      11065      11064      11174      11175      11186      11185  
     11054      11055      11066      11065      11175      11176      11187      11186  
     11056      11057      11068      11067      11177      11178      11189      11188  
     11057      11058      11069      11068      11178      11179      11190      11189  
     11058      11059      11070      11069      11179      11180      11191      11190  
     11059      11060      11071      11070      11180      11181      11192      11191  
     11060      11061      11072      11071      11181      11182      11193      11192  
     11061      11062      11073      11072      11182      11183      11194      11193  
     11062      11063      11074      11073      11183      11184      11195      11194  
     11063      11064      11075      11074      11184      11185      11196      11195  
     11064      11065      11076      11075      11185      11186      11197      11196  
     11065      11066      11077      11076      11186      11187      11198      11197  
     11067      11068      11079      11078      11188      11189      11200      11199  
     11068      11069      11080      11079      11189      11190      11201      11200  
     11069      11070      11081      11080      11190      11191      11202      11201  
     11070      11071      11082      11081      11191      11192      11203      11202  
     11071      11072      11083      11082      11192      11193      11204      11203  
     11072      11073      11084      11083      11193      11194      11205      11204  
     11073      11074      11085      11084      11194      11195      11206      11205  
     11074      11075      11086      11085      11195      11196      11207      11206  
     11075      11076      11087      11086      11196      11197      11208      11207  
     11076      11077      11088      11087      11197      11198      11209      11208  
     11078      11079      11090      11089      11199      11200      11211      11210  
     11079      11080      11091      11090      11200      11201      11212      11211  
     11080      11081      11092      11091      11201      11202      11213      11212  
     11081      11082      11093      11092      11202      11203      11214      11213  
     11082      11083      11094      11093      11203      11204      11215      11214  
     11083      11084      11095      11094      11204      11205      11216      11215  
     11084      11085      11096      11095      11205      11206      11217      11216  
     11085      11086      11097      11096      11206      11207      11218      11217  
     11086      11087      11098      11097      11207      11208      11219      11218  
     11087      11088      11099      11098      11208      11209      11220      11219  
     11089      11090      11101      11100      11210      11211      11222      11221  
     11090      11091      11102      11101      11211      11212      11223      11222  
     11091      11092      11103      11102      11212      11213      11224      11223  
     11092      11093      11104      11103      11213      11214      11225      11224  
     11093      11094      11105      11104      11214      11215      11226      11225  
     11094      11095      11106      11105      11215      11216      11227      11226  
     11095      11096      11107      11106      11216      11217      11228      11227  
     11096      11097      11108      11107      11217      11218      11229      11228  
     11097      11098      11109      11108      11218      11219      11230      11229  
     11098      11099      11110      11109      11219      11220      11231      11230  
     11100      11101      11112      11111      11221      11222      11233      11232  
     11101      11102      11113      11112      11222      11223      11234      11233  
     11102      11103      11114      11113      11223      11224      11235      11234  
     11103      11104      11115      11114      11224      11225      11236      11235  
     11104      11105      11116      11115      11225      11226      11237      11236  
     11105      11106      11117      11116      11226      11227      11238      11237  
     11106      11107      11118      11117      11227      11228      11239      11238  
     11107      11108      11119      11118      11228      11229      11240      11239  
     11108      11109      11120      11119      11229      11230      11241      11240  
     11109      11110      11121      11120      11230      11231      11242      11241  
     11111      11112      11123      11122      11232      11233      11244      11243  
     11112      11113      11124      11123      11233      11234      11245      11244  
     11113      11114      11125      11124      11234      11235      11246      11245  
     11114      11115      11126      11125      11235      11236      11247      11246  
     11115      11116      11127      11126      11236      11237      11248      11247  
     11116      11117      11128      11127      11237      11238      11249      11248  
     11117      11118      11129      11128      11238      11239      11250      11249  
     11118      11119      11130      11129      11239      11240      11251      11250  
     11119      11120      11131      11130      11240      11241      11252      11251  
     11120      11121      11132      11131      11241      11242      11253      11252  
     11133      11134      11145      11144      11254      11255      11266      11265  
     11134      11135      11146      11145      11255      11256      11267      11266  
     11135      11136      11147      11146      11256      11257      11268      11267  
     11136      11137      11148      11147      11257      11258      11269      11268  
     11137      11138      11149      11148      11258      11259      11270      11269  
     11138      11139      11150      11149      11259      11260      11271      11270  
     11139      11140      11151      11150      11260      11261      11272      11271  
     11140      11141      11152      11151      11261      11262      11273      11272  
     11141      11142      11153      11152      11262      11263      11274      11273  
     11142      11143      11154      11153      11263      11264      11275      11274  
     11144      11145      11156      11155      11265      11266      11277      11276  
     11145      11146      11157      11156      11266      11267      11278      11277  
     11146      11147      11158      11157      11267      11268      11279      11278  
     11147      11148      11159      11158      11268      11269      11280      11279  
     11148      11149      11160      11159      11269      11270      11281      11280  
     11149      11150      11161      11160      11270      11271      11282      11281  
     11150      11151      11162      11161      11271      11272      11283      11282  
     11151      11152      11163      11162      11272      11273      11284      11283  
     11152      11153      11164      11163      11273      11274      11285      11284  
     11153      11154      11165      11164      11274      11275      11286      11285  
     11155      11156      11167      11166      11276      11277      11288      11287  
     11156      11157      11168      11167      11277      11278      11289      11288  
     11157      11158      11169      11168      11278      11279      11290      11289  
     11158      11159      11170      11169      11279      11280      11291      11290  
     11159      11160      11171      11170      11280      11281      11292      11291  
     11160      11161      11172      11171      11281      11282      11293      11292  
     11161      11162      11173      11172      11282      11283      11294      11293  
     11162      11163      11174      11173      11283      11284      11295      11294  
     11163      11164      11175      11174      11284      11285      11296      11295  
     11164      11165      11176      11175      11285      11286      11297      11296  
     11166      11167      11178      11177      11287      11288      11299      11298  
     11167      11168      11179      11178      11288      11289      11300      11299  
     11168      11169      11180      11179      11289      11290      11301      11300  
     11169      11170      11181      11180      11290      11291      11302      11301  
     11170      11171      11182      11181      11291      11292      11303      11302  
     11171      11172      11183      11182      11292      11293      11304      11303  
     11172      11173      11184      11183      11293      11294      11305      11304  
     11173      11174      11185      11184      11294      11295      11306      11305  
     11174      11175      11186      11185      11295      11296      11307      11306  
     11175      11176      11187      11186      11296      11297      11308      11307  
     11177      11178      11189      11188      11298      11299      11310      11309  
     11178      11179      11190      11189      11299      11300      11311      11310  
     11179      11180      11191      11190      11300      11301      11312      11311  
     11180      11181      11192      11191      11301      11302      11313      11312  
     11181      11182      11193      11192      11302      11303      11314      11313  
     11182      11183      11194      11193      11303      11304      11315      11314  
     11183      11184      11195      11194      11304      11305      11316      11315  
     11184      11185      11196      11195      11305      11306      11317      11316  
     11185      11186      11197      11196      11306      11307      11318      11317  
     11186      11187      11198      11197      11307      11308      11319      11318  
     11188      11189      11200      11199      11309      11310      11321      11320  
     11189      11190      11201      11200      11310      11311      11322      11321  
     11190      11191      11202      11201      11311      11312      11323      11322  
     11191      11192      11203      11202      11312      11313      11324      11323  
     11192      11193      11204      11203      11313      11314      11325      11324  
     11193      11194      11205      11204      11314      11315      11326      11325  
     11194      11195      11206      11205      11315      11316      11327      11326  
     11195      11196      11207      11206      11316      11317      11328      11327  
     11196      11197      11208      11207      11317      11318      11329      11328  
     11197      11198      11209      11208      11318      11319      11330      11329  
     11199      11200      11211      11210      11320      11321      11332      11331  
     11200      11201      11212      11211      11321      11322      11333      11332  
     11201      11202      11213      11212      11322      11323      11334      11333  
     11202      11203      11214      11213      11323      11324      11335      11334  
     11203      11204      11215      11214      11324      11325      11336      11335  
     11204      11205      11216      11215      11325      11326      11337      11336  
     11205      11206      11217      11216      11326      11327      11338      11337  
     11206      11207      11218      11217      11327      11328      11339      11338  
     11207      11208      11219      11218      11328      11329      11340      11339  
     11208      11209      11220      11219      11329      11330      11341      11340  
     11210      11211      11222      11221      11331      11332      11343      11342  
     11211      11212      11223      11222      11332      11333      11344      11343  
     11212      11213      11224      11223      11333      11334      11345      11344  
     11213      11214      11225      11224      11334      11335      11346      11345  
     11214      11215      11226      11225      11335      11336      11347      11346  
     11215      11216      11227      11226      11336      11337      11348      11347  
     11216      11217      11228      11227      11337      11338      11349      11348  
     11217      11218      11229      11228      11338      11339      11350      11349  
     11218      11219      11230      11229      11339      11340      11351      11350  
     11219      11220      11231      11230      11340      11341      11352      11351  
     11221      11222      11233      11232      11342      11343      11354      11353  
     11222      11223      11234      11233      11343      11344      11355      11354  
     11223      11224      11235      11234      11344      11345      11356      11355  
     11224      11225      11236      11235      11345      11346      11357      11356  
     11225      11226      11237      11236      11346      11347      11358      11357  
     11226      11227      11238      11237      11347      11348      11359      11358  
     11227      11228      11239      11238      11348      11349      11360      11359  
     11228      11229      11240      11239      11349      11350      11361      11360  
     11229      11230      11241      11240      11350      11351      11362      11361  
     11230      11231      11242      11241      11351      11352      11363      11362  
     11232      11233      11244      11243      11353      11354      11365      11364  
     11233      11234      11245      11244      11354      11355      11366      11365  
     11234      11235      11246      11245      11355      11356      11367      11366  
     11235      11236      11247      11246      11356      11357      11368      11367  
     11236      11237      11248      11247      11357      11358      11369      11368  
     11237      11238      11249      11248      11358      11359      11370      11369  
     11238      11239      11250      11249      11359      11360      11371      11370  
     11239      11240      11251      11250      11360      11361      11372      11371  
     11240      11241      11252      11251      11361      11362      11373      11372  
     11241      11242      11253      11252      11362      11363      11374      11373  
     11254      11255      11266      11265      11375      11376      11387      11386  
     11255      11256      11267      11266      11376      11377      11388      11387  
     11256      11257      11268      11267      11377      11378      11389      11388  
     11257      11258      11269      11268      11378      11379      11390      11389  
     11258      11259      11270      11269      11379      11380      11391      11390  
     11259      11260      11271      11270      11380      11381      11392      11391  
     11260      11261      11272      11271      11381      11382      11393      11392  
     11261      11262      11273      11272      11382      11383      11394      11393  
     11262      11263      11274      11273      11383      11384      11395      11394  
     11263      11264      11275      11274      11384      11385      11396      11395  
     11265      11266      11277      11276      11386      11387      11398      11397  
     11266      11267      11278      11277      11387      11388      11399      11398  
     11267      11268      11279      11278      11388      11389      11400      11399  
     11268      11269      11280      11279      11389      11390      11401      11400  
     11269      11270      11281      11280      11390      11391      11402      11401  
     11270      11271      11282      11281      11391      11392      11403      11402  
     11271      11272      11283      11282      11392      11393      11404      11403  
     11272      11273      11284      11283      11393      11394      11405      11404  
     11273      11274      11285      11284      11394      11395      11406      11405  
     11274      11275      11286      11285      11395      11396      11407      11406  
     11276      11277      11288      11287      11397      11398      11409      11408  
     11277      11278      11289      11288      11398      11399      11410      11409  
     11278      11279      11290      11289      11399      11400      11411      11410  
     11279      11280      11291      11290      11400      11401      11412      11411  
     11280      11281      11292      11291      11401      11402      11413      11412  
     11281      11282      11293      11292      11402      11403      11414      11413  
     11282      11283      11294      11293      11403      11404      11415      11414  
     11283      11284      11295      11294      11404      11405      11416      11415  
     11284      11285      11296      11295      11405      11406      11417      11416  
     11285      11286      11297      11296      11406      11407      11418      11417  
     11287      11288      11299      11298      11408      11409      11420      11419  
     11288      11289      11300      11299      11409      11410      11421      11420  
     11289      11290      11301      11300      11410      11411      11422      11421  
     11290      11291      11302      11301      11411      11412      11423      11422  
     11291      11292      11303      11302      11412      11413      11424      11423  
     11292      11293      11304      11303      11413      11414      11425      11424  
     11293      11294      11305      11304      11414      11415      11426      11425  
     11294      11295      11306      11305      11415      11416      11427      11426  
     11295      11296      11307      11306      11416      11417      11428      11427  
     11296      11297      11308      11307      11417      11418      11429      11428  
     11298      11299      11310      11309      11419      11420      11431      11430  
     11299      11300      11311      11310      11420      11421      11432      11431  
     11300      11301      11312      11311      11421      11422      11433      11432  
     11301      11302      11313      11312      11422      11423      11434      11433  
     11302      11303      11314      11313      11423      11424      11435      11434  
     11303      11304      11315      11314      11424      11425      11436      11435  
     11304      11305      11316      11315      11425      11426      11437      11436  
     11305      11306      11317      11316      11426      11427      11438      11437  
     11306      11307      11318      11317      11427      11428      11439      11438  
     11307      11308      11319      11318      11428      11429      11440      11439  
     11309      11310      11321      11320      11430      11431      11442      11441  
     11310      11311      11322      11321      11431      11432      11443      11442  
     11311      11312      11323      11322      11432      11433      11444      11443  
     11312      11313      11324      11323      11433      11434      11445      11444  
     11313      11314      11325      11324      11434      11435      11446      11445  
     11314      11315      11326      11325      11435      11436      11447      11446  
     11315      11316      11327      11326      11436      11437      11448      11447  
     11316      11317      11328      11327      11437      11438      11449      11448  
     11317      11318      11329      11328      11438      11439      11450      11449  
     11318      11319      11330      11329      11439      11440      11451      11450  
     11320      11321      11332      11331      11441      11442      11453      11452  
     11321      11322      11333      11332      11442      11443      11454      11453  
     11322      11323      11334      11333      11443      11444      11455      11454  
     11323      11324      11335      11334      11444      11445      11456      11455  
     11324      11325      11336      11335      11445      11446      11457      11456  
     11325      11326      11337      11336      11446      11447      11458      11457  
     11326      11327      11338      11337      11447      11448      11459      11458  
     11327      11328      11339      11338      11448      11449      11460      11459  
     11328      11329      11340      11339      11449      11450      11461      11460  
     11329      11330      11341      11340      11450      11451      11462      11461  
     11331      11332      11343      11342      11452      11453      11464      11463  
     11332      11333      11344      11343      11453      11454      11465      11464  
     11333      11334      11345      11344      11454      11455      11466      11465  
     11334      11335      11346      11345      11455      11456      11467      11466  
     11335      11336      11347      11346      11456      11457      11468      11467  
     11336      11337      11348      11347      11457      11458      11469      11468  
     11337      11338      11349      11348      11458      11459      11470      11469  
     11338      11339      11350      11349      11459      11460      11471      11470  
     11339      11340      11351      11350      11460      11461      11472      11471  
     11340      11341      11352      11351      11461      11462      11473      11472  
     11342      11343      11354      11353      11463      11464      11475      11474  
     11343      11344      11355      11354      11464      11465      11476      11475  
     11344      11345      11356      11355      11465      11466      11477      11476  
     11345      11346      11357      11356      11466      11467      11478      11477  
     11346      11347      11358      11357      11467      11468      11479      11478  
     11347      11348      11359      11358      11468      11469      11480      11479  
     11348      11349      11360      11359      11469      11470      11481      11480  
     11349      11350      11361      11360      11470      11471      11482      11481  
     11350      11351      11362      11361      11471      11472      11483      11482  
     11351      11352      11363      11362      11472      11473      11484      11483  
     11353      11354      11365      11364      11474      11475      11486      11485  
     11354      11355      11366      11365      11475      11476      11487      11486  
     11355      11356      11367      11366      11476      11477      11488      11487  
     11356      11357      11368      11367      11477      11478      11489      11488  
     11357      11358      11369      11368      11478      11479      11490      11489  
     11358      11359      11370      11369      11479      11480      11491      11490  
     11359      11360      11371      11370      11480      11481      11492      11491  
     11360      11361      11372      11371      11481      11482      11493      11492  
     11361      11362      11373      11372      11482      11483      11494      11493  
     11362      11363      11374      11373      11483      11484      11495      11494  
     11375      11376      11387      11386      11496      11497      11508      11507  
     11376      11377      11388      11387      11497      11498      11509      11508  
     11377      11378      11389      11388      11498      11499      11510      11509  
     11378      11379      11390      11389      11499      11500      11511      11510  
     11379      11380      11391      11390      11500      11501      11512      11511  
     11380      11381      11392      11391      11501      11502      11513      11512  
     11381      11382      11393      11392      11502      11503      11514      11513  
     11382      11383      11394      11393      11503      11504      11515      11514  
     11383      11384      11395      11394      11504      11505      11516      11515  
     11384      11385      11396      11395      11505      11506      11517      11516  
     11386      11387      11398      11397      11507      11508      11519      11518  
     11387      11388      11399      11398      11508      11509      11520      11519  
     11388      11389      11400      11399      11509      11510      11521      11520  
     11389      11390      11401      11400      11510      11511      11522      11521  
     11390      11391      11402      11401      11511      11512      11523      11522  
     11391      11392      11403      11402      11512      11513      11524      11523  
     11392      11393      11404      11403      11513      11514      11525      11524  
     11393      11394      11405      11404      11514      11515      11526      11525  
     11394      11395      11406      11405      11515      11516      11527      11526  
     11395      11396      11407      11406      11516      11517      11528      11527  
     11397      11398      11409      11408      11518      11519      11530      11529  
     11398      11399      11410      11409      11519      11520      11531      11530  
     11399      11400      11411      11410      11520      11521      11532      11531  
     11400      11401      11412      11411      11521      11522      11533      11532  
     11401      11402      11413      11412      11522      11523      11534      11533  
     11402      11403      11414      11413      11523      11524      11535      11534  
     11403      11404      11415      11414      11524      11525      11536      11535  
     11404      11405      11416      11415      11525      11526      11537      11536  
     11405      11406      11417      11416      11526      11527      11538      11537  
     11406      11407      11418      11417      11527      11528      11539      11538  
     11408      11409      11420      11419      11529      11530      11541      11540  
     11409      11410      11421      11420      11530      11531      11542      11541  
     11410      11411      11422      11421      11531      11532      11543      11542  
     11411      11412      11423      11422      11532      11533      11544      11543  
     11412      11413      11424      11423      11533      11534      11545      11544  
     11413      11414      11425      11424      11534      11535      11546      11545  
     11414      11415      11426      11425      11535      11536      11547      11546  
     11415      11416      11427      11426      11536      11537      11548      11547  
     11416      11417      11428      11427      11537      11538      11549      11548  
     11417      11418      11429      11428      11538      11539      11550      11549  
     11419      11420      11431      11430      11540      11541      11552      11551  
     11420      11421      11432      11431      11541      11542      11553      11552  
     11421      11422      11433      11432      11542      11543      11554      11553  
     11422      11423      11434      11433      11543      11544      11555      11554  
     11423      11424      11435      11434      11544      11545      11556      11555  
     11424      11425      11436      11435      11545      11546      11557      11556  
     11425      11426      11437      11436      11546      11547      11558      11557  
     11426      11427      11438      11437      11547      11548      11559      11558  
     11427      11428      11439      11438      11548      11549      11560      11559  
     11428      11429      11440      11439      11549      11550      11561      11560  
     11430      11431      11442      11441      11551      11552      11563      11562  
     11431      11432      11443      11442      11552      11553      11564      11563  
     11432      11433      11444      11443      11553      11554      11565      11564  
     11433      11434      11445      11444      11554      11555      11566      11565  
     11434      11435      11446      11445      11555      11556      11567      11566  
     11435      11436      11447      11446      11556      11557      11568      11567  
     11436      11437      11448      11447      11557      11558      11569      11568  
     11437      11438      11449      11448      11558      11559      11570      11569  
     11438      11439      11450      11449      11559      11560      11571      11570  
     11439      11440      11451      11450      11560      11561      11572      11571  
     11441      11442      11453      11452      11562      11563      11574      11573  
     11442      11443      11454      11453      11563      11564      11575      11574  
     11443      11444      11455      11454      11564      11565      11576      11575  
     11444      11445      11456      11455      11565      11566      11577      11576  
     11445      11446      11457      11456      11566      11567      11578      11577  
     11446      11447      11458      11457      11567      11568      11579      11578  
     11447      11448      11459      11458      11568      11569      11580      11579  
     11448      11449      11460      11459      11569      11570      11581      11580  
     11449      11450      11461      11460      11570      11571      11582      11581  
     11450      11451      11462      11461      11571      11572      11583      11582  
     11452      11453      11464      11463      11573      11574      11585      11584  
     11453      11454      11465      11464      11574      11575      11586      11585  
     11454      11455      11466      11465      11575      11576      11587      11586  
     11455      11456      11467      11466      11576      11577      11588      11587  
     11456      11457      11468      11467      11577      11578      11589      11588  
     11457      11458      11469      11468      11578      11579      11590      11589  
     11458      11459      11470      11469      11579      11580      11591      11590  
     11459      11460      11471      11470      11580      11581      11592      11591  
     11460      11461      11472      11471      11581      11582      11593      11592  
     11461      11462      11473      11472      11582      11583      11594      11593  
     11463      11464      11475      11474      11584      11585      11596      11595  
     11464      11465      11476      11475      11585      11586      11597      11596  
     11465      11466      11477      11476      11586      11587      11598      11597  
     11466      11467      11478      11477      11587      11588      11599      11598  
     11467      11468      11479      11478      11588      11589      11600      11599  
     11468      11469      11480      11479      11589      11590      11601      11600  
     11469      11470      11481      11480      11590      11591      11602      11601  
     11470      11471      11482      11481      11591      11592      11603      11602  
     11471      11472      11483      11482      11592      11593      11604      11603  
     11472      11473      11484      11483      11593      11594      11605      11604  
     11474      11475      11486      11485      11595      11596      11607      11606  
     11475      11476      11487      11486      11596      11597      11608      11607  
     11476      11477      11488      11487      11597      11598      11609      11608  
     11477      11478      11489      11488      11598      11599      11610      11609  
     11478      11479      11490      11489      11599      11600      11611      11610  
     11479      11480      11491      11490      11600      11601      11612      11611  
     11480      11481      11492      11491      11601      11602      11613      11612  
     11481      11482      11493      11492      11602      11603      11614      11613  
     11482      11483      11494      11493      11603      11604      11615      11614  
     11483      11484      11495      11494      11604      11605      11616      11615  
     11496      11497      11508      11507      11617      11618      11629      11628  
     11497      11498      11509      11508      11618      11619      11630      11629  
     11498      11499      11510      11509      11619      11620      11631      11630  
     11499      11500      11511      11510      11620      11621      11632      11631  
     11500      11501      11512      11511      11621      11622      11633      11632  
     11501      11502      11513      11512      11622      11623      11634      11633  
     11502      11503      11514      11513      11623      11624      11635      11634  
     11503      11504      11515      11514      11624      11625      11636      11635  
     11504      11505      11516      11515      11625      11626      11637      11636  
     11505      11506      11517      11516      11626      11627      11638      11637  
     11507      11508      11519      11518      11628      11629      11640      11639  
     11508      11509      11520      11519      11629      11630      11641      11640  
     11509      11510      11521      11520      11630      11631      11642      11641  
     11510      11511      11522      11521      11631      11632      11643      11642  
     11511      11512      11523      11522      11632      11633      11644      11643  
     11512      11513      11524      11523      11633      11634      11645      11644  
     11513      11514      11525      11524      11634      11635      11646      11645  
     11514      11515      11526      11525      11635      11636      11647      11646  
     11515      11516      11527      11526      11636      11637      11648      11647  
     11516      11517      11528      11527      11637      11638      11649      11648  
     11518      11519      11530      11529      11639      11640      11651      11650  
     11519      11520      11531      11530      11640      11641      11652      11651  
     11520      11521      11532      11531      11641      11642      11653      11652  
     11521      11522      11533      11532      11642      11643      11654      11653  
     11522      11523      11534      11533      11643      11644      11655      11654  
     11523      11524      11535      11534      11644      11645      11656      11655  
     11524      11525      11536      11535      11645      11646      11657      11656  
     11525      11526      11537      11536      11646      11647      11658      11657  
     11526      11527      11538      11537      11647      11648      11659      11658  
     11527      11528      11539      11538      11648      11649      11660      11659  
     11529      11530      11541      11540      11650      11651      11662      11661  
     11530      11531      11542      11541      11651      11652      11663      11662  
     11531      11532      11543      11542      11652      11653      11664      11663  
     11532      11533      11544      11543      11653      11654      11665      11664  
     11533      11534      11545      11544      11654      11655      11666      11665  
     11534      11535      11546      11545      11655      11656      11667      11666  
     11535      11536      11547      11546      11656      11657      11668      11667  
     11536      11537      11548      11547      11657      11658      11669      11668  
     11537      11538      11549      11548      11658      11659      11670      11669  
     11538      11539      11550      11549      11659      11660      11671      11670  
     11540      11541      11552      11551      11661      11662      11673      11672  
     11541      11542      11553      11552      11662      11663      11674      11673  
     11542      11543      11554      11553      11663      11664      11675      11674  
     11543      11544      11555      11554      11664      11665      11676      11675  
     11544      11545      11556      11555      11665      11666      11677      11676  
     11545      11546      11557      11556      11666      11667      11678      11677  
     11546      11547      11558      11557      11667      11668      11679      11678  
     11547      11548      11559      11558      11668      11669      11680      11679  
     11548      11549      11560      11559      11669      11670      11681      11680  
     11549      11550      11561      11560      11670      11671      11682      11681  
     11551      11552      11563      11562      11672      11673      11684      11683  
     11552      11553      11564      11563      11673      11674      11685      11684  
     11553      11554      11565      11564      11674      11675      11686      11685  
     11554      11555      11566      11565      11675      11676      11687      11686  
     11555      11556      11567      11566      11676      11677      11688      11687  
     11556      11557      11568      11567      11677      11678      11689      11688  
     11557      11558      11569      11568      11678      11679      11690      11689  
     11558      11559      11570      11569      11679      11680      11691      11690  
     11559      11560      11571      11570      11680      11681      11692      11691  
     11560      11561      11572      11571      11681      11682      11693      11692  
     11562      11563      11574      11573      11683      11684      11695      11694  
     11563      11564      11575      11574      11684      11685      11696      11695  
     11564      11565      11576      11575      11685      11686      11697      11696  
     11565      11566      11577      11576      11686      11687      11698      11697  
     11566      11567      11578      11577      11687      11688      11699      11698  
     11567      11568      11579      11578      11688      11689      11700      11699  
     11568      11569      11580      11579      11689      11690      11701      11700  
     11569      11570      11581      11580      11690      11691      11702      11701  
     11570      11571      11582      11581      11691      11692      11703      11702  
     11571      11572      11583      11582      11692      11693      11704      11703  
     11573      11574      11585      11584      11694      11695      11706      11705  
     11574      11575      11586      11585      11695      11696      11707      11706  
     11575      11576      11587      11586      11696      11697      11708      11707  
     11576      11577      11588      11587      11697      11698      11709      11708  
     11577      11578      11589      11588      11698      11699      11710      11709  
     11578      11579      11590      11589      11699      11700      11711      11710  
     11579      11580      11591      11590      11700      11701      11712      11711  
     11580      11581      11592      11591      11701      11702      11713      11712  
     11581      11582      11593      11592      11702      11703      11714      11713  
     11582      11583      11594      11593      11703      11704      11715      11714  
     11584      11585      11596      11595      11705      11706      11717      11716  
     11585      11586      11597      11596      11706      11707      11718      11717  
     11586      11587      11598      11597      11707      11708      11719      11718  
     11587      11588      11599      11598      11708      11709      11720      11719  
     11588      11589      11600      11599      11709      11710      11721      11720  
     11589      11590      11601      11600      11710      11711      11722      11721  
     11590      11591      11602      11601      11711      11712      11723      11722  
     11591      11592      11603      11602      11712      11713      11724      11723  
     11592      11593      11604      11603      11713      11714      11725      11724  
     11593      11594      11605      11604      11714      11715      11726      11725  
     11595      11596      11607      11606      11716      11717      11728      11727  
     11596      11597      11608      11607      11717      11718      11729      11728  
     11597      11598      11609      11608      11718      11719      11730      11729  
     11598      11599      11610      11609      11719      11720      11731      11730  
     11599      11600      11611      11610      11720      11721      11732      11731  
     11600      11601      11612      11611      11721      11722      11733      11732  
     11601      11602      11613      11612      11722      11723      11734      11733  
     11602      11603      11614      11613      11723      11724      11735      11734  
     11603      11604      11615      11614      11724      11725      11736      11735  
     11604      11605      11616      11615      11725      11726      11737      11736  
     11617      11618      11629      11628      11738      11739      11750      11749  
     11618      11619      11630      11629      11739      11740      11751      11750  
     11619      11620      11631      11630      11740      11741      11752      11751  
     11620      11621      11632      11631      11741      11742      11753      11752  
     11621      11622      11633      11632      11742      11743      11754      11753  
     11622      11623      11634      11633      11743      11744      11755      11754  
     11623      11624      11635      11634      11744      11745      11756      11755  
     11624      11625      11636      11635      11745      11746      11757      11756  
     11625      11626      11637      11636      11746      11747      11758      11757  
     11626      11627      11638      11637      11747      11748      11759      11758  
     11628      11629      11640      11639      11749      11750      11761      11760  
     11629      11630      11641      11640      11750      11751      11762      11761  
     11630      11631      11642      11641      11751      11752      11763      11762  
     11631      11632      11643      11642      11752      11753      11764      11763  
     11632      11633      11644      11643      11753      11754      11765      11764  
     11633      11634      11645      11644      11754      11755      11766      11765  
     11634      11635      11646      11645      11755      11756      11767      11766  
     11635      11636      11647      11646      11756      11757      11768      11767  
     11636      11637      11648      11647      11757      11758      11769      11768  
     11637      11638      11649      11648      11758      11759      11770      11769  
     11639      11640      11651      11650      11760      11761      11772      11771  
     11640      11641      11652      11651      11761      11762      11773      11772  
     11641      11642      11653      11652      11762      11763      11774      11773  
     11642      11643      11654      11653      11763      11764      11775      11774  
     11643      11644      11655      11654      11764      11765      11776      11775  
     11644      11645      11656      11655      11765      11766      11777      11776  
     11645      11646      11657      11656      11766      11767      11778      11777  
     11646      11647      11658      11657      11767      11768      11779      11778  
     11647      11648      11659      11658      11768      11769      11780      11779  
     11648      11649      11660      11659      11769      11770      11781      11780  
     11650      11651      11662      11661      11771      11772      11783      11782  
     11651      11652      11663      11662      11772      11773      11784      11783  
     11652      11653      11664      11663      11773      11774      11785      11784  
     11653      11654      11665      11664      11774      11775      11786      11785  
     11654      11655      11666      11665      11775      11776      11787      11786  
     11655      11656      11667      11666      11776      11777      11788      11787  
     11656      11657      11668      11667      11777      11778      11789      11788  
     11657      11658      11669      11668      11778      11779      11790      11789  
     11658      11659      11670      11669      11779      11780      11791      11790  
     11659      11660      11671      11670      11780      11781      11792      11791  
     11661      11662      11673      11672      11782      11783      11794      11793  
     11662      11663      11674      11673      11783      11784      11795      11794  
     11663      11664      11675      11674      11784      11785      11796      11795  
     11664      11665      11676      11675      11785      11786      11797      11796  
     11665      11666      11677      11676      11786      11787      11798      11797  
     11666      11667      11678      11677      11787      11788      11799      11798  
     11667      11668      11679      11678      11788      11789      11800      11799  
     11668      11669      11680      11679      11789      11790      11801      11800  
     11669      11670      11681      11680      11790      11791      11802      11801  
     11670      11671      11682      11681      11791      11792      11803      11802  
     11672      11673      11684      11683      11793      11794      11805      11804  
     11673      11674      11685      11684      11794      11795      11806      11805  
     11674      11675      11686      11685      11795      11796      11807      11806  
     11675      11676      11687      11686      11796      11797      11808      11807  
     11676      11677      11688      11687      11797      11798      11809      11808  
     11677      11678      11689      11688      11798      11799      11810      11809  
     11678      11679      11690      11689      11799      11800      11811      11810  
     11679      11680      11691      11690      11800      11801      11812      11811  
     11680      11681      11692      11691      11801      11802      11813      11812  
     11681      11682      11693      11692      11802      11803      11814      11813  
     11683      11684      11695      11694      11804      11805      11816      11815  
     11684      11685      11696      11695      11805      11806      11817      11816  
     11685      11686      11697      11696      11806      11807      11818      11817  
     11686      11687      11698      11697      11807      11808      11819      11818  
     11687      11688      11699      11698      11808      11809      11820      11819  
     11688      11689      11700      11699      11809      11810      11821      11820  
     11689      11690      11701      11700      11810      11811      11822      11821  
     11690      11691      11702      11701      11811      11812      11823      11822  
     11691      11692      11703      11702      11812      11813      11824      11823  
     11692      11693      11704      11703      11813      11814      11825      11824  
     11694      11695      11706      11705      11815      11816      11827      11826  
     11695      11696      11707      11706      11816      11817      11828      11827  
     11696      11697      11708      11707      11817      11818      11829      11828  
     11697      11698      11709      11708      11818      11819      11830      11829  
     11698      11699      11710      11709      11819      11820      11831      11830  
     11699      11700      11711      11710      11820      11821      11832      11831  
     11700      11701      11712      11711      11821      11822      11833      11832  
     11701      11702      11713      11712      11822      11823      11834      11833  
     11702      11703      11714      11713      11823      11824      11835      11834  
     11703      11704      11715      11714      11824      11825      11836      11835  
     11705      11706      11717      11716      11826      11827      11838      11837  
     11706      11707      11718      11717      11827      11828      11839      11838  
     11707      11708      11719      11718      11828      11829      11840      11839  
     11708      11709      11720      11719      11829      11830      11841      11840  
     11709      11710      11721      11720      11830      11831      11842      11841  
     11710      11711      11722      11721      11831      11832      11843      11842  
     11711      11712      11723      11722      11832      11833      11844      11843  
     11712      11713      11724      11723      11833      11834      11845      11844  
     11713      11714      11725      11724      11834      11835      11846      11845  
     11714      11715      11726      11725      11835      11836      11847      11846  
     11716      11717      11728      11727      11837      11838      11849      11848  
     11717      11718      11729      11728      11838      11839      11850      11849  
     11718      11719      11730      11729      11839      11840      11851      11850  
     11719      11720      11731      11730      11840      11841      11852      11851  
     11720      11721      11732      11731      11841      11842      11853      11852  
     11721      11722      11733      11732      11842      11843      11854      11853  
     11722      11723      11734      11733      11843      11844      11855      11854  
     11723      11724      11735      11734      11844      11845      11856      11855  
     11724      11725      11736      11735      11845      11846      11857      11856  
     11725      11726      11737      11736      11846      11847      11858      11857  
     11738      11739      11750      11749      11859      11860      11871      11870  
     11739      11740      11751      11750      11860      11861      11872      11871  
     11740      11741      11752      11751      11861      11862      11873      11872  
     11741      11742      11753      11752      11862      11863      11874      11873  
     11742      11743      11754      11753      11863      11864      11875      11874  
     11743      11744      11755      11754      11864      11865      11876      11875  
     11744      11745      11756      11755      11865      11866      11877      11876  
     11745      11746      11757      11756      11866      11867      11878      11877  
     11746      11747      11758      11757      11867      11868      11879      11878  
     11747      11748      11759      11758      11868      11869      11880      11879  
     11749      11750      11761      11760      11870      11871      11882      11881  
     11750      11751      11762      11761      11871      11872      11883      11882  
     11751      11752      11763      11762      11872      11873      11884      11883  
     11752      11753      11764      11763      11873      11874      11885      11884  
     11753      11754      11765      11764      11874      11875      11886      11885  
     11754      11755      11766      11765      11875      11876      11887      11886  
     11755      11756      11767      11766      11876      11877      11888      11887  
     11756      11757      11768      11767      11877      11878      11889      11888  
     11757      11758      11769      11768      11878      11879      11890      11889  
     11758      11759      11770      11769      11879      11880      11891      11890  
     11760      11761      11772      11771      11881      11882      11893      11892  
     11761      11762      11773      11772      11882      11883      11894      11893  
     11762      11763      11774      11773      11883      11884      11895      11894  
     11763      11764      11775      11774      11884      11885      11896      11895  
     11764      11765      11776      11775      11885      11886      11897      11896  
     11765      11766      11777      11776      11886      11887      11898      11897  
     11766      11767      11778      11777      11887      11888      11899      11898  
     11767      11768      11779      11778      11888      11889      11900      11899  
     11768      11769      11780      11779      11889      11890      11901      11900  
     11769      11770      11781      11780      11890      11891      11902      11901  
     11771      11772      11783      11782      11892      11893      11904      11903  
     11772      11773      11784      11783      11893      11894      11905      11904  
     11773      11774      11785      11784      11894      11895      11906      11905  
     11774      11775      11786      11785      11895      11896      11907      11906  
     11775      11776      11787      11786      11896      11897      11908      11907  
     11776      11777      11788      11787      11897      11898      11909      11908  
     11777      11778      11789      11788      11898      11899      11910      11909  
     11778      11779      11790      11789      11899      11900      11911      11910  
     11779      11780      11791      11790      11900      11901      11912      11911  
     11780      11781      11792      11791      11901      11902      11913      11912  
     11782      11783      11794      11793      11903      11904      11915      11914  
     11783      11784      11795      11794      11904      11905      11916      11915  
     11784      11785      11796      11795      11905      11906      11917      11916  
     11785      11786      11797      11796      11906      11907      11918      11917  
     11786      11787      11798      11797      11907      11908      11919      11918  
     11787      11788      11799      11798      11908      11909      11920      11919  
     11788      11789      11800      11799      11909      11910      11921      11920  
     11789      11790      11801      11800      11910      11911      11922      11921  
     11790      11791      11802      11801      11911      11912      11923      11922  
     11791      11792      11803      11802      11912      11913      11924      11923  
     11793      11794      11805      11804      11914      11915      11926      11925  
     11794      11795      11806      11805      11915      11916      11927      11926  
     11795      11796      11807      11806      11916      11917      11928      11927  
     11796      11797      11808      11807      11917      11918      11929      11928  
     11797      11798      11809      11808      11918      11919      11930      11929  
     11798      11799      11810      11809      11919      11920      11931      11930  
     11799      11800      11811      11810      11920      11921      11932      11931  
     11800      11801      11812      11811      11921      11922      11933      11932  
     11801      11802      11813      11812      11922      11923      11934      11933  
     11802      11803      11814      11813      11923      11924      11935      11934  
     11804      11805      11816      11815      11925      11926      11937      11936  
     11805      11806      11817      11816      11926      11927      11938      11937  
     11806      11807      11818      11817      11927      11928      11939      11938  
     11807      11808      11819      11818      11928      11929      11940      11939  
     11808      11809      11820      11819      11929      11930      11941      11940  
     11809      11810      11821      11820      11930      11931      11942      11941  
     11810      11811      11822      11821      11931      11932      11943      11942  
     11811      11812      11823      11822      11932      11933      11944      11943  
     11812      11813      11824      11823      11933      11934      11945      11944  
     11813      11814      11825      11824      11934      11935      11946      11945  
     11815      11816      11827      11826      11936      11937      11948      11947  
     11816      11817      11828      11827      11937      11938      11949      11948  
     11817      11818      11829      11828      11938      11939      11950      11949  
     11818      11819      11830      11829      11939      11940      11951      11950  
     11819      11820      11831      11830      11940      11941      11952      11951  
     11820      11821      11832      11831      11941      11942      11953      11952  
     11821      11822      11833      11832      11942      11943      11954      11953  
     11822      11823      11834      11833      11943      11944      11955      11954  
     11823      11824      11835      11834      11944      11945      11956      11955  
     11824      11825      11836      11835      11945      11946      11957      11956  
     11826      11827      11838      11837      11947      11948      11959      11958  
     11827      11828      11839      11838      11948      11949      11960      11959  
     11828      11829      11840      11839      11949      11950      11961      11960  
     11829      11830      11841      11840      11950      11951      11962      11961  
     11830      11831      11842      11841      11951      11952      11963      11962  
     11831      11832      11843      11842      11952      11953      11964      11963  
     11832      11833      11844      11843      11953      11954      11965      11964  
     11833      11834      11845      11844      11954      11955      11966      11965  
     11834      11835      11846      11845      11955      11956      11967      11966  
     11835      11836      11847      11846      11956      11957      11968      11967  
     11837      11838      11849      11848      11958      11959      11970      11969  
     11838      11839      11850      11849      11959      11960      11971      11970  
     11839      11840      11851      11850      11960      11961      11972      11971  
     11840      11841      11852      11851      11961      11962      11973      11972  
     11841      11842      11853      11852      11962      11963      11974      11973  
     11842      11843      11854      11853      11963      11964      11975      11974  
     11843      11844      11855      11854      11964      11965      11976      11975  
     11844      11845      11856      11855      11965      11966      11977      11976  
     11845      11846      11857      11856      11966      11967      11978      11977  
     11846      11847      11858      11857      11967      11968      11979      11978  
     11859      11860      11871      11870      11980      11981      11992      11991  
     11860      11861      11872      11871      11981      11982      11993      11992  
     11861      11862      11873      11872      11982      11983      11994      11993  
     11862      11863      11874      11873      11983      11984      11995      11994  
     11863      11864      11875      11874      11984      11985      11996      11995  
     11864      11865      11876      11875      11985      11986      11997      11996  
     11865      11866      11877      11876      11986      11987      11998      11997  
     11866      11867      11878      11877      11987      11988      11999      11998  
     11867      11868      11879      11878      11988      11989      12000      11999  
     11868      11869      11880      11879      11989      11990      12001      12000  
     11870      11871      11882      11881      11991      11992      12003      12002  
     11871      11872      11883      11882      11992      11993      12004      12003  
     11872      11873      11884      11883      11993      11994      12005      12004  
     11873      11874      11885      11884      11994      11995      12006      12005  
     11874      11875      11886      11885      11995      11996      12007      12006  
     11875      11876      11887      11886      11996      11997      12008      12007  
     11876      11877      11888      11887      11997      11998      12009      12008  
     11877      11878      11889      11888      11998      11999      12010      12009  
     11878      11879      11890      11889      11999      12000      12011      12010  
     11879      11880      11891      11890      12000      12001      12012      12011  
     11881      11882      11893      11892      12002      12003      12014      12013  
     11882      11883      11894      11893      12003      12004      12015      12014  
     11883      11884      11895      11894      12004      12005      12016      12015  
     11884      11885      11896      11895      12005      12006      12017      12016  
     11885      11886      11897      11896      12006      12007      12018      12017  
     11886      11887      11898      11897      12007      12008      12019      12018  
     11887      11888      11899      11898      12008      12009      12020      12019  
     11888      11889      11900      11899      12009      12010      12021      12020  
     11889      11890      11901      11900      12010      12011      12022      12021  
     11890      11891      11902      11901      12011      12012      12023      12022  
     11892      11893      11904      11903      12013      12014      12025      12024  
     11893      11894      11905      11904      12014      12015      12026      12025  
     11894      11895      11906      11905      12015      12016      12027      12026  
     11895      11896      11907      11906      12016      12017      12028      12027  
     11896      11897      11908      11907      12017      12018      12029      12028  
     11897      11898      11909      11908      12018      12019      12030      12029  
     11898      11899      11910      11909      12019      12020      12031      12030  
     11899      11900      11911      11910      12020      12021      12032      12031  
     11900      11901      11912      11911      12021      12022      12033      12032  
     11901      11902      11913      11912      12022      12023      12034      12033  
     11903      11904      11915      11914      12024      12025      12036      12035  
     11904      11905      11916      11915      12025      12026      12037      12036  
     11905      11906      11917      11916      12026      12027      12038      12037  
     11906      11907      11918      11917      12027      12028      12039      12038  
     11907      11908      11919      11918      12028      12029      12040      12039  
     11908      11909      11920      11919      12029      12030      12041      12040  
     11909      11910      11921      11920      12030      12031      12042      12041  
     11910      11911      11922      11921      12031      12032      12043      12042  
     11911      11912      11923      11922      12032      12033      12044      12043  
     11912      11913      11924      11923      12033      12034      12045      12044  
     11914      11915      11926      11925      12035      12036      12047      12046  
     11915      11916      11927      11926      12036      12037      12048      12047  
     11916      11917      11928      11927      12037      12038      12049      12048  
     11917      11918      11929      11928      12038      12039      12050      12049  
     11918      11919      11930      11929      12039      12040      12051      12050  
     11919      11920      11931      11930      12040      12041      12052      12051  
     11920      11921      11932      11931      12041      12042      12053      12052  
     11921      11922      11933      11932      12042      12043      12054      12053  
     11922      11923      11934      11933      12043      12044      12055      12054  
     11923      11924      11935      11934      12044      12045      12056      12055  
     11925      11926      11937      11936      12046      12047      12058      12057  
     11926      11927      11938      11937      12047      12048      12059      12058  
     11927      11928      11939      11938      12048      12049      12060      12059  
     11928      11929      11940      11939      12049      12050      12061      12060  
     11929      11930      11941      11940      12050      12051      12062      12061  
     11930      11931      11942      11941      12051      12052      12063      12062  
     11931      11932      11943      11942      12052      12053      12064      12063  
     11932      11933      11944      11943      12053      12054      12065      12064  
     11933      11934      11945      11944      12054      12055      12066      12065  
     11934      11935      11946      11945      12055      12056      12067      12066  
     11936      11937      11948      11947      12057      12058      12069      12068  
     11937      11938      11949      11948      12058      12059      12070      12069  
     11938      11939      11950      11949      12059      12060      12071      12070  
     11939      11940      11951      11950      12060      12061      12072      12071  
     11940      11941      11952      11951      12061      12062      12073      12072  
     11941      11942      11953      11952      12062      12063      12074      12073  
     11942      11943      11954      11953      12063      12064      12075      12074  
     11943      11944      11955      11954      12064      12065      12076      12075  
     11944      11945      11956      11955      12065      12066      12077      12076  
     11945      11946      11957      11956      12066      12067      12078      12077  
     11947      11948      11959      11958      12068      12069      12080      12079  
     11948      11949      11960      11959      12069      12070      12081      12080  
     11949      11950      11961      11960      12070      12071      12082      12081  
     11950      11951      11962      11961      12071      12072      12083      12082  
     11951      11952      11963      11962      12072      12073      12084      12083  
     11952      11953      11964      11963      12073      12074      12085      12084  
     11953      11954      11965      11964      12074      12075      12086      12085  
     11954      11955      11966      11965      12075      12076      12087      12086  
     11955      11956      11967      11966      12076      12077      12088      12087  
     11956      11957      11968      11967      12077      12078      12089      12088  
     11958      11959      11970      11969      12079      12080      12091      12090  
     11959      11960      11971      11970      12080      12081      12092      12091  
     11960      11961      11972      11971      12081      12082      12093      12092  
     11961      11962      11973      11972      12082      12083      12094      12093  
     11962      11963      11974      11973      12083      12084      12095      12094  
     11963      11964      11975      11974      12084      12085      12096      12095  
     11964      11965      11976      11975      12085      12086      12097      12096  
     11965      11966      11977      11976      12086      12087      12098      12097  
     11966      11967      11978      11977      12087      12088      12099      12098  
     11967      11968      11979      11978      12088      12089      12100      12099  
     11980      11981      11992      11991      12101      12102      12113      12112  
     11981      11982      11993      11992      12102      12103      12114      12113  
     11982      11983      11994      11993      12103      12104      12115      12114  
     11983      11984      11995      11994      12104      12105      12116      12115  
     11984      11985      11996      11995      12105      12106      12117      12116  
     11985      11986      11997      11996      12106      12107      12118      12117  
     11986      11987      11998      11997      12107      12108      12119      12118  
     11987      11988      11999      11998      12108      12109      12120      12119  
     11988      11989      12000      11999      12109      12110      12121      12120  
     11989      11990      12001      12000      12110      12111      12122      12121  
     11991      11992      12003      12002      12112      12113      12124      12123  
     11992      11993      12004      12003      12113      12114      12125      12124  
     11993      11994      12005      12004      12114      12115      12126      12125  
     11994      11995      12006      12005      12115      12116      12127      12126  
     11995      11996      12007      12006      12116      12117      12128      12127  
     11996      11997      12008      12007      12117      12118      12129      12128  
     11997      11998      12009      12008      12118      12119      12130      12129  
     11998      11999      12010      12009      12119      12120      12131      12130  
     11999      12000      12011      12010      12120      12121      12132      12131  
     12000      12001      12012      12011      12121      12122      12133      12132  
     12002      12003      12014      12013      12123      12124      12135      12134  
     12003      12004      12015      12014      12124      12125      12136      12135  
     12004      12005      12016      12015      12125      12126      12137      12136  
     12005      12006      12017      12016      12126      12127      12138      12137  
     12006      12007      12018      12017      12127      12128      12139      12138  
     12007      12008      12019      12018      12128      12129      12140      12139  
     12008      12009      12020      12019      12129      12130      12141      12140  
     12009      12010      12021      12020      12130      12131      12142      12141  
     12010      12011      12022      12021      12131      12132      12143      12142  
     12011      12012      12023      12022      12132      12133      12144      12143  
     12013      12014      12025      12024      12134      12135      12146      12145  
     12014      12015      12026      12025      12135      12136      12147      12146  
     12015      12016      12027      12026      12136      12137      12148      12147  
     12016      12017      12028      12027      12137      12138      12149      12148  
     12017      12018      12029      12028      12138      12139      12150      12149  
     12018      12019      12030      12029      12139      12140      12151      12150  
     12019      12020      12031      12030      12140      12141      12152      12151  
     12020      12021      12032      12031      12141      12142      12153      12152  
     12021      12022      12033      12032      12142      12143      12154      12153  
     12022      12023      12034      12033      12143      12144      12155      12154  
     12024      12025      12036      12035      12145      12146      12157      12156  
     12025      12026      12037      12036      12146      12147      12158      12157  
     12026      12027      12038      12037      12147      12148      12159      12158  
     12027      12028      12039      12038      12148      12149      12160      12159  
     12028      12029      12040      12039      12149      12150      12161      12160  
     12029      12030      12041      12040      12150      12151      12162      12161  
     12030      12031      12042      12041      12151      12152      12163      12162  
     12031      12032      12043      12042      12152      12153      12164      12163  
     12032      12033      12044      12043      12153      12154      12165      12164  
     12033      12034      12045      12044      12154      12155      12166      12165  
     12035      12036      12047      12046      12156      12157      12168      12167  
     12036      12037      12048      12047      12157      12158      12169      12168  
     12037      12038      12049      12048      12158      12159      12170      12169  
     12038      12039      12050      12049      12159      12160      12171      12170  
     12039      12040      12051      12050      12160      12161      12172      12171  
     12040      12041      12052      12051      12161      12162      12173      12172  
     12041      12042      12053      12052      12162      12163      12174      12173  
     12042      12043      12054      12053      12163      12164      12175      12174  
     12043      12044      12055      12054      12164      12165      12176      12175  
     12044      12045      12056      12055      12165      12166      12177      12176  
     12046      12047      12058      12057      12167      12168      12179      12178  
     12047      12048      12059      12058      12168      12169      12180      12179  
     12048      12049      12060      12059      12169      12170      12181      12180  
     12049      12050      12061      12060      12170      12171      12182      12181  
     12050      12051      12062      12061      12171      12172      12183      12182  
     12051      12052      12063      12062      12172      12173      12184      12183  
     12052      12053      12064      12063      12173      12174      12185      12184  
     12053      12054      12065      12064      12174      12175      12186      12185  
     12054      12055      12066      12065      12175      12176      12187      12186  
     12055      12056      12067      12066      12176      12177      12188      12187  
     12057      12058      12069      12068      12178      12179      12190      12189  
     12058      12059      12070      12069      12179      12180      12191      12190  
     12059      12060      12071      12070      12180      12181      12192      12191  
     12060      12061      12072      12071      12181      12182      12193      12192  
     12061      12062      12073      12072      12182      12183      12194      12193  
     12062      12063      12074      12073      12183      12184      12195      12194  
     12063      12064      12075      12074      12184      12185      12196      12195  
     12064      12065      12076      12075      12185      12186      12197      12196  
     12065      12066      12077      12076      12186      12187      12198      12197  
     12066      12067      12078      12077      12187      12188      12199      12198  
     12068      12069      12080      12079      12189      12190      12201      12200  
     12069      12070      12081      12080      12190      12191      12202      12201  
     12070      12071      12082      12081      12191      12192      12203      12202  
     12071      12072      12083      12082      12192      12193      12204      12203  
     12072      12073      12084      12083      12193      12194      12205      12204  
     12073      12074      12085      12084      12194      12195      12206      12205  
     12074      12075      12086      12085      12195      12196      12207      12206  
     12075      12076      12087      12086      12196      12197      12208      12207  
     12076      12077      12088      12087      12197      12198      12209      12208  
     12077      12078      12089      12088      12198      12199      12210      12209  
     12079      12080      12091      12090      12200      12201      12212      12211  
     12080      12081      12092      12091      12201      12202      12213      12212  
     12081      12082      12093      12092      12202      12203      12214      12213  
     12082      12083      12094      12093      12203      12204      12215      12214  
     12083      12084      12095      12094      12204      12205      12216      12215  
     12084      12085      12096      12095      12205      12206      12217      12216  
     12085      12086      12097      12096      12206      12207      12218      12217  
     12086      12087      12098      12097      12207      12208      12219      12218  
     12087      12088      12099      12098      12208      12209      12220      12219  
     12088      12089      12100      12099      12209      12210      12221      12220  
