TITLE="results for TO code"
VARIABLES = "x", "y", "z", "density", "sigmaxx", "sigmayy", "sigmazz", "sigmaxy", "sigmaxz", "sigmayz"
ZONE T="load step 1", NODES= 12221, ELEMENTS= 10000, DATAPACKING=POINT, ZONETYPE=FEBRICK
               0.00000000                0.00000000                0.00000000                1.00000000                0.00000000                0.00000000                0.11691290               -0.00000000                0.05342776                0.05283221
               1.00000000                0.00000000                0.00000000                1.00000000                0.00000000                0.00000000                0.06532261               -0.00000000                0.01525332                0.04331332
               2.00000000                0.00000000                0.00000000                1.00000000                0.00000000               -0.00000000                0.02102168                0.00000000                0.00102736                0.01824979
               3.00000000                0.00000000                0.00000000                1.00000000                0.00000000                0.00000000                0.00986732                0.00000000                0.00244417                0.00801787
               4.00000000                0.00000000                0.00000000                1.00000000               -0.00000000               -0.00000000                0.01297911                0.00000000                0.00642728                0.01035093
               5.00000000                0.00000000                0.00000000                1.00000000                0.00000000                0.00000000                0.02494002                0.00000000                0.01192080                0.02006803
               6.00000000                0.00000000                0.00000000                1.00000000               -0.00000000                0.00000000                0.05254861               -0.00000000                0.01628546                0.03997036
               7.00000000                0.00000000                0.00000000                1.00000000                0.00000000                0.00000000                0.09874751                0.00000000                0.00974267                0.06275633
               8.00000000                0.00000000                0.00000000                1.00000000                0.00000000                0.00000000                0.13046777               -0.00000000               -0.01298122                0.07558525
               9.00000000                0.00000000                0.00000000                1.00000000               -0.00000000               -0.00000000                0.13503945               -0.00000000               -0.04304463                0.07424751
              10.00000000                0.00000000                0.00000000                1.00000000               -0.00000000                0.00000000                0.15594450                0.00000000               -0.08686053                0.06955729
               0.00000000                1.00000000                0.00000000                1.00000000               -0.00000000               -0.00000000                0.06658634               -0.00000000                0.04406118                0.01468371
               1.00000000                1.00000000                0.00000000                1.00000000               -0.00000000               -0.00000000                0.02632378               -0.00000000                0.01599876                0.01581842
               2.00000000                1.00000000                0.00000000                1.00000000               -0.00000000                0.00000000                0.00483215                0.00000000                0.00694174                0.00571806
               3.00000000                1.00000000                0.00000000                1.00000000               -0.00000000               -0.00000000                0.00272352               -0.00000000                0.00334562                0.00161665
               4.00000000                1.00000000                0.00000000                1.00000000                0.00000000                0.00000000                0.00354618               -0.00000000                0.00232373                0.00122216
               5.00000000                1.00000000                0.00000000                1.00000000               -0.00000000               -0.00000000                0.00711031               -0.00000000                0.00278050                0.00315744
               6.00000000                1.00000000                0.00000000                1.00000000               -0.00000000               -0.00000000                0.01678941                0.00000000                0.00363017                0.00739163
               7.00000000                1.00000000                0.00000000                1.00000000                0.00000000                0.00000000                0.04094375                0.00000000                0.00171204                0.01444139
               8.00000000                1.00000000                0.00000000                1.00000000                0.00000000                0.00000000                0.06946402                0.00000000               -0.01065360                0.02396729
               9.00000000                1.00000000                0.00000000                1.00000000                0.00000000               -0.00000000                0.10416451                0.00000000               -0.03748499                0.02929545
              10.00000000                1.00000000                0.00000000                1.00000000                0.00000000               -0.00000000                0.14660189               -0.00000000               -0.08462368                0.02163662
               0.00000000                2.00000000                0.00000000                1.00000000                0.00000000               -0.00000000                0.02188235                0.00000000                0.01881768                0.00059356
               1.00000000                2.00000000                0.00000000                1.00000000                0.00000000                0.00000000                0.00514864               -0.00000000                0.00571736                0.00683480
               2.00000000                2.00000000                0.00000000                1.00000000                0.00000000                0.00000000               -0.00044525               -0.00000000                0.00331358                0.00333458
               3.00000000                2.00000000                0.00000000                1.00000000               -0.00000000                0.00000000                0.00001599                0.00000000                0.00162902                0.00106391
               4.00000000                2.00000000                0.00000000                1.00000000               -0.00000000               -0.00000000               -0.00017080                0.00000000                0.00047421                0.00044763
               5.00000000                2.00000000                0.00000000                1.00000000               -0.00000000                0.00000000               -0.00038486                0.00000000               -0.00035984                0.00085878
               6.00000000                2.00000000                0.00000000                1.00000000                0.00000000                0.00000000               -0.00077608               -0.00000000               -0.00137138                0.00217354
               7.00000000                2.00000000                0.00000000                1.00000000                0.00000000                0.00000000               -0.00344913               -0.00000000               -0.00268941                0.00500382
               8.00000000                2.00000000                0.00000000                1.00000000                0.00000000                0.00000000                0.00148325               -0.00000000               -0.00291633                0.00621350
               9.00000000                2.00000000                0.00000000                1.00000000                0.00000000               -0.00000000                0.04966169               -0.00000000               -0.01919354                0.00070019
              10.00000000                2.00000000                0.00000000                1.00000000                0.00000000                0.00000000                0.10483774               -0.00000000               -0.06710420               -0.01403098
               0.00000000                3.00000000                0.00000000                1.00000000                0.00000000               -0.00000000                0.01027131                0.00000000                0.00828769                0.00224826
               1.00000000                3.00000000                0.00000000                1.00000000               -0.00000000                0.00000000                0.00287974                0.00000000                0.00157489                0.00329932
               2.00000000                3.00000000                0.00000000                1.00000000                0.00000000                0.00000000                0.00000171                0.00000000                0.00102519                0.00163726
               3.00000000                3.00000000                0.00000000                1.00000000                0.00000000               -0.00000000                0.00009109               -0.00000000                0.00066483                0.00067794
               4.00000000                3.00000000                0.00000000                1.00000000               -0.00000000               -0.00000000                0.00006933               -0.00000000                0.00017413                0.00035124
               5.00000000                3.00000000                0.00000000                1.00000000                0.00000000               -0.00000000                0.00010084               -0.00000000               -0.00029027                0.00051516
               6.00000000                3.00000000                0.00000000                1.00000000               -0.00000000               -0.00000000                0.00013498                0.00000000               -0.00073440                0.00116903
               7.00000000                3.00000000                0.00000000                1.00000000                0.00000000                0.00000000                0.00052496               -0.00000000               -0.00094553                0.00202606
               8.00000000                3.00000000                0.00000000                1.00000000                0.00000000                0.00000000                0.00095203                0.00000000               -0.00204365                0.00282322
               9.00000000                3.00000000                0.00000000                1.00000000                0.00000000               -0.00000000               -0.00411711                0.00000000               -0.00396263                0.00327837
              10.00000000                3.00000000                0.00000000                1.00000000               -0.00000000               -0.00000000               -0.00343570               -0.00000000               -0.00644202               -0.00974276
               0.00000000                4.00000000                0.00000000                1.00000000               -0.00000000                0.00000000                0.01337102                0.00000000                0.01057003                0.00653827
               1.00000000                4.00000000                0.00000000                1.00000000               -0.00000000               -0.00000000                0.00374768               -0.00000000                0.00111326                0.00232619
               2.00000000                4.00000000                0.00000000                1.00000000                0.00000000               -0.00000000               -0.00018741               -0.00000000                0.00039151                0.00047172
               3.00000000                4.00000000                0.00000000                1.00000000               -0.00000000                0.00000000                0.00007004               -0.00000000                0.00033586                0.00016632
               4.00000000                4.00000000                0.00000000                1.00000000                0.00000000                0.00000000                0.00003428                0.00000000                0.00013587                0.00012745
               5.00000000                4.00000000                0.00000000                1.00000000                0.00000000               -0.00000000                0.00003107                0.00000000               -0.00008368                0.00023602
               6.00000000                4.00000000                0.00000000                1.00000000               -0.00000000                0.00000000                0.00004992               -0.00000000               -0.00024097                0.00045175
               7.00000000                4.00000000                0.00000000                1.00000000               -0.00000000               -0.00000000                0.00005249                0.00000000               -0.00037671                0.00078769
               8.00000000                4.00000000                0.00000000                1.00000000                0.00000000                0.00000000               -0.00008025                0.00000000               -0.00025534                0.00128080
               9.00000000                4.00000000                0.00000000                1.00000000               -0.00000000                0.00000000                0.00049940               -0.00000000                0.00084090                0.00071162
              10.00000000                4.00000000                0.00000000                1.00000000               -0.00000000                0.00000000                0.00017183                0.00000000                0.00099092               -0.00227016
               0.00000000                5.00000000                0.00000000                1.00000000                0.00000000               -0.00000000                0.02609924                0.00000000                0.02072583                0.01256736
               1.00000000                5.00000000                0.00000000                1.00000000               -0.00000000                0.00000000                0.00760500               -0.00000000                0.00304421                0.00282540
               2.00000000                5.00000000                0.00000000                1.00000000                0.00000000                0.00000000               -0.00041769               -0.00000000                0.00078221               -0.00040745
               3.00000000                5.00000000                0.00000000                1.00000000                0.00000000               -0.00000000                0.00010525                0.00000000                0.00051222               -0.00033929
               4.00000000                5.00000000                0.00000000                1.00000000               -0.00000000                0.00000000                0.00003173               -0.00000000                0.00025199               -0.00011258
               5.00000000                5.00000000                0.00000000                1.00000000               -0.00000000               -0.00000000                0.00002893               -0.00000000                0.00004124                0.00001975
               6.00000000                5.00000000                0.00000000                1.00000000                0.00000000               -0.00000000                0.00002840                0.00000000               -0.00009477                0.00008875
               7.00000000                5.00000000                0.00000000                1.00000000                0.00000000                0.00000000                0.00003439               -0.00000000               -0.00009629                0.00015062
               8.00000000                5.00000000                0.00000000                1.00000000               -0.00000000               -0.00000000                0.00005859                0.00000000                0.00015676                0.00012201
               9.00000000                5.00000000                0.00000000                1.00000000                0.00000000                0.00000000               -0.00001694                0.00000000                0.00045352               -0.00020200
              10.00000000                5.00000000                0.00000000                1.00000000                0.00000000               -0.00000000               -0.00028072               -0.00000000                0.00051187               -0.00050690
               0.00000000                6.00000000                0.00000000                1.00000000               -0.00000000                0.00000000                0.05646293               -0.00000000                0.04199509                0.01745494
               1.00000000                6.00000000                0.00000000                1.00000000               -0.00000000               -0.00000000                0.01832048                0.00000000                0.00729055                0.00365504
               2.00000000                6.00000000                0.00000000                1.00000000                0.00000000                0.00000000               -0.00085870                0.00000000                0.00215630               -0.00160315
               3.00000000                6.00000000                0.00000000                1.00000000               -0.00000000                0.00000000                0.00014140                0.00000000                0.00122579               -0.00085788
               4.00000000                6.00000000                0.00000000                1.00000000               -0.00000000               -0.00000000                0.00005608               -0.00000000                0.00049773               -0.00030010
               5.00000000                6.00000000                0.00000000                1.00000000                0.00000000                0.00000000                0.00002943                0.00000000                0.00011981               -0.00012188
               6.00000000                6.00000000                0.00000000                1.00000000               -0.00000000                0.00000000                0.00003292               -0.00000000               -0.00012698               -0.00014453
               7.00000000                6.00000000                0.00000000                1.00000000               -0.00000000               -0.00000000                0.00003516                0.00000000               -0.00025335               -0.00039724
               8.00000000                6.00000000                0.00000000                1.00000000               -0.00000000                0.00000000                0.00007317               -0.00000000               -0.00004843               -0.00073699
               9.00000000                6.00000000                0.00000000                1.00000000               -0.00000000               -0.00000000                0.00003899               -0.00000000                0.00039807               -0.00066551
              10.00000000                6.00000000                0.00000000                1.00000000                0.00000000                0.00000000               -0.00027971                0.00000000                0.00064995               -0.00037788
               0.00000000                7.00000000                0.00000000                1.00000000               -0.00000000                0.00000000                0.10755258                0.00000000                0.06528471                0.01091237
               1.00000000                7.00000000                0.00000000                1.00000000                0.00000000               -0.00000000                0.04463407                0.00000000                0.01499859                0.00104403
               2.00000000                7.00000000                0.00000000                1.00000000               -0.00000000                0.00000000               -0.00382297               -0.00000000                0.00527262               -0.00323635
               3.00000000                7.00000000                0.00000000                1.00000000                0.00000000                0.00000000                0.00061139                0.00000000                0.00223315               -0.00120734
               4.00000000                7.00000000                0.00000000                1.00000000               -0.00000000               -0.00000000                0.00004962               -0.00000000                0.00091309               -0.00047518
               5.00000000                7.00000000                0.00000000                1.00000000               -0.00000000               -0.00000000                0.00003978                0.00000000                0.00020416               -0.00012399
               6.00000000                7.00000000                0.00000000                1.00000000                0.00000000                0.00000000                0.00003631               -0.00000000               -0.00037326               -0.00026212
               7.00000000                7.00000000                0.00000000                1.00000000                0.00000000                0.00000000                0.00012607                0.00000000               -0.00092877               -0.00093078
               8.00000000                7.00000000                0.00000000                1.00000000               -0.00000000               -0.00000000                0.00000681               -0.00000000               -0.00131598               -0.00238037
               9.00000000                7.00000000                0.00000000                1.00000000               -0.00000000               -0.00000000                0.00047192                0.00000000               -0.00005413               -0.00314677
              10.00000000                7.00000000                0.00000000                1.00000000                0.00000000               -0.00000000                0.00007338               -0.00000000                0.00107474                0.00030243
               0.00000000                8.00000000                0.00000000                1.00000000               -0.00000000               -0.00000000                0.14106327                0.00000000                0.07937538               -0.01158389
               1.00000000                8.00000000                0.00000000                1.00000000               -0.00000000                0.00000000                0.07221960                0.00000000                0.02576226               -0.01242537
               2.00000000                8.00000000                0.00000000                1.00000000                0.00000000               -0.00000000                0.00204601                0.00000000                0.00693758               -0.00427069
               3.00000000                8.00000000                0.00000000                1.00000000               -0.00000000               -0.00000000                0.00085061                0.00000000                0.00342865               -0.00250722
               4.00000000                8.00000000                0.00000000                1.00000000               -0.00000000                0.00000000               -0.00003920               -0.00000000                0.00151702               -0.00033565
               5.00000000                8.00000000                0.00000000                1.00000000               -0.00000000               -0.00000000                0.00005994                0.00000000                0.00020159                0.00014044
               6.00000000                8.00000000                0.00000000                1.00000000                0.00000000               -0.00000000                0.00007221                0.00000000               -0.00070922               -0.00005602
               7.00000000                8.00000000                0.00000000                1.00000000               -0.00000000                0.00000000                0.00002055               -0.00000000               -0.00234627               -0.00129837
               8.00000000                8.00000000                0.00000000                1.00000000               -0.00000000                0.00000000                0.00124493                0.00000000               -0.00471628               -0.00464234
               9.00000000                8.00000000                0.00000000                1.00000000                0.00000000               -0.00000000               -0.00144922                0.00000000               -0.00792617               -0.00992826
              10.00000000                8.00000000                0.00000000                1.00000000               -0.00000000                0.00000000                0.00295825               -0.00000000               -0.01156751                0.00225241
               0.00000000                9.00000000                0.00000000                1.00000000               -0.00000000               -0.00000000                0.14931780               -0.00000000                0.08233639               -0.04268394
               1.00000000                9.00000000                0.00000000                1.00000000                0.00000000                0.00000000                0.10595980                0.00000000                0.03305891               -0.03963141
               2.00000000                9.00000000                0.00000000                1.00000000               -0.00000000               -0.00000000                0.04576108                0.00000000                0.00377405               -0.02174778
               3.00000000                9.00000000                0.00000000                1.00000000               -0.00000000                0.00000000               -0.00365540               -0.00000000                0.00441084               -0.00411009
               4.00000000                9.00000000                0.00000000                1.00000000                0.00000000               -0.00000000                0.00047625                0.00000000                0.00100425                0.00083631
               5.00000000                9.00000000                0.00000000                1.00000000               -0.00000000                0.00000000               -0.00000521                0.00000000               -0.00009777                0.00045713
               6.00000000                9.00000000                0.00000000                1.00000000               -0.00000000               -0.00000000                0.00004532               -0.00000000               -0.00061976                0.00041633
               7.00000000                9.00000000                0.00000000                1.00000000                0.00000000                0.00000000                0.00040755               -0.00000000               -0.00311400               -0.00011142
               8.00000000                9.00000000                0.00000000                1.00000000                0.00000000                0.00000000               -0.00068451                0.00000000               -0.00971123               -0.00772558
               9.00000000                9.00000000                0.00000000                1.00000000                0.00000000                0.00000000                0.05609875               -0.00000000               -0.02240395               -0.02172333
              10.00000000                9.00000000                0.00000000                1.00000000                0.00000000               -0.00000000                0.13495073                0.00000000               -0.07631873               -0.01877971
               0.00000000               10.00000000                0.00000000                1.00000000                0.00000000                0.00000000                0.17559779               -0.00000000                0.08068670               -0.09155666
               1.00000000               10.00000000                0.00000000                1.00000000                0.00000000               -0.00000000                0.15392517               -0.00000000                0.02724118               -0.08846091
               2.00000000               10.00000000                0.00000000                1.00000000               -0.00000000                0.00000000                0.10177435               -0.00000000               -0.01069246               -0.06768131
               3.00000000               10.00000000                0.00000000                1.00000000                0.00000000               -0.00000000               -0.00337023               -0.00000000               -0.00874320               -0.00601757
               4.00000000               10.00000000                0.00000000                1.00000000                0.00000000               -0.00000000                0.00013850                0.00000000               -0.00190226                0.00111427
               5.00000000               10.00000000                0.00000000                1.00000000                0.00000000               -0.00000000               -0.00029400               -0.00000000               -0.00036888                0.00055787
               6.00000000               10.00000000                0.00000000                1.00000000               -0.00000000                0.00000000               -0.00027562                0.00000000               -0.00027970                0.00066662
               7.00000000               10.00000000                0.00000000                1.00000000                0.00000000               -0.00000000               -0.00003027                0.00000000                0.00051940                0.00103235
               8.00000000               10.00000000                0.00000000                1.00000000                0.00000000               -0.00000000                0.00483531                0.00000000                0.00290105               -0.01268908
               9.00000000               10.00000000                0.00000000                1.00000000               -0.00000000               -0.00000000                0.13568378               -0.00000000               -0.01757867               -0.07584749
              10.00000000               10.00000000                0.00000000                1.00000000                0.00000000                0.00000000                0.23998519                0.00000000               -0.08812689               -0.09038001
               0.00053428                0.00052832                1.00116913                0.86730857               -0.03817444               -0.03814849                0.11680095               -0.01888547               -0.00070577               -0.00194140
               1.00015253                0.00043313                1.00065323                0.52082487               -0.02620020               -0.02749490                0.10172243               -0.01654577               -0.01358059                0.01123727
               2.00001027                0.00018250                1.00021022                0.33421245               -0.00640457               -0.01253173                0.10336227               -0.01173335               -0.00770493                0.03076850
               3.00002444                0.00008018                1.00009867                0.31832629                0.00269996               -0.00640121                0.10711497               -0.00304798                0.01917974                0.03459944
               4.00006427                0.00010351                1.00012979                0.37637805                0.00473831               -0.00912877                0.11225193                0.00192154                0.03787963                0.02928973
               5.00011921                0.00020068                1.00024940                0.48603204                0.00492909               -0.01691059                0.11610302                0.00566942                0.04784620                0.02285729
               6.00016285                0.00039970                1.00052549                0.66212809               -0.00108906               -0.03257873                0.12327119                0.00868886                0.05428992                0.00828435
               7.00009743                0.00062756                1.00098748                0.91083582               -0.01463334               -0.04831495                0.12588817                0.00977681                0.04043584               -0.00964892
               7.99987019                0.00075585                1.00130468                0.99999999               -0.02639365               -0.05161796                0.12342961                0.00807320                0.00035712               -0.01231791
               8.99956955                0.00074248                1.00135039                1.00000000               -0.03693966               -0.04495206                0.13078901                0.00254567               -0.02603822                0.01326576
               9.99913139                0.00069557                1.00155944                0.99798856               -0.04381590               -0.04792068                0.14462170               -0.00245336               -0.03748970                0.02857371
               0.00044061                1.00014684                1.00066586                0.52391263               -0.02806242               -0.02611932                0.10371888               -0.01617034                0.01136050               -0.01590248
               1.00015999                1.00015818                1.00026324                0.01000001               -0.01855972               -0.01823926                0.08608158               -0.00925081                0.00174606                0.00130152
               2.00006942                1.00005718                1.00004832                0.01000001               -0.00632657               -0.00745760                0.08352204               -0.00595777                0.01303744                0.01034260
               3.00003346                1.00001617                1.00002724                0.01000001               -0.00230900               -0.00347698                0.08728451               -0.00265552                0.02726717                0.00534676
               4.00002324                1.00001222                1.00003546                0.01000000               -0.00028256               -0.00495165                0.09438309               -0.00220614                0.03264578                0.00208887
               5.00002781                1.00003157                1.00007110                0.01000000                0.00065322               -0.00960462                0.10144628               -0.00305559                0.03272219                0.00022434
               6.00003630                1.00007392                1.00016789                0.01047476               -0.00053423               -0.01889841                0.11305707               -0.00318644                0.03345229               -0.00708569
               7.00001712                1.00014441                1.00040944                0.03567157               -0.00714189               -0.02887626                0.11782503                0.00207179                0.02846134               -0.02719393
               7.99989346                1.00023967                1.00069464                0.51107698               -0.01959851               -0.03468587                0.13278037                0.01245948                0.01481656               -0.03739305
               8.99962515                1.00029295                1.00104165                0.99999999               -0.03698504               -0.03677366                0.13561916                0.01076021                0.00240083               -0.01866213
               9.99915376                1.00021637                1.00146602                0.99999999               -0.04713870               -0.04179413                0.13880292                0.00221933               -0.01356544               -0.00674474
               0.00018818                2.00000594                1.00021882                0.33850580               -0.01310031               -0.00621773                0.10614195               -0.01164550                0.03011750               -0.01155877
               1.00005717                2.00006835                1.00005149                0.01000001               -0.00775205               -0.00625955                0.08523992               -0.00584142                0.00949180                0.01153400
               2.00003314                2.00003335                0.99999555                0.01000001               -0.00204417               -0.00204040                0.09695435               -0.00584372                0.01758040                0.01798576
               3.00001629                2.00001064                1.00000016                0.01000001               -0.00141969               -0.00046936                0.05702784               -0.00278387                0.02331123                0.01212314
               4.00000474                2.00000448                0.99999829                0.01000001               -0.00099443               -0.00043546                0.06885454               -0.00117736                0.01867845                0.00868388
               4.99999640                2.00000859                0.99999615                0.01000000               -0.00092280               -0.00132114                0.07267849               -0.00067243                0.01462377                0.00884089
               5.99998629                2.00002174                0.99999224                0.01000000               -0.00116478               -0.00311130                0.09487470               -0.00010977                0.01434707                0.00182043
               6.99997311                2.00005004                0.99996551                0.01000000               -0.00077248               -0.00620766                0.20710679                0.00069120               -0.00646207                0.01742268
               7.99997084                2.00006214                1.00001483                0.01000000               -0.00825206               -0.01057203                0.18636871                0.00215317                0.01315790               -0.01684310
               8.99980806                2.00000700                1.00049662                0.08488115               -0.03209393               -0.01300854                0.14252861                0.00663894                0.02367379               -0.05545034
               9.99932896                1.99985969                1.00104838                0.73810801               -0.04791066               -0.01568969                0.13249407                0.02435966               -0.00009066               -0.08132952
               0.00008288                3.00002248                1.00010271                0.32230094               -0.00671280                0.00297235                0.10855798               -0.00307277                0.03251091                0.01495688
               1.00001575                3.00003299                1.00002880                0.01000001               -0.00363125               -0.00225431                0.08878550               -0.00260755                0.00301006                0.02464955
               2.00001025                3.00001637                1.00000002                0.01000001               -0.00045503               -0.00143143                0.05738069               -0.00277172                0.01274624                0.02054082
               3.00000665                3.00000678                1.00000091                0.01000001               -0.00042553               -0.00044879                0.06751535               -0.00128959                0.01644018                0.01195947
               4.00000174                3.00000351                1.00000069                0.01000001               -0.00047755               -0.00016009                0.07136661               -0.00025056                0.01675368                0.00961907
               4.99999710                3.00000515                1.00000101                0.01000001               -0.00045427               -0.00031138                0.07666455                0.00054698                0.01448073                0.00516643
               5.99999266                3.00001169                1.00000135                0.01000001               -0.00032763               -0.00086090                0.08425592                0.00132066                0.00843588                0.00509166
               6.99999054                3.00002026                1.00000525                0.01000001               -0.00065462               -0.00210806                0.09407819                0.00198345                0.00287420                0.00802393
               7.99997956                3.00002823                1.00000952                0.01548571               -0.00150855               -0.00246635                0.05317184                0.00195665               -0.01383681                0.00939434
               8.99996037                3.00003278                0.99995883                0.01060478               -0.00219919                0.00000571                0.18590185                0.00373423               -0.03799121               -0.03439408
               9.99993558                2.99990257                0.99996564                0.21422654               -0.00247939                0.00588041                0.19272740                0.02102643               -0.03029603               -0.07005321
               0.00010570                4.00006538                1.00013371                0.38189729               -0.00945677                0.00515955                0.11268691                0.00200699                0.02616324                0.03554108
               1.00001113                4.00002326                1.00003748                0.01000000               -0.00508926               -0.00023696                0.09503345               -0.00229861               -0.00139680                0.02962028
               2.00000392                4.00000472                0.99999813                0.01000001               -0.00038870               -0.00102236                0.06987218               -0.00120143                0.00969570                0.01220629
               3.00000336                4.00000166                1.00000070                0.01000001               -0.00012782               -0.00050862                0.07099408               -0.00024844                0.01530056                0.00784042
               4.00000136                4.00000127                1.00000034                0.01258947               -0.00020977               -0.00023191                0.05929883                0.00007378                0.01519382                0.00533968
               4.99999916                4.00000236                1.00000031                0.01104595               -0.00018842               -0.00024770                0.07408725                0.00032791                0.01295305                0.00339893
               5.99999759                4.00000452                1.00000050                0.01000001               -0.00014651               -0.00054014                0.10670406                0.00059565                0.00986570               -0.00097125
               6.99999623                4.00000788                1.00000052                0.01000000               -0.00000718               -0.00093772                0.11818438                0.00083915               -0.00115128               -0.00390998
               7.99999745                4.00001281                0.99999920                0.01164423                0.00060880               -0.00135061                0.07437349                0.00106217               -0.00782881               -0.01337114
               9.00000841                4.00000712                1.00000499                0.01000000                0.00062313               -0.00174018                0.05063468                0.00043260               -0.03658238               -0.01400818
              10.00000991                3.99997730                1.00000172                0.22521694                0.00015002                0.00461793                0.10551522                0.00049517               -0.09399660               -0.00676782
               0.00020726                5.00012567                1.00026099                0.49697800               -0.01768161                0.00545834                0.11720345                0.00597057                0.01979450                0.04861661
               1.00003044                5.00002825                1.00007605                0.01000000               -0.00997181                0.00066443                0.10154403               -0.00339876               -0.00297786                0.02965633
               2.00000782                4.99999593                0.99999582                0.01000000               -0.00126600               -0.00103743                0.06609925               -0.00069995                0.00990499                0.00324095
               3.00000512                4.99999661                1.00000105                0.01000001               -0.00026511               -0.00051210                0.07653545                0.00059240                0.01250896                0.00196170
               4.00000252                4.99999887                1.00000032                0.01104662               -0.00023549               -0.00021377                0.07384927                0.00036045                0.01657934               -0.00330572
               5.00000041                5.00000020                1.00000029                0.01215251               -0.00017338               -0.00017895                0.08176893                0.00020241                0.01268640               -0.00535321
               5.99999905                5.00000089                1.00000028                0.01000000               -0.00006876               -0.00029814                0.10521288                0.00012243                0.00571518               -0.00843916
               6.99999904                5.00000151                1.00000034                0.01000000                0.00012577               -0.00059246                0.11376817                0.00007831               -0.00235101               -0.01630278
               8.00000157                5.00000122                1.00000059                0.01000001                0.00027490               -0.00100890                0.07814403               -0.00007285               -0.02708738               -0.01576869
               9.00000454                4.99999798                0.99999983                0.01000001                0.00017756               -0.00068857                0.12073553               -0.00053587               -0.06049855               -0.00980767
              10.00000512                4.99999493                0.99999719                0.28023531                0.00005835                0.00094614                0.15446058               -0.00047538               -0.07762357               -0.00798173
               0.00041995                6.00017455                1.00056463                0.68479154               -0.03470454               -0.00082749                0.12686570                0.00847954                0.00584510                0.05818226
               1.00007291                6.00003655                1.00018320                0.01000000               -0.01991939               -0.00089068                0.11285506               -0.00355186               -0.00921390                0.03063765
               2.00002156                5.99998397                0.99999141                0.01000000               -0.00303238               -0.00141445                0.12933455               -0.00001126                0.00773873                0.00038545
               3.00001226                5.99999142                1.00000141                0.01000001               -0.00082929               -0.00043402                0.07562796                0.00151199                0.01444827               -0.00632985
               4.00000498                5.99999700                1.00000056                0.01000001               -0.00055299               -0.00018130                0.10463938                0.00069856                0.01428682               -0.01098586
               5.00000120                5.99999878                1.00000029                0.01000000               -0.00031235               -0.00007187                0.10312245                0.00015924                0.00829330               -0.01475795
               5.99999873                5.99999855                1.00000033                0.01668721               -0.00018658               -0.00017543                0.05772612               -0.00027692                0.00111858               -0.01235628
               6.99999747                5.99999603                1.00000035                0.01049493                0.00003928               -0.00054070                0.05308514               -0.00071248               -0.01346649               -0.00815643
               7.99999952                5.99999263                1.00000073                0.01138599                0.00032571               -0.00125119                0.08693534               -0.00087051               -0.03084302               -0.00878016
               9.00000398                5.99999334                1.00000039                0.01278575                0.00034919               -0.00147238                0.10876718               -0.00007427               -0.05837850               -0.01032182
              10.00000650                5.99999622                0.99999720                0.35906571                0.00025188                0.00040467                0.14382521                0.00056907               -0.08905239               -0.00639691
               0.00065285                7.00010912                1.00107553                0.94745051               -0.05028612               -0.01451942                0.13015777                0.00882180               -0.01094024                0.04429326
               1.00014999                7.00001044                1.00044634                0.05186047               -0.03000604               -0.00804021                0.11585165                0.00216149               -0.02824265                0.02460241
               2.00005273                6.99996764                0.99996177                0.01000000               -0.00638272               -0.00133377                0.19079821                0.00126496                0.01507987               -0.01840535
               3.00002233                6.99998793                1.00000611                0.01000001               -0.00217976               -0.00082467                0.08848711                0.00248201                0.01669028               -0.01301024
               4.00000913                6.99999525                1.00000050                0.01000000               -0.00101449               -0.00001777                0.11394079                0.00105132                0.01001472               -0.02158213
               5.00000204                6.99999876                1.00000040                0.01000000               -0.00064318                0.00013116                0.10852997                0.00014742               -0.00168177               -0.02170190
               5.99999627                6.99999738                1.00000036                0.01049635               -0.00056647                0.00004425                0.05435059               -0.00069452                0.00134137               -0.02466563
               6.99999071                6.99999069                1.00000126                0.01000001               -0.00047136               -0.00045057                0.06500272               -0.00210559               -0.01555966               -0.02341531
               7.99998684                6.99997620                1.00000007                0.01000000                0.00043732               -0.00195268                0.08117228               -0.00344192               -0.02742316               -0.01994272
               8.99999946                6.99996853                1.00000472                0.01000001                0.00119536               -0.00463138                0.12576881               -0.00282072               -0.05490954               -0.00779415
              10.00001075                7.00000302                1.00000073                0.48467960                0.00112887                0.00131514                0.17205082               -0.00265953               -0.08713804               -0.01257944
               0.00079375                7.99988416                1.00141063                1.00000000               -0.05361313               -0.02679815                0.13269520                0.00768436               -0.01163825                0.00336566
               1.00025762                7.99987575                1.00072220                0.53317703               -0.03621890               -0.02033772                0.13109518                0.01268676               -0.03501727                0.00919234
               2.00006938                7.99995729                1.00002046                0.01000000               -0.01116681               -0.00925571                0.16867325                0.00420979               -0.01398227                0.00156980
               3.00003429                7.99997493                1.00000851                0.01549103               -0.00271028               -0.00145138                0.05023465                0.00305637                0.01599784               -0.02921642
               4.00001517                7.99999664                0.99999961                0.01164920               -0.00161353                0.00065574                0.06419351                0.00136941               -0.00218101               -0.02474875
               5.00000202                8.00000140                1.00000060                0.01000001               -0.00111312                0.00029056                0.07176860               -0.00001115               -0.00435441               -0.04152754
               5.99999291                7.99999944                1.00000072                0.01140206               -0.00127393                0.00033922                0.08281174               -0.00084265                0.00029508               -0.03966435
               6.99997654                7.99998702                1.00000021                0.01000000               -0.00200353                0.00040968                0.07726268               -0.00338577               -0.01664480               -0.03032479
               7.99995284                7.99995358                1.00001245                0.01000000               -0.00278995               -0.00267261                0.15757265               -0.00851257               -0.03920424               -0.02587008
               8.99992074                7.99990072                0.99998551                0.29411720               -0.00342562               -0.00928828                0.20834729               -0.00772753               -0.05586601                0.00354256
               9.99988432                8.00002252                1.00002958                0.98002300               -0.00364133               -0.00954107                0.23859352               -0.02651606               -0.05969149                0.03982476
               0.00082336                8.99957316                1.00149318                1.00000000               -0.04927748               -0.03998638                0.14634117                0.00370819                0.01411568               -0.02249023
               1.00033059                8.99960369                1.00105960                0.99402754               -0.03928117               -0.03801777                0.13882465                0.01120754               -0.01619262               -0.00058029
               2.00003774                8.99978252                1.00045761                0.04383406               -0.01432403               -0.03170531                0.13190528                0.00894564               -0.04490552                0.01113810
               3.00004411                8.99995890                0.99996345                0.01061419               -0.00138490               -0.00175518                0.16712722                0.00520612               -0.01827567               -0.05615931
               4.00001004                9.00000836                1.00000476                0.01000000               -0.00225430                0.00072496                0.04632251                0.00057397               -0.00264510               -0.04813976
               4.99999902                9.00000457                0.99999995                0.01000001               -0.00081200                0.00020872                0.11018272               -0.00049522                0.00064711               -0.07142372
               5.99999380                9.00000416                1.00000045                0.01278082               -0.00150812                0.00036132                0.09857678               -0.00006952               -0.00059449               -0.06307799
               6.99996886                8.99999889                1.00000408                0.01000001               -0.00454574                0.00116536                0.12641706               -0.00263812               -0.00523065               -0.04532662
               7.99990289                8.99992274                0.99999315                0.32256199               -0.00964497               -0.00402337                0.20404102               -0.00699729               -0.00021538               -0.03991590
               8.99977596                8.99978277                1.00056099                0.99999999               -0.03330375               -0.03295961                0.16992223               -0.01035331                0.02723983                0.03236554
               9.99923681                8.99981220                1.00134951                0.99953790               -0.05391478               -0.04631621                0.18991086               -0.03533608                0.00181051                0.07503638
               0.00080687                9.99908443                1.00175598                0.99850244               -0.05344552               -0.04887272                0.16382333                0.00144605                0.03325210               -0.03544565
               1.00027241                9.99911539                1.00153925                0.99999999               -0.04568958               -0.04882951                0.14713479                0.00611994               -0.00296740               -0.01429250
               1.99989308                9.99932319                1.00101774                0.70599842               -0.01799219               -0.04593354                0.12989963                0.02675516               -0.06969308               -0.00828279
               2.99991257                9.99993982                0.99996630                0.21057704                0.00439510               -0.00190748                0.17958730                0.02124375               -0.04686010               -0.04735594
               3.99998098               10.00001114                1.00000139                0.22517370                0.00418716                0.00027796                0.09852053                0.00038121                0.00488133               -0.09929415
               4.99999631               10.00000558                0.99999706                0.28041348                0.00081128                0.00010074                0.15029816               -0.00049494               -0.00312638               -0.08673584
               5.99999720               10.00000667                0.99999724                0.35893388                0.00044414                0.00025029                0.13744562                0.00057730               -0.00382955               -0.09114410
               7.00000519               10.00001032                0.99999970                0.48646229                0.00159037                0.00114378                0.17008597               -0.00304445               -0.01187087               -0.07073917
               8.00002901                9.99987311                1.00004835                0.98521833               -0.00904903               -0.00496350                0.22649723               -0.02582765                0.04719839               -0.04474037
               8.99982421                9.99924153                1.00135684                0.99953728               -0.04551397               -0.05412416                0.18894333               -0.03402019                0.07887312                0.00740237
               9.99911873                9.99909620                1.00239985                0.99940351               -0.07054823               -0.07160030                0.20626683               -0.02634069                0.03493443                0.03065435
               0.00101769                0.00096770                2.00233602                0.92189732               -0.03303901               -0.03354471                0.10913675                0.00517895                0.01036146                0.00906794
               1.00068730                0.00100472                2.00203445                0.67980748               -0.03086181               -0.03769518                0.12155731               -0.00491084                0.02970317                0.01003427
               2.00040045                0.00093916                2.00206725                0.45312405               -0.01116399               -0.05176392                0.13703278                0.00113684                0.03922421                0.01260646
               3.00046402                0.00083486                2.00214230                0.43706869                0.01032057               -0.06294163                0.14539944                0.00118287                0.03620479                0.01382017
               4.00060687                0.00077445                2.00224504                0.51581398                0.00486042               -0.06011767                0.14995959               -0.00083805                0.03476167                0.01122143
               5.00056123                0.00081374                2.00232206                0.65650040               -0.01295710               -0.05560044                0.15083530                0.00139913                0.02777837                0.01067128
               6.00034772                0.00088087                2.00246542                0.87092524               -0.02658519               -0.04893376                0.14348897                0.00576661                0.01117428                0.00822271
               7.00002953                0.00096310                2.00251776                0.99999999               -0.03517503               -0.04850089                0.13280646                0.00593784               -0.01222835               -0.00078076
               7.99964422                0.00097372                2.00246859                1.00000000               -0.04025285               -0.04317325                0.12771697               -0.00202408               -0.01611428                0.02264906
               8.99922447                0.00088281                2.00261578                1.00000000               -0.04060590               -0.04022790                0.13170024               -0.00555254               -0.00548411                0.00956850
               9.99883210                0.00075833                2.00289243                0.99577568               -0.03923633               -0.03821537                0.12871293               -0.00766486                0.00286231               -0.01413581
               0.00103246                1.00063226                2.00207438                0.68376550               -0.03799980               -0.03178641                0.12369744               -0.00448191                0.00933685                0.02704476
               1.00065246                1.00062777                2.00172163                0.02932997               -0.02678550               -0.02698008                0.12916652               -0.02424615                0.02203646                0.02230198
               2.00049675                1.00042152                2.00167044                0.01000000               -0.00471301               -0.02655705                0.12982451               -0.02099207                0.03388972                0.03603371
               3.00055820                1.00020545                2.00174569                0.01000000                0.00561482               -0.02830388                0.13216827               -0.01243927                0.04237415               -0.01397722
               4.00060905                1.00017328                2.00188766                0.01000000               -0.00180958               -0.02830035                0.13985892               -0.00885006                0.04455626               -0.01125034
               5.00052201                1.00025774                2.00202893                0.01000000               -0.01391682               -0.02834138                0.14914110               -0.00222220                0.04118691               -0.01279570
               6.00033071                1.00039153                2.00226114                0.01588200               -0.02397654               -0.03389589                0.15591462                0.00951063                0.02654584               -0.00016651
               7.00004248                1.00047809                2.00235650                0.41823761               -0.03332938               -0.01052276                0.16335751               -0.00154544                0.01493143                0.10134237
               7.99966412                1.00054198                2.00265561                0.98495324               -0.03829214               -0.03127294                0.16184121                0.00451369                0.00152725                0.07096711
               8.99927664                1.00048053                2.00271238                0.99999999               -0.03920899               -0.04545022                0.15233363                0.00248256               -0.01614703                0.01263661
               9.99887994                1.00037617                2.00277606                0.99999999               -0.03966942               -0.04422705                0.14013905               -0.00730817               -0.01378234               -0.01207093
               0.00093702                2.00033197                2.00212284                0.45865053               -0.05239120               -0.01240025                0.14081137                0.00159398                0.01140090                0.03287368
               1.00041311                2.00046512                2.00170480                0.01000000               -0.02670448               -0.00603848                0.13176064               -0.02067607                0.03417020                0.03197275
               2.00040293                2.00040802                2.00193909                0.01000001                0.00251840               -0.00066417                0.08474235               -0.02051367                0.00733404                0.00772992
               3.00046348                2.00026879                2.00114056                0.01000000               -0.00126785                0.00166002                0.14094828               -0.02148246                0.00718216                0.00923547
               4.00037758                2.00020845                2.00137709                0.01000001               -0.00824759                0.00085271                0.14244116               -0.01479732                0.04218876                0.00276176
               5.00029853                2.00024691                2.00145357                0.01000000               -0.00299967               -0.00792831                0.16440082               -0.01192732                0.04577466                0.00093829
               6.00031758                2.00020295                2.00189749                0.01000001               -0.02251814               -0.01489800                0.17373246                0.01697471                0.13070666               -0.00838251
               6.99984817                2.00075264                2.00414214                0.01000000               -0.02927672               -0.01763127                0.19806547                0.00760689                0.08535887               -0.02924657
               7.99973205                2.00034826                2.00372737                0.01000000               -0.02041172               -0.01692312                0.20246309               -0.03366356               -0.07420122               -0.08158751
               8.99943993                1.99997381                2.00285057                0.28011913               -0.04186920               -0.03383968                0.18566559               -0.02335287               -0.07417813                0.04487664
               9.99889467                1.99987379                2.00264988                0.86346205               -0.05452652               -0.03652889                0.16718033                0.01502296               -0.04106427                0.04840325
               0.00079805                3.00038425                2.00217116                0.44244866               -0.06351526                0.01102836                0.14781985                0.00121033                0.01191228                0.02825003
               1.00016290                3.00050700                2.00177571                0.01000000               -0.02576192                0.00400163                0.13370010               -0.01407383               -0.01724154                0.03751888
               2.00028281                3.00040824                2.00114761                0.01000000                0.00826151               -0.00798499                0.14197302               -0.02202979                0.01099431                0.00165753
               3.00032813                3.00023865                2.00135031                0.01000001                0.00260824               -0.00560602                0.13509385               -0.01887966                0.04317841                0.03354036
               4.00033498                3.00019033                2.00142733                0.01000001               -0.00195845               -0.00506383                0.14201859               -0.01063954                0.03383907                0.00590081
               5.00028896                3.00009917                2.00153329                0.01000000               -0.00852498               -0.00891073                0.16212265               -0.00681906                0.03396247                0.01301787
               6.00016448                3.00009357                2.00168512                0.01000001               -0.01198224               -0.01106561                0.19280919               -0.00470957                0.02789843                0.01737137
               7.00004931                3.00012546                2.00188156                0.01000000               -0.01973960               -0.04129677                0.22798101                0.01200297               -0.03664305               -0.08844534
               7.99976968                3.00020352                2.00106344                0.01000000               -0.03826302               -0.03033732                0.23232130               -0.01074080                0.06563626               -0.11356953
               8.99928405                2.99980374                2.00371804                0.01000000               -0.01946167               -0.01474874                0.17625315               -0.03660132                0.10328303               -0.10834372
               9.99938045                2.99964559                2.00385455                0.24746843                0.00963979               -0.00203458                0.17519251               -0.05421696               -0.01593713               -0.04576298
               0.00071573                4.00055254                2.00225374                0.52328493               -0.06080832                0.00785810                0.15091625               -0.00235267                0.00809943                0.03036101
               1.00010765                4.00054515                2.00190067                0.01000000               -0.02425206               -0.00298010                0.13990707               -0.01307537               -0.01425815                0.03799239
               2.00023069                4.00024832                2.00139744                0.01000000                0.00980730               -0.01683531                0.14233604               -0.01991000                0.00531629                0.02263605
               3.00030379                4.00015667                2.00141988                0.01000001                0.00367879               -0.01000642                0.14208895               -0.01117962                0.01773676                0.01653726
               4.00030427                4.00010717                2.00118598                0.01000000               -0.00224449               -0.01283315                0.15845888               -0.00452975                0.02590276                0.00430842
               5.00025890                4.00006870                2.00148174                0.01603204               -0.00535832               -0.01031085                0.14418003               -0.00803629                0.05939487                0.00597138
               6.00019710                3.99998164                2.00213408                0.01657071               -0.01403142               -0.01310932                0.14329027               -0.00961096                0.04500508                0.01667862
               6.99997828                3.99992671                2.00236369                0.01012345               -0.01790725               -0.02256723                0.19288984               -0.01683824               -0.04058736                0.00954059
               7.99983895                3.99974151                2.00148747                0.01000001               -0.03562223               -0.02602149                0.21876741               -0.02793950               -0.08850962                0.00742687
               8.99926583                3.99967883                2.00101269                0.01000002               -0.08561676                0.00023547                0.23023613               -0.01995244               -0.01974859               -0.09035042
               9.99812662                3.99983309                2.00211030                0.28968583               -0.11392121                0.00996429                0.24055708               -0.03095643                0.00775428               -0.05348435
               0.00076577                5.00054141                2.00234407                0.66989275               -0.05601625               -0.01017152                0.15251530               -0.00120046                0.00704119                0.02853354
               1.00020561                5.00044740                2.00203088                0.01000000               -0.02463387               -0.01513453                0.14828892               -0.00942956               -0.02199302                0.03373541
               2.00027310                5.00007153                2.00132198                0.01000000                0.00200364               -0.01032791                0.16672602               -0.01515016                0.00912844                0.05554095
               3.00024569                5.00003852                2.00153071                0.01000000                0.00296263               -0.01441626                0.15687186               -0.00809204                0.03378843                0.00114416
               4.00033235                4.99993367                2.00147699                0.01603338                0.00040381               -0.01635329                0.14361121               -0.00814891                0.02787037                0.03161549
               5.00025376                4.99989295                2.00163538                0.01457851               -0.01090505               -0.01819826                0.12654854               -0.00975439                0.04016726                0.01385226
               6.00011425                4.99983139                2.00210426                0.01000000               -0.01505416               -0.01144228                0.14135532               -0.01968100                0.03273111               -0.06038273
               6.99995268                4.99967412                2.00227536                0.01000000               -0.03277416               -0.00453757                0.17749143               -0.01981516               -0.04247217               -0.08123628
               7.99945877                4.99968309                2.00156288                0.01000001               -0.05796280                0.00417015                0.19590692               -0.01607602               -0.03724021               -0.01245326
               8.99879342                4.99980845                2.00241471                0.02209680               -0.05029809                0.00549202                0.15758089               -0.01340420               -0.00992328                0.04372110
               9.99845280                4.99984488                2.00308921                0.35844147               -0.03406179                0.00177136                0.17216257                0.00857834               -0.03331194                0.03056100
               0.00087975                6.00034911                2.00253731                0.89707548               -0.04908128               -0.02507756                0.14636175                0.00302460                0.00366372                0.01305337
               1.00038894                6.00024246                2.00225710                0.02956134               -0.02715930               -0.02471709                0.15412572                0.00179701                0.03456333                0.01691651
               2.00033657                6.00004176                2.00258669                0.01000001               -0.00545604               -0.02343430                0.14460109                0.00473029               -0.01985242                0.09271736
               3.00027982                5.99986834                2.00151256                0.01000001               -0.00248546               -0.01529087                0.18660684               -0.01061316               -0.00262066               -0.00652138
               4.00028686                5.99978010                2.00209279                0.01657383               -0.00568600               -0.01821787                0.13911247               -0.01449742                0.04395358                0.01274739
               5.00016610                5.99970473                2.00206245                0.01000000               -0.01322709               -0.01636476                0.13785006               -0.01572861               -0.03439125                0.00074033
               6.00002231                5.99975280                2.00115452                0.01000001               -0.02179150               -0.01625462                0.17551265                0.00214687               -0.05023541               -0.08024105
               6.99973027                5.99983595                2.00106170                0.01000001               -0.03196065               -0.00711389                0.19353996               -0.00957285                0.00817442               -0.08053777
               7.99938310                5.99982491                2.00173871                0.01000001               -0.04471544               -0.00468320                0.20656415               -0.00289836               -0.00198011               -0.01873885
               8.99883596                5.99978868                2.00217534                0.01000001               -0.05788875                0.00252742                0.17611096                0.00756640               -0.03426074               -0.01725147
               9.99822533                5.99986852                2.00287650                0.45650211               -0.06106326               -0.00644245                0.17611154               -0.00139511               -0.03686486                0.00103506
               0.00103957                7.00003986                2.00260316                0.99999999               -0.04906629               -0.03497254                0.13745562                0.00453737               -0.00279538               -0.00781171
               1.00054890                6.99995306                2.00231703                0.44252107               -0.01488707               -0.03359365                0.15997363               -0.00680636                0.09115418                0.00497644
               2.00074182                6.99960285                2.00381596                0.01000000               -0.01269113               -0.02531031                0.18052794               -0.00614374               -0.01965699                0.01742587
               3.00029508                6.99973270                2.00176974                0.01000000               -0.02679068               -0.02050010                0.21210545                0.00137278               -0.05803006               -0.06421234
               4.00020601                6.99956931                2.00227882                0.01012896               -0.01642911               -0.01396725                0.18107817               -0.02448079                0.03226243               -0.08118497
               4.99996650                6.99956566                2.00217060                0.01000000               -0.00900231               -0.02674168                0.17160123               -0.01586578               -0.05064941               -0.07629014
               6.00002596                6.99950629                2.00108701                0.01000001               -0.01386980               -0.02730861                0.18825206               -0.00249178               -0.04891645               -0.02477614
               6.99968910                6.99953184                2.00130005                0.01000000               -0.02889431               -0.02226326                0.17107565                0.00041213                0.00152556               -0.01939747
               7.99944808                6.99958943                2.00162345                0.01000002               -0.03939791               -0.01677014                0.23102978                0.00873354                0.00597274                0.03736383
               8.99890114                6.99985900                2.00251538                0.02163744               -0.05914341               -0.01370461                0.20827000                0.00780957                0.00078803                0.07292434
               9.99826521                6.99971603                2.00344102                0.60753854               -0.06359335               -0.02103997                0.21179875                0.01033799               -0.01954913                0.05491437
               0.00114411                7.99964966                2.00265390                1.00000000               -0.04542813               -0.04175058                0.13729558               -0.00241173                0.01904871               -0.00714713
               1.00068983                7.99957059                2.00262190                0.95288492               -0.03550321               -0.03908592                0.16227481                0.00243534                0.06226779               -0.00235467
               2.00043404                7.99953556                2.00337347                0.01000000               -0.01745092               -0.01886837                0.19001807               -0.03280162               -0.06398166               -0.08675743
               3.00034081                7.99945834                2.00100469                0.01000000               -0.02348789               -0.04068404                0.21597000               -0.01212707               -0.08099802                0.01929939
               3.99996429                7.99950076                2.00128387                0.01000001               -0.02145055               -0.02669412                0.19926383               -0.02919274                0.02962566               -0.12535984
               4.99991180                7.99916990                2.00143537                0.01000001                0.00210046               -0.04952960                0.18086659               -0.01216910                0.01791037               -0.07162812
               6.00000630                7.99920662                2.00165623                0.01000001               -0.01282105               -0.03821880                0.19509531                0.00894042                0.00269097               -0.03268987
               6.99965538                7.99939069                2.00154525                0.01000002               -0.03878413               -0.02189321                0.22351039                0.02482362                0.05190695               -0.00082262
               7.99923061                7.99948951                2.00315145                0.02886489               -0.03949151               -0.02118249                0.19452320                0.00572979                0.06530903                0.07212195
               8.99886555                7.99951458                2.00416695                0.66095432               -0.02562960               -0.02915091                0.21998263                0.01227554               -0.00173299                0.01946766
               9.99871802                7.99944772                2.00477187                0.99576944               -0.01475258               -0.02927868                0.24350178                0.00301191               -0.02560541               -0.01918321
               0.00114947                8.99920485                2.00292682                1.00000000               -0.04377589               -0.04420868                0.14686850               -0.00563186                0.00908133                0.00130705
               1.00071171                8.99917134                2.00277649                0.99999999               -0.04757161               -0.04078734                0.15757786                0.00048438                0.01161715               -0.01591890
               2.00019804                8.99922548                2.00263811                0.22237470               -0.03121899               -0.04107384                0.17734783               -0.02536342                0.04841586               -0.07695226
               3.00008734                8.99891902                2.00334254                0.01000000               -0.01437227               -0.02055808                0.15215487               -0.02258515               -0.07654262                0.06884627
               3.99991060                8.99903543                2.00092645                0.01000002               -0.00350418               -0.07399435                0.20313139               -0.01206898               -0.05421555               -0.05143952
               5.00001725                8.99857506                2.00220365                0.02224382                0.00366932               -0.04494201                0.14346147               -0.01318467                0.05471280               -0.02885447
               5.99998398                8.99874192                2.00197154                0.01000001               -0.00572830               -0.05115431                0.16174352                0.02166935                0.00724014               -0.04852357
               6.99990269                8.99909398                2.00252834                0.02310431               -0.02726010               -0.03983581                0.19748780                0.02399781                0.07939008                0.01455383
               7.99943878                8.99916578                2.00408082                0.69411773               -0.03571205               -0.02473579                0.21804118                0.02691097                0.01002081                0.00856964
               8.99918844                8.99927598                2.00339844                1.00000000               -0.04898049               -0.04791180                0.23903300                0.01625485               -0.06791435               -0.06429726
               9.99845917                8.99913046                2.00379822                1.00000000               -0.07292737               -0.04676620                0.22792002               -0.01982030               -0.01924690               -0.08427044
               0.00109849                9.99876549                2.00327647                0.99578163               -0.04196081               -0.04393629                0.14720089               -0.00616238               -0.00606096                0.00739425
               1.00067889                9.99875484                2.00294270                0.99999999               -0.04597010               -0.04164958                0.14680620               -0.00585327               -0.00287613               -0.01306911
               2.00017909                9.99871408                2.00259799                0.82352487               -0.02998649               -0.05113998                0.16105718                0.01272184                0.05946291               -0.04280150
               3.00007916                9.99904718                2.00359175                0.24546701               -0.00561141                0.01281557                0.15946661               -0.03547820               -0.01941740               -0.02736179
               4.00006686                9.99802087                2.00197041                0.28966534               -0.00687715               -0.10145559                0.21752709               -0.02317913               -0.01783716               -0.01965786
               4.99994161                9.99827106                2.00300596                0.35862577               -0.00730463               -0.03040059                0.16680237                0.00056946                0.03876055               -0.03815129
               5.99992077                9.99818354                2.00274891                0.45635802               -0.01150701               -0.05583818                0.16793994                0.00982462                0.00883791               -0.03763330
               6.99971147                9.99859397                2.00340172                0.60912440               -0.01669722               -0.05000026                0.19905851                0.02144176                0.04545617               -0.00481965
               7.99958683                9.99899480                2.00452994                0.99714892               -0.02427548               -0.01709822                0.23366513                0.01292337               -0.01648092               -0.01927118
               8.99922596                9.99855635                2.00377887                1.00000000               -0.04870835               -0.07196339                0.22241153               -0.02036798               -0.06865480               -0.01148685
               9.99861266                9.99851240                2.00412534                0.99999999               -0.06133035               -0.06180605                0.20079949                0.01095404               -0.01208608               -0.01767274
               0.00134465                0.00123296                3.00335186                0.87218906               -0.03292774               -0.03320514                0.10503143                0.00146824                0.00292906                0.00173751
               1.00101537                0.00125945                3.00308437                0.61497561               -0.03288701               -0.03255789                0.11147356               -0.00130802                0.00918668               -0.00047496
               2.00068691                0.00122824                3.00295087                0.39380273               -0.02223128               -0.03222233                0.10550739               -0.00185805                0.02219123               -0.00193027
               3.00057074                0.00114980                3.00300666                0.36929320               -0.00535810               -0.04114357                0.10661952                0.00002009                0.02092723               -0.00109265
               4.00057975                0.00104269                3.00312898                0.43337196               -0.00581772               -0.03875285                0.10985274               -0.00233304                0.01121552               -0.00029739
               5.00045439                0.00100038                3.00326611                0.54987392               -0.01945539               -0.03562245                0.11573495               -0.00113110                0.00248872               -0.00119912
               6.00019064                0.00097272                3.00339527                0.73495930               -0.03023495               -0.03342064                0.11896402                0.00160552                0.00187107               -0.00163763
               6.99984969                0.00093447                3.00364360                0.97981590               -0.03703759               -0.03875847                0.12564989                0.00026325                0.00302308               -0.00056886
               7.99944989                0.00083480                3.00385902                0.99917376               -0.04068307               -0.04345705                0.13562142                0.00213235               -0.00325737               -0.00560340
               8.99903603                0.00074064                3.00398440                1.00000000               -0.04072761               -0.04297444                0.13530610                0.00511309               -0.00516136               -0.00588304
               9.99863533                0.00064561                3.00413370                1.00000000               -0.04006965               -0.04281077                0.13005435                0.00204018               -0.00464523               -0.00404558
               0.00133284                1.00090091                3.00313981                0.61831419               -0.03281872               -0.03331683                0.11310165               -0.00132241               -0.00039428                0.00672192
               1.00100465                1.00093387                3.00284657                0.01233282               -0.03048439               -0.03028642                0.12164819               -0.00429700                0.00439678                0.00361642
               2.00072315                1.00090601                3.00264481                0.01000000               -0.01704678               -0.02587326                0.11907840               -0.00691792                0.01237121               -0.03134996
               3.00066372                1.00073836                3.00267060                0.01000000               -0.00460130               -0.02795343                0.11947619               -0.00498327                0.02105685                0.02722910
               4.00063113                1.00065516                3.00283264                0.01000000               -0.00928273               -0.02613249                0.12230764               -0.00692271                0.02399466                0.01790115
               5.00047806                1.00064415                3.00305393                0.01000000               -0.01957419               -0.02386937                0.12890509               -0.00397725                0.02121702                0.02324702
               6.00023964                1.00063852                3.00328619                0.01000001               -0.02783903               -0.02713071                0.13247323               -0.01880231                0.02298432                0.01272292
               6.99992128                1.00054689                3.00367659                0.26249334               -0.03357585               -0.04972150                0.14045233               -0.01187855                0.02003296                0.01224403
               7.99956813                1.00040023                3.00393146                0.81145921               -0.03697623               -0.04061241                0.13715420                0.00462480                0.00791555               -0.00168225
               8.99918176                1.00031089                3.00408832                0.99999998               -0.04086801               -0.04208790                0.14237294                0.00916162                0.00305395               -0.00585115
               9.99875077                1.00021750                3.00426880                0.99602774               -0.04309923               -0.04481711                0.14666739                0.00434662                0.00283850               -0.00679557
               0.00125228                2.00056663                3.00303505                0.39818612               -0.03279465               -0.02221642                0.10887219               -0.00233123               -0.00204669                0.01545863
               1.00092433                2.00065372                3.00268670                0.01000000               -0.02541088               -0.01731869                0.11956587               -0.00830229               -0.03137376                0.00864055
               2.00074406                2.00071077                3.00169039                0.01000001               -0.01011999               -0.01574232                0.09224697               -0.00653024                0.03025044                0.02672507
               3.00072193                2.00059073                3.00281913                0.01000000               -0.01042769               -0.01700514                0.14489359               -0.01319750                0.06828408                0.02295521
               4.00053550                2.00052004                3.00284712                0.01000000               -0.01652190               -0.01712599                0.15040856               -0.01016661                0.03306025                0.02083137
               5.00039149                2.00052299                3.00328417                0.01166226               -0.03118256               -0.02034087                0.15455144               -0.00747180                0.03260495                0.02494497
               5.99991185                2.00043011                3.00346689                0.01000000               -0.02705443               -0.02579928                0.17158577               -0.03101180                0.02728043                0.03757207
               6.99985040                1.99994004                3.00392682                0.01337959               -0.00667387               -0.02585435                0.08442061               -0.02247353                0.04096207                0.01048733
               7.99977838                2.00002256                3.00406409                0.01000001               -0.02242040               -0.02017434                0.10061495               -0.00767368                0.00944190                0.01193979
               8.99940199                1.99989888                3.00420993                0.09638264               -0.04346607               -0.03035533                0.14755171               -0.01100624                0.00265778               -0.04491881
               9.99890905                1.99974927                3.00439198                0.67239663               -0.04929406               -0.03453052                0.16388975                0.01469095                0.00930035               -0.05687865
               0.00111202                3.00045658                3.00305911                0.37362389               -0.04175577               -0.00334668                0.11030552               -0.00083080               -0.00117301                0.01188845
               1.00069446                3.00058750                3.00270280                0.01000000               -0.02282403               -0.00628927                0.11900696               -0.01037412                0.02756908                0.01381315
               2.00065554                3.00059117                3.00283948                0.01000000               -0.00519829               -0.02138521                0.14549264               -0.01711341                0.02801493                0.05937191
               3.00059050                3.00039826                3.00270279                0.01000000               -0.00800012               -0.02193626                0.14380849               -0.02154464                0.02152433                0.01063558
               4.00049554                3.00031264                3.00284107                0.01000000               -0.00859688               -0.02411257                0.15918570               -0.01194410                0.04098360                0.02498967
               5.00041856                3.00023733                3.00324346                0.01000001               -0.01465934               -0.02516439                0.16208497               -0.01713240                0.05500490               -0.00878503
               6.00020235                3.00012253                3.00385753                0.01172251               -0.02695976               -0.02555787                0.19485827               -0.00518179                0.06876354               -0.02829299
               6.99987937                3.00002980                3.00456487                0.01621312               -0.03732682               -0.00675774                0.18627210               -0.00725450                0.03095920               -0.01469675
               7.99945582                2.99999675                3.00465595                0.01323433               -0.03222211               -0.01803269                0.20544903               -0.02630708               -0.06261075               -0.00605236
               8.99923492                2.99970379                3.00348389                0.01287026               -0.00560001               -0.01977234                0.11581610               -0.04406244               -0.04665665               -0.00885761
               9.99934382                2.99952689                3.00346949                0.20533221                0.01088921               -0.00381590                0.11728584               -0.06465386               -0.03231263               -0.00943009
               0.00097383                4.00049969                3.00315204                0.43956256               -0.03915630               -0.00219076                0.11311167               -0.00405359               -0.00069903                0.00627592
               1.00058226                4.00052794                3.00283562                0.01000000               -0.01913994               -0.01204851                0.12009361               -0.01492124                0.01827984                0.01470287
               2.00059103                4.00028307                3.00284485                0.01000000               -0.00063517               -0.03368348                0.15048752               -0.01704557                0.03020272                0.02154973
               3.00056956                4.00015201                3.00284248                0.01000000               -0.00667389               -0.02357246                0.15870449               -0.01549425                0.03999945                0.01841300
               4.00045755                4.00003779                3.00316952                0.01246003               -0.01653024               -0.02941349                0.16729345               -0.00862936                0.02126845                0.00006867
               5.00023896                4.00001970                3.00288391                0.01000000               -0.02209007               -0.02703976                0.16334449               -0.01804570               -0.00712496               -0.03736074
               6.00001575                3.99991895                3.00286630                0.01000000               -0.02039294               -0.01748693                0.14587856               -0.02017367                0.04015744               -0.05761359
               6.99983110                3.99980489                3.00385832                0.01000001               -0.02187505               -0.01755183                0.16057683               -0.02227220                0.06370568               -0.06351249
               7.99957825                3.99966190                3.00437455                0.01000001               -0.04202473               -0.02479142                0.21856232               -0.03199271                0.01312395               -0.04486992
               8.99899060                3.99950343                3.00460972                0.01000001               -0.08042374                0.00029821                0.24980514               -0.04720691                0.00636670               -0.04877929
               9.99796977                3.99967295                3.00481286                0.22737365               -0.10208292                0.01565307                0.20391527               -0.05074550                0.03934803               -0.03959939
               0.00097446                5.00041277                3.00331130                0.56084963               -0.03617930               -0.01615817                0.11986415               -0.00263269               -0.00168346                0.00286368
               1.00061267                5.00034653                3.00304183                0.01000000               -0.01419481               -0.02196055                0.12618141               -0.01813703                0.02847299                0.01117866
               2.00069056                4.99991750                3.00333034                0.01166585               -0.00433876               -0.04693652                0.15830524               -0.03208445                0.03239221               -0.00966478
               3.00052589                4.99992681                3.00313849                0.01000001               -0.01176524               -0.02650231                0.15758600               -0.01544685                0.00463542                0.02664009
               4.00045526                4.99972437                3.00287254                0.01000000               -0.01747025               -0.02938368                0.16155837               -0.01768329               -0.01232628               -0.03290921
               5.00017649                4.99969654                3.00253126                0.01000000               -0.02207840               -0.02706666                0.15423906                0.00305506               -0.00020429               -0.02648232
               6.00001369                4.99977279                3.00282739                0.01316966               -0.02427574               -0.02539857                0.14732197               -0.00193770                0.04337907                0.00930562
               6.99969097                4.99967877                3.00355017                0.01073683               -0.04481368               -0.02221538                0.17576255               -0.02631004                0.03505145               -0.01530727
               7.99911742                4.99950092                3.00391872                0.01000001               -0.07056159               -0.00523067                0.23938764               -0.03504944               -0.02948160               -0.02958332
               8.99827974                4.99970975                3.00315145                0.01325271               -0.05637690                0.00221079                0.15525585               -0.02353004               -0.03163574               -0.07271394
               9.99798988                4.99983995                3.00344044                0.26394988               -0.02898606               -0.00039151                0.08978011                0.00787529               -0.01221439               -0.06970620
               0.00105365                6.00017653                3.00349186                0.75863071               -0.03388558               -0.02882345                0.12456339                0.00095606               -0.00145060                0.00588267
               1.00071480                6.00008873                3.00326572                0.01000000               -0.03422971               -0.03006815                0.13016000               -0.03422994               -0.00968244                0.01213714
               2.00036906                5.99934434                3.00288343                0.01000000               -0.01305235               -0.01940586                0.12369052               -0.04752267                0.05026762               -0.01313615
               3.00045375                5.99962196                3.00373355                0.01172708               -0.00174488               -0.03576333                0.18347471               -0.00106161                0.01114755                0.03209371
               4.00033416                5.99945012                3.00278281                0.01000000               -0.01010548               -0.02719534                0.14010386               -0.01726642               -0.03669497                0.00509400
               5.00025164                5.99947837                3.00275730                0.01317147               -0.01696954               -0.02982520                0.14388147               -0.00173824                0.03835975                0.01079094
               5.99999477                5.99941098                3.00351058                0.01000000               -0.03374340               -0.03863242                0.20411325               -0.01214959                0.04492494                0.00605521
               6.99957677                5.99936058                3.00387115                0.01000001               -0.05742478               -0.02797867                0.22478063               -0.00299361                0.01603858               -0.04842297
               7.99884627                5.99955729                3.00413201                0.01332834               -0.06979009               -0.00950956                0.20438017               -0.00196872               -0.03206023                0.00747624
               8.99818097                5.99954765                3.00352261                0.01000000               -0.04896958               -0.01371677                0.16427458                0.00128696               -0.05480173                0.03116497
               9.99786688                5.99966512                3.00351943                0.32314508               -0.03140876               -0.03170028                0.12057133                0.00067707               -0.03877318                0.02042952
               0.00116918                6.99983630                3.00382464                0.98568353               -0.04089236               -0.03794899                0.13570857                0.00014064               -0.00194680                0.00979758
               1.00076026                6.99974517                3.00364581                0.29010509               -0.04811536               -0.03597677                0.14097823               -0.01191487                0.00484140                0.01174069
               2.00020688                6.99952938                3.00357233                0.01338794               -0.01806910                0.00278332                0.07207107               -0.02478621                0.01794600                0.03695799
               3.00039888                6.99921155                3.00424822                0.01622017                0.00233228               -0.04169233                0.17336373               -0.01493704                0.01269394               -0.00521987
               4.00025352                6.99918047                3.00362206                0.01000001               -0.01090106               -0.03041519                0.14427992               -0.01343332               -0.03268463                0.01989847
               5.00018086                6.99910003                3.00343242                0.01074287               -0.01825195               -0.04712900                0.16765768               -0.02220513                0.01679426               -0.00828751
               5.99988848                6.99900014                3.00376540                0.01000001               -0.03480340               -0.04749304                0.21610793               -0.00193826               -0.01369174               -0.02415276
               6.99948479                6.99911919                3.00342277                0.01000000               -0.04987551               -0.03091522                0.22967196                0.01266354                0.02736615               -0.00483207
               7.99889097                6.99931073                3.00462066                0.01000001               -0.06435706               -0.03093237                0.23738731                0.00536389                0.01241676               -0.03519685
               8.99819765                6.99943542                3.00417012                0.01000001               -0.05612445               -0.00703239                0.19895546               -0.00100443               -0.05225305                0.01644852
               9.99776848                6.99920595                3.00423671                0.43045876               -0.04291641               -0.01917292                0.15059142               -0.00817281               -0.04825412                0.05737230
               0.00123873                7.99941755                3.00415654                1.00000000               -0.04553117               -0.04297803                0.14726777                0.00198760               -0.00420423                0.00610039
               1.00078342                7.99936919                3.00396769                0.84908892               -0.04158879               -0.03903256                0.13992143                0.00369208               -0.00126358                0.00407309
               2.00040695                7.99940000                3.00382082                0.01000001               -0.01397482               -0.02552152                0.09549296               -0.01739749                0.02521061               -0.00377924
               3.00050392                7.99878811                3.00432791                0.01324499               -0.01149744               -0.02313874                0.19053471               -0.03660789                0.01536234               -0.09514916
               4.00017700                7.99884181                3.00398488                0.01000001               -0.02580312               -0.04437170                0.20725904               -0.02206139               -0.01670531               -0.03449831
               4.99998786                7.99853579                3.00361793                0.01000001               -0.01200793               -0.06215719                0.22140695               -0.02566792                0.00598570               -0.07471369
               5.99993685                7.99846112                3.00390263                0.01334677               -0.02342002               -0.05295646                0.19319664                0.00659627                0.03244663               -0.06344032
               6.99951946                7.99874228                3.00447041                0.01000001               -0.06497601               -0.03428477                0.22922312                0.02200547               -0.01292992               -0.00660561
               7.99863733                7.99893864                3.00390291                0.01000001               -0.06268985               -0.02975407                0.21210165                0.05034760               -0.02261410               -0.03494848
               8.99826566                7.99940700                3.00438516                0.35525842               -0.02374791               -0.02752580                0.20103681                0.04228234                0.00895507                0.04376081
               9.99816237                7.99928166                3.00489962                0.89326330               -0.01032937               -0.02163088                0.19503370                0.00165798               -0.02115593                0.06016968
               0.00130565                8.99897674                3.00443055                1.00000000               -0.04540018               -0.04422592                0.14929127                0.00450069               -0.00299969                0.00414133
               1.00085165                8.99896452                3.00421116                0.99999997               -0.04328226               -0.04237949                0.14575274                0.00760781               -0.00273770                0.00031156
               2.00044001                8.99901895                3.00400457                0.07425182               -0.03133692               -0.04263100                0.14146920               -0.00947072               -0.03786551               -0.00992304
               3.00022491                8.99874877                3.00300654                0.01291039               -0.01876924                0.00530357                0.08715227               -0.05390180                0.01073812               -0.06712031
               4.00006462                8.99829303                3.00406739                0.01000001               -0.00883592               -0.06558738                0.21870702               -0.04294340               -0.00163002               -0.03354782
               5.00004819                8.99785689                3.00286918                0.01329101               -0.01253514               -0.04489257                0.14178900               -0.01734280               -0.03832564               -0.05361358
               5.99981392                8.99794101                3.00323532                0.01000000               -0.03004081               -0.03809360                0.15725020                0.02089826                0.04044892               -0.06900855
               6.99944738                8.99843350                3.00395383                0.01000001               -0.02903592               -0.02875516                0.18338575                0.01942291                0.02759542               -0.06687179
               7.99923320                8.99871565                3.00435398                0.38186437               -0.03735500               -0.01746018                0.19961352                0.05681618                0.03968166                0.02274559
               8.99870028                8.99888490                3.00534165                0.99999999               -0.05904353               -0.05780288                0.22330819                0.03238734                0.02947916                0.03682081
               9.99805233                8.99877333                3.00590791                1.00000000               -0.06479470               -0.05965763                0.22243172               -0.01007219                0.00898187                0.03719625
               0.00135319                9.99853303                3.00470000                0.99475446               -0.04598265               -0.04437070                0.14719800                0.00361091                0.00276578                0.00340494
               1.00089336                9.99852160                3.00447538                0.99904332               -0.04599532               -0.04429125                0.15120132                0.00488888                0.00043636                0.00040490
               2.00043328                9.99854738                3.00423889                0.64343862               -0.03707805               -0.04715666                0.15579559                0.01795678               -0.03972415               -0.00286838
               3.00015180                9.99889419                3.00315563                0.20418358               -0.01116330                0.01454137                0.09688690               -0.05817684                0.01451844               -0.03518913
               4.00021002                9.99753006                3.00435193                0.22741096               -0.00793908               -0.07629675                0.17478020               -0.04827290                0.01492116                0.01073132
               4.99999302                9.99763794                3.00333311                0.26391072               -0.02159061               -0.02189550                0.08070738                0.00294184               -0.03949095               -0.01311153
               5.99977821                9.99769925                3.00335604                0.32317406               -0.04298677               -0.02417676                0.11168739                0.02289056                0.01627656               -0.03786493
               6.99913329                9.99816717                3.00398087                0.43236651               -0.02279800               -0.02663226                0.13776013                0.01310036                0.04821401               -0.05720486
               7.99932224                9.99858944                3.00472166                0.92132144               -0.01387799               -0.01262081                0.18689948                0.01309300                0.06275602               -0.01069014
               8.99885573                9.99825094                3.00580507                1.00000000               -0.05690877               -0.06339563                0.21664636               -0.00950167                0.04305611                0.01246478
               9.99818407                9.99808851                3.00641584                1.00000000               -0.06716559               -0.06848213                0.21835357               -0.00306982                0.01754429                0.01026939
               0.00161126                0.00142656                4.00443665                0.87656375               -0.03392296               -0.03430492                0.10735794                0.00440825                0.00196972                0.00149819
               1.00127203                0.00147083                4.00426392                0.62756229               -0.03446330               -0.03730595                0.11710158                0.00064337                0.00599867                0.00101384
               2.00092199                0.00151268                4.00417739                0.41529967               -0.02837856               -0.04576766                0.12100108                0.00053054                0.01779607                0.00235096
               3.00070445                0.00148513                4.00427469                0.38537025               -0.01751286               -0.05475675                0.12229395                0.00113139                0.02065837                0.00296482
               4.00057173                0.00136119                4.00444209                0.45350790               -0.01798669               -0.05480237                0.12657668               -0.00016226                0.01206791                0.00391101
               5.00034472                0.00121412                4.00463676                0.58009080               -0.02820425               -0.05095055                0.13155690                0.00006272                0.00517445                0.00321996
               6.00000765                0.00106628                4.00484470                0.77958202               -0.03592427               -0.04919074                0.13620593               -0.00040956                0.00047314                0.00279466
               6.99962624                0.00088575                4.00503076                1.00000000               -0.03846831               -0.04459980                0.13398040               -0.00031344               -0.00405486                0.00081974
               7.99923828                0.00071675                4.00518102                0.99999999               -0.03898405               -0.04134919                0.13244358                0.00082057               -0.00580986                0.00374583
               8.99884655                0.00055732                4.00532190                1.00000000               -0.03988445               -0.04193335                0.13484274               -0.00009388               -0.00401864                0.00097263
               9.99844059                0.00040722                4.00549352                0.99991269               -0.04059629               -0.04252412                0.13657121               -0.00149357               -0.00279565               -0.00499272
               0.00161106                1.00108351                4.00433641                0.63101361               -0.03756642               -0.03523537                0.11874064                0.00050327                0.00157405                0.00436577
               1.00123540                1.00109777                4.00415460                0.01226339               -0.03454604               -0.03445654                0.12978930               -0.00851200                0.00387151                0.00186309
               2.00092014                1.00105500                4.00405201                0.01000000               -0.02219440               -0.03824109                0.13751848               -0.01033384                0.01414355               -0.00834670
               3.00079151                1.00093757                4.00413521                0.01000000               -0.01072632               -0.03947151                0.14049101               -0.01369234                0.02158131                0.00379211
               4.00070562                1.00081317                4.00433381                0.01000000               -0.01493530               -0.03722712                0.14437707               -0.01154720                0.02418821                0.00935549
               5.00049281                1.00070461                4.00460703                0.01000000               -0.02689408               -0.03289223                0.14803374               -0.01263326                0.02345890               -0.00140672
               6.00016774                1.00057437                4.00491061                0.01000000               -0.03474716               -0.03416144                0.15057569               -0.00259823                0.01733429                0.01722405
               6.99979786                1.00043975                4.00516555                0.32605872               -0.03785152               -0.04058232                0.14389473                0.00864295                0.01061132                0.02651904
               7.99941070                1.00030326                4.00539869                0.88054409               -0.03987403               -0.04270911                0.14268212                0.00488622                0.00355279                0.01087974
               8.99900038                1.00013798                4.00555984                0.99999996               -0.04174776               -0.04387284                0.14442228               -0.00013193               -0.00197291                0.00157241
               9.99857575                0.99998198                4.00570941                0.99761844               -0.04246319               -0.04358515                0.14440196               -0.00180160               -0.00243657               -0.00474094
               0.00159279                2.00072185                4.00430028                0.42016303               -0.04625000               -0.02892361                0.12471739               -0.00020759                0.00207872                0.01125774
               1.00113029                2.00078170                4.00409612                0.01000000               -0.03586381               -0.02317135                0.13752792               -0.01377415               -0.00677512                0.00725899
               2.00087552                2.00074786                4.00378403                0.01000001               -0.02289262               -0.03068881                0.18600429               -0.00815088                0.01041855                0.00342335
               3.00067244                2.00069570                4.00403843                0.01000000               -0.01508884               -0.02547801                0.13476596               -0.00828458                0.03414448                0.00845218
               4.00057374                2.00061665                4.00438526                0.01130218               -0.01707934               -0.02227242                0.14301575               -0.01155355                0.02727908                0.01468992
               5.00033085                2.00055628                4.00454460                0.01000000               -0.01765991               -0.01904446                0.13450445               -0.01769093                0.04140816                0.00387169
               6.00022054                2.00038305                4.00532921                0.01739996               -0.01303265               -0.02230358                0.12910479               -0.02157826                0.06834118                0.02093643
               7.00007020                2.00007411                4.00583055                0.01014840               -0.02913825               -0.02698654                0.14811691               -0.02241264                0.02162895                0.01737962
               7.99963778                1.99986257                4.00573967                0.01000000               -0.04525020               -0.02656194                0.15143746               -0.01032522               -0.01691229               -0.03051864
               8.99916520                1.99967986                4.00580161                0.11644011               -0.04606074               -0.04555905                0.15312760                0.01049695               -0.00894556                0.00022846
               9.99871656                1.99953552                4.00592768                0.68984384               -0.04486346               -0.04729319                0.15280391               -0.00507168               -0.00395194               -0.00087942
               0.00148721                3.00050504                4.00437727                0.39022765               -0.05532998               -0.01479887                0.12702589                0.00002047                0.00197224                0.01015638
               1.00093391                3.00063434                4.00415585                0.01000000               -0.03220448               -0.01407595                0.13918010               -0.02068356                0.00695571                0.00911479
               2.00084312                3.00044122                4.00405747                0.01000000               -0.00884425               -0.02797032                0.13443070               -0.01269858                0.01985408                0.02382235
               3.00075703                3.00042801                4.00422648                0.01000000               -0.01145735               -0.03032396                0.16179262                0.00165817                0.03955686                0.02228242
               4.00061397                3.00036772                4.00461105                0.01000001               -0.01922192               -0.02697909                0.15808400                0.00050909                0.03529634                0.00283938
               5.00037259                3.00032373                4.00477499                0.01000000               -0.01978177               -0.02612955                0.16818857               -0.00753272                0.04951684                0.00473102
               6.00021834                3.00012830                4.00558228                0.01000000               -0.02512515               -0.02617677                0.14299373               -0.03092029                0.03970942               -0.02561087
               6.99987008                2.99990002                4.00560701                0.01174958               -0.03099458               -0.02014764                0.12739108               -0.03411632               -0.02301378               -0.03354373
               7.99959845                2.99977202                4.00517242                0.01000000               -0.01663558               -0.01406184                0.14446370               -0.04804803                0.02396498               -0.02156682
               8.99953737                2.99922680                4.00603436                0.01637786               -0.04177258               -0.03220834                0.20072477               -0.04731257                0.04907038               -0.02592197
               9.99876300                2.99903612                4.00620026                0.20919661               -0.07743774               -0.02326822                0.20922381               -0.02953186               -0.01116681               -0.02404156
               0.00133458                4.00042587                4.00451597                0.46052028               -0.05541508               -0.01230891                0.13146203               -0.00337739                0.00205563                0.00554833
               1.00078043                4.00050018                4.00430254                0.01000000               -0.02533505               -0.01967368                0.14096419               -0.02076540                0.01542037                0.00983903
               2.00082788                4.00018845                4.00440719                0.01130433               -0.00006622               -0.03007879                0.14226058               -0.02148986                0.03193056                0.01050560
               3.00077911                4.00008923                4.00459397                0.01000001               -0.00698401               -0.03738778                0.15767284               -0.00361064                0.02301223                0.01149708
               4.00068820                4.00007707                4.00453185                0.01000000               -0.01797441               -0.03527626                0.17149214                0.00117694                0.02507750               -0.00484869
               5.00041962                4.00003368                4.00474863                0.01000000               -0.03311827               -0.04169019                0.21255039               -0.01476580                0.04073705               -0.01951113
               6.00002584                3.99985951                4.00505165                0.01000000               -0.03377363               -0.03775378                0.24358323               -0.03089760                0.04516700               -0.04665607
               6.99974415                3.99967115                4.00557522                0.01523910               -0.03378996               -0.02724403                0.17781537               -0.02929444                0.03479994               -0.01488955
               7.99935004                3.99958134                4.00585872                0.01262202               -0.03946486               -0.02190332                0.14453106               -0.04830252                0.01222856                0.03823047
               8.99895485                3.99903569                4.00600880                0.01000001               -0.04213727                0.01072390                0.13214946               -0.07047831                0.02324422               -0.04151276
               9.99850729                3.99907015                4.00618861                0.23251035               -0.04475581                0.03540328                0.10083047               -0.05317729                0.04551881               -0.09448018
               0.00127105                5.00025886                4.00474135                0.59278942               -0.05150183               -0.02362234                0.13739180               -0.00337640                0.00114164                0.00542194
               1.00075603                5.00024087                4.00455451                0.01000000               -0.02233824               -0.03094803                0.14411232               -0.01979620                0.00420443                0.00999974
               2.00082428                4.99983965                4.00448809                0.01000000                0.00200842               -0.03256978                0.12826118               -0.02572089                0.02067311                0.01752570
               3.00079620                4.99968025                4.00468243                0.01000000               -0.00656133               -0.03443713                0.16738091               -0.01765855                0.03328028                0.00750329
               4.00069305                4.99966219                4.00470815                0.01000000               -0.02506844               -0.04723006                0.20742106               -0.01746604                0.01713959               -0.00072128
               5.00029483                4.99948992                4.00472016                0.01000000               -0.03650679               -0.05071475                0.24376329               -0.02515361                0.02977994               -0.01757919
               5.99996292                4.99937322                4.00505070                0.01233610               -0.03662268               -0.04618133                0.22920386               -0.01768293                0.05062035               -0.02733849
               6.99956237                4.99935514                4.00579061                0.01000000               -0.03475300               -0.03381297                0.18667189               -0.01769034                0.05869687               -0.03429231
               7.99926786                4.99933396                4.00635063                0.01000001               -0.04616929               -0.01544177                0.17726969               -0.00867321               -0.00100920               -0.02261055
               8.99863899                4.99944128                4.00551983                0.01000001               -0.08186667                0.01788058                0.22582256               -0.00960601               -0.03642675               -0.05625977
               9.99763052                4.99974418                4.00488481                0.27188665               -0.10084626                0.02053460                0.20937599               -0.02226365               -0.06179375               -0.05864890
               0.00130303                5.99995343                4.00502858                0.80580748               -0.04993104               -0.03438620                0.14421368               -0.00285879                0.00069561                0.00469869
               1.00080372                5.99988122                4.00486030                0.01000000               -0.02144718               -0.03774867                0.14764010               -0.01371800                0.01579236                0.00482185
               2.00087409                5.99953705                4.00506050                0.01740598               -0.01001631               -0.02175146                0.14487119               -0.04033421                0.04046918                0.03301121
               3.00060339                5.99940048                4.00518205                0.01000000               -0.01724370               -0.03231502                0.13183083               -0.03507773                0.00595157                0.00129140
               4.00052921                5.99913247                4.00489486                0.01000000               -0.01989360               -0.04484941                0.23432804               -0.03530143                0.00225976               -0.01231004
               5.00020552                5.99901939                4.00494008                0.01233874               -0.03611271               -0.04753252                0.22470064               -0.01661842                0.01694763               -0.00219169
               5.99980696                5.99893589                4.00523679                0.01000000               -0.03879570               -0.03710143                0.18357811               -0.01128175                0.02191275               -0.02156803
               6.99942961                5.99899489                4.00555732                0.01000001               -0.03582596               -0.02596036                0.18776373                0.00777032                0.02686604               -0.02637574
               7.99909044                5.99927250                4.00582631                0.01179551               -0.05385508               -0.01096822                0.19719386                0.00398099                0.01608003               -0.02535014
               8.99835251                5.99939330                4.00546084                0.01000000               -0.08171126               -0.00579306                0.23355445               -0.00953013               -0.00101464                0.03806131
               9.99745621                5.99948085                4.00528793                0.33763796               -0.08962918               -0.01304449                0.22305316               -0.01442450               -0.02826613                0.06594320
               0.00135828                6.99957113                4.00531733                1.00000000               -0.04602396               -0.03938333                0.14437772               -0.00178864               -0.00096278                0.00291207
               1.00089804                6.99948590                4.00513660                0.35066269               -0.04299723               -0.03972557                0.14363125                0.00150222                0.01363775                0.00055686
               2.00049833                6.99940462                4.00525739                0.01015724               -0.01994057               -0.02546602                0.13473026               -0.03739954                0.02838959               -0.01410806
               3.00049923                6.99903395                4.00523702                0.01175707               -0.00651080               -0.03017234                0.11887019               -0.03794069                0.00650133               -0.04746837
               4.00036812                6.99876521                4.00516441                0.01524543               -0.01700949               -0.03835018                0.16635240               -0.03418680                0.02304885               -0.01602785
               5.00015904                6.99853927                4.00552375                0.01000000               -0.03031701               -0.03902595                0.17424524               -0.01128827                0.00797996                0.00482568
               5.99976178                6.99863119                4.00540917                0.01000001               -0.03889366               -0.02339942                0.18336898                0.01462266                0.01578395               -0.01865756
               6.99938117                6.99883594                4.00589349                0.01046126               -0.04063551               -0.01336873                0.21032650                0.02251429                0.04581559                0.00115363
               7.99894907                6.99911459                4.00637119                0.01342023               -0.05705638               -0.01076361                0.17516144                0.01313138                0.02842477                0.05107937
               8.99824004                6.99932542                4.00649449                0.01000000               -0.08910599               -0.00875166                0.22556237                0.00320695                0.00784614                0.11772337
               9.99716695                6.99948329                4.00645284                0.46448900               -0.10730892               -0.02504652                0.24547802                0.00627618               -0.02544710                0.17003699
               0.00143773                7.99916576                4.00559926                0.99181949               -0.04374501               -0.04134541                0.14547339                0.00059436                0.00243720                0.00475810
               1.00100028                7.99908671                4.00542033                0.91210167               -0.04298429               -0.04080058                0.14228885                0.00234378                0.00549111               -0.00162285
               2.00057804                7.99902773                4.00528332                0.01000000               -0.02581427               -0.03978334                0.13490641               -0.00713323               -0.01034261               -0.02709668
               3.00048399                7.99879704                4.00481539                0.01000000               -0.01189436               -0.01425290                0.13411191               -0.04611120                0.01528286               -0.03377263
               4.00034016                7.99836546                4.00542905                0.01263404               -0.01851124               -0.03838882                0.13624343               -0.04554610                0.06235725               -0.03286037
               5.00011377                7.99823887                4.00586351                0.01000001               -0.02687046               -0.03758270                0.16506610                0.00131009                0.01121692               -0.04732604
               5.99980275                7.99846790                4.00552017                0.01181652               -0.03586373               -0.03614300                0.18894950                0.02175888                0.00948920               -0.02451563
               6.99939649                7.99872752                4.00612972                0.01345194               -0.04695810               -0.02949250                0.16910684                0.02720522                0.07930665                0.00360645
               7.99886358                7.99905723                4.00739349                0.01720208               -0.06742750               -0.01563224                0.23104723                0.01931405                0.08793181                0.07351768
               8.99804794                7.99921827                4.00818768                0.48925570               -0.07987985               -0.03664645                0.26750442               -0.00466252                0.02187211                0.05254912
               9.99726599                7.99897992                4.00867254                0.99013615               -0.07819563               -0.05625667                0.26364161               -0.00686844               -0.01175881                0.06652613
               0.00152827                8.99874423                4.00591265                0.99999999               -0.04453240               -0.04355341                0.14976473                0.00083217                0.00212167                0.00663575
               1.00108294                8.99866989                4.00569155                0.99999995               -0.04414611               -0.04261048                0.14585525                0.00065855                0.00246229               -0.00291613
               2.00064534                8.99860895                4.00546749                0.08685597               -0.04218334               -0.04198304                0.14127844                0.01026595               -0.00591777               -0.01704610
               3.00023927                8.99874889                4.00508559                0.01642211               -0.03149906               -0.03759065                0.17229689               -0.04195151                0.00674952                0.00457129
               4.00001536                8.99799743                4.00530059                0.01000001               -0.00782348               -0.03495185                0.12165095               -0.05568103                0.01264437               -0.01884440
               5.00008281                8.99778762                4.00503943                0.01000001               -0.01535276               -0.05789509                0.20646062               -0.00275925               -0.00655371               -0.06328428
               5.99970831                8.99790833                4.00511654                0.01000000               -0.03734331               -0.06415485                0.22526948                0.01271329                0.04970331               -0.02569042
               6.99933594                8.99824609                4.00619606                0.01000000               -0.04318545               -0.06658575                0.21704032                0.04036306                0.12959478               -0.01093437
               7.99884460                8.99880195                4.00807309                0.52055787               -0.05559204               -0.05057946                0.26250520                0.02502830                0.04712143                0.03333209
               8.99822410                8.99859249                4.00786461                0.99999999               -0.06691550               -0.06697348                0.23882446               -0.00494155               -0.03557698               -0.02836743
               9.99750629                8.99835816                4.00824685                0.98926590               -0.07178105               -0.06389995                0.23028080                0.00036767               -0.00802076               -0.04072463
               0.00160305                9.99829469                4.00622043                1.00000000               -0.04543277               -0.04495348                0.15214446                0.00145938                0.00328084                0.00606942
               1.00114872                9.99823450                4.00596672                0.99774760               -0.04493473               -0.04353865                0.14890893                0.00124715                0.00367746               -0.00238796
               2.00070436                9.99818807                4.00571390                0.66389683               -0.04461183               -0.04208806                0.14613754               -0.00356264                0.00819826               -0.01168322
               3.00025649                9.99804522                4.00552948                0.20832826               -0.02582727               -0.07036696                0.18807169               -0.02436121                0.01081518               -0.01393194
               4.00018781                9.99766643                4.00546601                0.23256257               -0.00544034               -0.03310040                0.08369217               -0.03096792               -0.03194143                0.01698750
               5.00014768                9.99708097                4.00462011                0.27182736               -0.02946335               -0.07066488                0.18600525               -0.01759387               -0.01380904               -0.06361620
               5.99959854                9.99718480                4.00498266                0.33762800               -0.04187693               -0.07235330                0.20472492                0.00476542                0.06421525               -0.03679683
               6.99931014                9.99739580                4.00615692                0.46710040               -0.02903980               -0.08502817                0.23373136                0.04046205                0.15213392               -0.03277340
               7.99901775                9.99804564                4.00826793                1.00000000               -0.04586201               -0.07563090                0.25046665                0.04146475                0.06750512               -0.00772550
               8.99839290                9.99787880                4.00811179                0.98926677               -0.06378738               -0.07136881                0.22587714               -0.00030587               -0.02802530               -0.00201617
               9.99774200                9.99770192                4.00849241                1.00000000               -0.06509007               -0.06562423                0.21539374                0.00588279               -0.00152875               -0.00727615
               0.00172950                0.00146340                5.00549902                0.88020935               -0.03348997               -0.03388092                0.10638735                0.00334317               -0.00084920               -0.00038265
               1.00139460                0.00149838                5.00542640                0.62691073               -0.03487194               -0.03594389                0.11584398                0.00031986                0.00021231               -0.00156694
               2.00103206                0.00152602                5.00537089                0.41486878               -0.03376930               -0.03935782                0.11977218               -0.00118186                0.00698042               -0.00185646
               3.00071921                0.00148805                5.00545254                0.38529488               -0.02865126               -0.04375802                0.11884627                0.00000488                0.01237121               -0.00278155
               4.00045903                0.00133747                5.00566052                0.45281229               -0.02819719               -0.04383648                0.12224051                0.00021397                0.00949742               -0.00220830
               5.00015527                0.00112424                5.00589724                0.57738675               -0.03264676               -0.04160612                0.12602391               -0.00051464                0.00419455               -0.00177857
               5.99980610                0.00089681                5.00611938                0.77145744               -0.03614954               -0.03983199                0.12824490                0.00002396                0.00105805               -0.00173477
               6.99943228                0.00068130                5.00632321                0.99589348               -0.03817756               -0.04038133                0.13033622                0.00019301               -0.00090448               -0.00047732
               7.99904255                0.00047438                5.00650789                1.00000000               -0.03945604               -0.04152032                0.13311708                0.00037982               -0.00270796                0.00045465
               8.99864316                0.00028421                5.00668125                0.99999999               -0.04031823               -0.04215735                0.13577340                0.00082314               -0.00313423               -0.00071832
               9.99823618                0.00011398                5.00686513                1.00000000               -0.04069741               -0.04254572                0.13733165               -0.00035047               -0.00267947               -0.00341800
               0.00172795                1.00112459                5.00551463                0.63018323               -0.03614670               -0.03562396                0.11736866                0.00006904               -0.00031535               -0.00021465
               1.00136649                1.00113894                5.00544235                0.01349134               -0.03512734               -0.03503642                0.12755348               -0.00408307                0.00173706               -0.00185557
               2.00102541                1.00113245                5.00539518                0.01000000               -0.02764734               -0.03761218                0.13380253               -0.00552072                0.00787517                0.00089882
               3.00081354                1.00105047                5.00548042                0.01000000               -0.01911638               -0.04097677                0.13438335               -0.00744852                0.01541090                0.00374027
               4.00064308                1.00089910                5.00572018                0.01000000               -0.02215442               -0.04004302                0.13777856               -0.01132040                0.01842108                0.00018547
               5.00037045                1.00070818                5.00601460                0.01000000               -0.03076343               -0.03458900                0.13957539               -0.01400863                0.01593927               -0.00510687
               6.00002781                1.00049849                5.00629770                0.01000000               -0.03625131               -0.03598264                0.13906436               -0.01220329                0.01205080               -0.01929333
               6.99964542                1.00027748                5.00655448                0.31180860               -0.03914609               -0.04175594                0.13950136                0.00004622                0.00807498                0.00626941
               7.99924489                1.00005918                5.00678511                0.86463633               -0.04069192               -0.04179610                0.13980969                0.00058399                0.00362884                0.00195291
               8.99883159                0.99986264                5.00697676                0.99268768               -0.04209905               -0.04276395                0.14243219                0.00106374                0.00053705               -0.00071423
               9.99840291                0.99968853                5.00715684                0.99999997               -0.04286791               -0.04365823                0.14512225               -0.00032657               -0.00041309               -0.00347244
               0.00170218                2.00075092                5.00552940                0.41965824               -0.03971007               -0.03402850                0.12333015               -0.00200945               -0.00177127                0.00161004
               1.00130508                2.00079765                5.00543726                0.01000000               -0.03460338               -0.02877847                0.13354303               -0.00951230                0.00476766               -0.00194074
               2.00101012                2.00077378                5.00541048                0.01066089               -0.02507498               -0.03439998                0.13814952               -0.00862740                0.01170490                0.00177158
               3.00080358                2.00066851                5.00551444                0.01086123               -0.02176002               -0.03810502                0.14648039               -0.01113278                0.02018592                0.01154194
               4.00057492                2.00053661                5.00570743                0.01000001               -0.02639382               -0.03381284                0.14047909               -0.01130900                0.02173012               -0.00075040
               5.00027571                2.00043246                5.00597426                0.01000000               -0.02910944               -0.02901298                0.14507480               -0.01461197                0.01636450                0.00635961
               5.99999273                2.00017716                5.00604898                0.01000000               -0.02015946               -0.03053110                0.12029684               -0.02247829                0.03623808               -0.00403278
               6.99987252                1.99984618                5.00688916                0.01438978               -0.02618279               -0.03316159                0.12528566               -0.01775853                0.03636894                0.00268895
               7.99946907                1.99963846                5.00709284                0.01000000               -0.04187187               -0.03064042                0.14177629               -0.00771851                0.00298522                0.01095488
               8.99903508                1.99942893                5.00727248                0.10798394               -0.04455978               -0.04422400                0.14900770               -0.00203700                0.00252435               -0.00352273
               9.99857788                1.99924082                5.00744806                0.68513334               -0.04572048               -0.04517005                0.15283693                0.00047663                0.00186018               -0.00796387
               0.00159431                3.00044402                5.00559963                0.39001323               -0.04409264               -0.02521722                0.12333249               -0.00108439               -0.00326829                0.00264895
               1.00115338                3.00056337                5.00548640                0.01000000               -0.03061564               -0.02357950                0.13286648               -0.01526053                0.01084425               -0.00061985
               2.00098200                3.00044445                5.00552809                0.01086212               -0.01626630               -0.03556123                0.14524681               -0.01734549                0.02993082                0.00424673
               3.00082806                3.00028837                5.00593864                0.01277731               -0.01645218               -0.03712584                0.14085225               -0.00600147                0.02525167                0.00559713
               4.00065295                3.00022285                5.00600275                0.01000000               -0.01951979               -0.03464492                0.13253799                0.00345358                0.03099750                0.01821266
               5.00043766                3.00012792                5.00660723                0.01361537               -0.02442134               -0.03740753                0.16516576               -0.00383971                0.04022456                0.02250981
               6.00016452                2.99988787                5.00671741                0.01288952               -0.03043519               -0.03298714                0.14205285               -0.02069472                0.02294161                0.05093057
               6.99982896                2.99961425                5.00711269                0.01718744               -0.03283815               -0.02613441                0.13686443               -0.02969944                0.03963311               -0.00393736
               7.99950776                2.99944637                5.00754522                0.01000000               -0.03202362               -0.01950808                0.16455983               -0.03579584                0.01108572               -0.02046981
               8.99918848                2.99897816                5.00749839                0.01000000               -0.03595471               -0.01206114                0.16049814               -0.02853646               -0.01557312               -0.03106846
               9.99878867                2.99878513                5.00765397                0.21447433               -0.03998158               -0.00710118                0.16015831               -0.02217101                0.00612626               -0.06235808
               0.00144180                4.00024658                5.00578128                0.45949919               -0.04423514               -0.02177128                0.12719785               -0.00321828               -0.00342008                0.00325646
               1.00099945                4.00032606                5.00565490                0.01000000               -0.02517955               -0.02873030                0.13459846               -0.01936938                0.01077395                0.00121283
               2.00093821                4.00006256                5.00569006                0.01000001               -0.00471477               -0.04148712                0.13715142               -0.02029777                0.02416387                0.00121524
               3.00090515                3.99992600                5.00599594                0.01000000               -0.00668862               -0.03997855                0.13217819               -0.00377344                0.04657890                0.00415832
               4.00080444                3.99984371                5.00659936                0.01272463               -0.01856319               -0.04379593                0.17181458               -0.00671604                0.05752619                0.01529888
               5.00053389                3.99968431                5.00713492                0.01088650               -0.03559688               -0.04872035                0.19739485               -0.01672065                0.06086061               -0.00086494
               6.00009250                3.99951742                5.00773797                0.01391787               -0.04069289               -0.04234914                0.19759467               -0.02848508                0.02687795               -0.00275693
               6.99972003                3.99932349                5.00741463                0.01000000               -0.03516262               -0.03017115                0.15883418               -0.02665529               -0.01435579               -0.02254689
               7.99938925                3.99924829                5.00726517                0.01702572               -0.02972194               -0.01826270                0.11507480               -0.01377610                0.00002749               -0.03228855
               8.99912559                3.99918771                5.00725271                0.01000001               -0.04343623                0.00771798                0.12342441               -0.01604799               -0.02050858                0.00661940
               9.99852052                3.99909880                5.00682947                0.24007031               -0.06050707                0.03912636                0.15910831               -0.04712337               -0.06624167               -0.00199130
               0.00137098                5.00000860                5.00605913                0.58942243               -0.04209617               -0.02760244                0.13208089               -0.00386707               -0.00307829                0.00457726
               1.00095002                4.99998876                5.00592407                0.01000000               -0.01974369               -0.03614920                0.13610332               -0.01973098                0.00678508                0.00126224
               2.00097610                4.99961470                5.00589557                0.01000000                0.00107084               -0.04136454                0.14055000               -0.02907448                0.03427174               -0.01516016
               3.00097143                4.99948880                5.00648611                0.01361827               -0.01078929               -0.04163978                0.16037015               -0.02172568                0.06029443               -0.00741541
               4.00076032                4.99934693                5.00702096                0.01088816               -0.02709466               -0.05480278                0.19310013               -0.02591969                0.04756785                0.00731221
               5.00042954                4.99915351                5.00740653                0.01315639               -0.04023382               -0.05266840                0.21457896               -0.02956312                0.03135228               -0.02564187
               5.99995564                4.99904089                5.00741147                0.01000001               -0.04322842               -0.04481354                0.20841278               -0.02096979                0.00824320               -0.05458393
               6.99956497                4.99901083                5.00728361                0.01700597               -0.02938116               -0.02966510                0.14926461               -0.00776191                0.01395876               -0.01842439
               7.99936802                4.99908111                5.00746412                0.01000000               -0.02739740               -0.01092840                0.09559514               -0.00016019                0.02136847                0.01488214
               8.99901702                4.99913252                5.00766790                0.01000000               -0.06719941                0.00732541                0.17976767                0.00300005                0.01468937                0.02514565
               9.99802403                4.99956765                5.00762796                0.28019350               -0.09929927                0.01585776                0.27560070               -0.00014438                0.00472053                0.04688020
               0.00140412                5.99969453                5.00637614                0.79580171               -0.04054013               -0.03423668                0.13599647               -0.00212483               -0.00297297                0.00624599
               1.00099872                5.99960308                5.00621852                0.01000000               -0.02737180               -0.03962457                0.13654493               -0.01581619               -0.01326287               -0.00004834
               2.00085669                5.99923527                5.00578086                0.01000000               -0.01301535               -0.02951540                0.11916805               -0.04058656                0.01596487               -0.00960371
               3.00073842                5.99909320                5.00637017                0.01289450               -0.01176795               -0.04299757                0.15155495               -0.04185839                0.10021000               -0.02834041
               4.00062133                5.99874765                5.00746937                0.01392161               -0.02448737               -0.05106025                0.18817496               -0.03974076                0.05029154               -0.02919212
               5.00024867                5.99863094                5.00725131                0.01000001               -0.04027713               -0.04401976                0.20397454               -0.02301740               -0.00246585               -0.04855655
               5.99981579                5.99862115                5.00718214                0.01685915               -0.03620501               -0.03486376                0.17252993               -0.00109865                0.02802723               -0.01926390
               6.99952457                5.99873019                5.00762643                0.01000000               -0.02757165               -0.02204822                0.13456729                0.01413449                0.04674875               -0.00240680
               7.99926435                5.99902973                5.00807589                0.01680398               -0.04127565               -0.01579874                0.14966902                0.00472444                0.02424267                0.00565651
               8.99869906                5.99933422                5.00819370                0.01000000               -0.08084933               -0.00347404                0.22350422               -0.01789410               -0.00133135                0.03662285
               9.99764737                5.99941595                5.00798050                0.34317844               -0.10516882               -0.01727902                0.29641970               -0.02588718               -0.02634995                0.07369541
               0.00151139                6.99932386                5.00671219                0.99759401               -0.04184304               -0.03885695                0.14041303               -0.00069886               -0.00162523                0.00815308
               1.00109296                6.99919627                5.00651844                0.33768114               -0.04185690               -0.04106454                0.13860233               -0.00445079               -0.00286024               -0.00144167
               2.00067425                6.99902440                5.00626693                0.01439856               -0.02355402               -0.02936499                0.11666876               -0.03095350                0.02368497               -0.00096225
               3.00062188                6.99862885                5.00662563                0.01719497               -0.01232430               -0.04145560                0.12756112               -0.03866187                0.04519147               -0.00390126
               4.00042776                6.99832572                5.00694911                0.01000000               -0.02630880               -0.03496126                0.15850907               -0.03005165                0.02229963               -0.06227517
               5.00009570                6.99827312                5.00691733                0.01701222               -0.02966707               -0.02786778                0.14179128               -0.00548497                0.02415621               -0.03336078
               5.99983442                6.99834361                5.00743278                0.01000000               -0.03283104               -0.01788544                0.13109529                0.01706932                0.03493419                0.00711850
               6.99943908                6.99856986                5.00762930                0.01000001               -0.04879725               -0.01091720                0.15245111                0.00646153                0.03324728               -0.00838873
               7.99885848                6.99876514                5.00812389                0.01000001               -0.05830810               -0.01613157                0.16365813               -0.02165920                0.03685643               -0.00184905
               8.99827292                6.99906304                5.00868137                0.01000001               -0.07578269               -0.01231785                0.18704844               -0.04090384                0.03328477                0.05639915
               9.99734282                6.99922207                5.00914627                0.45999191               -0.09300949               -0.02988876                0.27222281               -0.01859159                0.02683336                0.10020283
               0.00164533                7.99891739                5.00706601                0.99999999               -0.04361529               -0.04177883                0.14552222                0.00038451               -0.00188587                0.00920594
               1.00120917                7.99878179                5.00681347                0.89801899               -0.04201406               -0.04182350                0.13996419               -0.00081637               -0.00362857               -0.00188250
               2.00080505                7.99864797                5.00651895                0.01000000               -0.02726617               -0.03884743                0.12994294               -0.01321690                0.03370754               -0.01124390
               3.00066385                7.99826409                5.00701014                0.01000000               -0.02145104               -0.02513724                0.15229257               -0.03473061                0.02297182               -0.05034723
               4.00037603                7.99804843                5.00670975                0.01703923               -0.02713855               -0.02232713                0.10311286               -0.01273015               -0.00229807               -0.04177608
               5.00012108                7.99807358                5.00691925                0.01000000               -0.02578004               -0.02192553                0.09224670                0.01102386                0.04084682               -0.01280210
               5.99986042                7.99826344                5.00768162                0.01682026               -0.04444038               -0.01894494                0.14438145                0.01276000                0.03718768               -0.00735224
               6.99923227                7.99851184                5.00785255                0.01000001               -0.07612144               -0.01911302                0.16178360                0.00436501                0.03345208                0.00838183
               7.99833800                7.99870710                5.00852386                0.01417426               -0.09041139               -0.01286497                0.15249785                0.01123089                0.06520443                0.05321491
               8.99742404                7.99908786                5.00973525                0.41283046               -0.06902647               -0.03347985                0.21375889               -0.01734310                0.03804480                0.06104176
               9.99695747                7.99881818                5.01017245                0.93904579               -0.04665785               -0.05415500                0.21067734               -0.03773836               -0.00337156                0.05266165
               0.00179029                8.99848829                5.00742584                0.99999999               -0.04442325               -0.04392627                0.14983644                0.00119601               -0.00051904                0.00720930
               1.00134605                8.99835980                5.00712826                0.99922331               -0.04313392               -0.04291453                0.14382283                0.00117099               -0.00021329               -0.00089511
               2.00092761                8.99824745                5.00683014                0.08285776               -0.04096268               -0.04135383                0.13797750               -0.00021314               -0.00371103               -0.00724473
               3.00052680                8.99812610                5.00645248                0.01000000               -0.02819723               -0.02681652                0.14761627               -0.02080612                0.01351123               -0.05865074
               4.00036366                8.99787918                5.00650041                0.01000001               -0.02128155               -0.02547311                0.11991953               -0.00934796                0.04858247               -0.05540341
               5.00010117                8.99783461                5.00699839                0.01000000               -0.03561505               -0.04346628                0.16442781                0.00823233                0.06335252               -0.00609691
               5.99965136                8.99796471                5.00774071                0.01000000               -0.05092243               -0.05161840                0.21254093                0.00091362                0.05793762               -0.02501886
               6.99908272                8.99818760                5.00829464                0.01000001               -0.05721433               -0.04609345                0.17865631                0.01007713                0.07711414                0.02027632
               7.99850708                8.99850784                5.00960408                0.43885330               -0.06338725               -0.03309275                0.21145258                0.02926583                0.05624687                0.05176563
               8.99781498                8.99839344                5.01011814                0.99453434               -0.06898242               -0.06858054                0.23202175                0.01389167                0.00557269                0.01353068
               9.99712743                8.99813897                5.01051352                0.99540018               -0.06875480               -0.06831523                0.23019751               -0.00370688               -0.00028927                0.00690345
               0.00192622                9.99803886                5.00774289                0.99999999               -0.04527811               -0.04494220                0.15245290                0.00205583                0.00673569                0.00523094
               1.00147343                9.99792350                5.00745355                0.99999997               -0.04458645               -0.04363081                0.14826731                0.00183915                0.00678234               -0.00046320
               2.00103449                9.99782089                5.00716164                0.66316268               -0.04287193               -0.04265586                0.14407034                0.00090089                0.00933049               -0.00647145
               3.00061600                9.99772776                5.00691706                0.21391582               -0.02769624               -0.03983426                0.15065595               -0.00517664               -0.01863353                0.00339140
               4.00048056                9.99753897                5.00602577                0.24013386               -0.02079007               -0.03402140                0.14378402               -0.01448518                0.03378531               -0.08308422
               5.00020019                9.99720426                5.00705321                0.28017080               -0.04774314               -0.06303462                0.24616541               -0.00549247                0.07760300               -0.00359512
               5.99952570                9.99723107                5.00745054                0.34308253               -0.06547522               -0.07336445                0.27083230                0.00671935                0.08237075               -0.04186499
               6.99889069                9.99758997                5.00865549                0.46197561               -0.04041117               -0.05976288                0.25170161                0.02150542                0.08909878                0.02732644
               7.99871748                9.99804524                5.00973099                0.96766463               -0.04099721               -0.04625985                0.20400066                0.02735369                0.05438306                0.00126499
               8.99807075                9.99771625                5.01032261                0.99540132               -0.06626046               -0.06771899                0.22548494               -0.00409156                0.01663158                0.00473096
               9.99739227                9.99745187                5.01072372                0.99501988               -0.06784793               -0.06871010                0.22375953                0.00004582                0.00530243               -0.00150343
               0.00173951                0.00138770                6.00656439                0.88653863               -0.03351083               -0.03388607                0.10671017                0.00296817               -0.00211029               -0.00055258
               1.00140440                0.00140759                6.00658080                0.62666850               -0.03520243               -0.03577854                0.11515802                0.00048202               -0.00331916               -0.00201323
               2.00103546                0.00142697                6.00657284                0.41172972               -0.03710723               -0.03935826                0.12058954               -0.00128050               -0.00065164               -0.00068616
               3.00066226                0.00137374                6.00665162                0.38450200               -0.03592418               -0.04232753                0.12106096               -0.00021661                0.00671823               -0.00117180
               4.00031698                0.00119769                6.00688690                0.45266807               -0.03462560               -0.04277319                0.12326232                0.00079291                0.00942511               -0.00055889
               4.99996974                0.00094384                6.00715724                0.57725049               -0.03570685               -0.04183731                0.12640325                0.00029544                0.00648151               -0.00003775
               5.99960284                0.00067495                6.00740960                0.77189991               -0.03750514               -0.04160461                0.12934970                0.00009423                0.00276133                0.00045738
               6.99921964                0.00041367                6.00763749                0.99716355               -0.03883801               -0.04144671                0.13161017                0.00005454               -0.00028704                0.00039772
               7.99882608                0.00017141                6.00784336                1.00000000               -0.03965053               -0.04140454                0.13359880                0.00040529               -0.00229324                0.00072306
               8.99842663               -0.00004807                6.00803737                0.99999999               -0.04034126               -0.04194596                0.13561790                0.00047739               -0.00260809               -0.00003122
               9.99801925               -0.00024456                6.00824015                0.99787296               -0.04073761               -0.04258419                0.13751876               -0.00084091               -0.00227341               -0.00252284
               0.00174930                1.00104884                6.00668378                0.62975694               -0.03597142               -0.03593261                0.11661041                0.00020378                0.00000624               -0.00234467
               1.00138958                1.00104981                6.00670567                0.01000000               -0.03548595               -0.03543769                0.12536003               -0.00376424                0.00032984               -0.00490894
               2.00103958                1.00103339                6.00672806                0.01000000               -0.03074276               -0.03882984                0.13257656               -0.00511854                0.00334692               -0.01693100
               3.00077473                1.00095047                6.00682288                0.01000000               -0.02498602               -0.04527101                0.13409205               -0.00732373                0.01118506               -0.00061756
               4.00053986                1.00076996                6.00708939                0.01000000               -0.02703286               -0.04393090                0.13614728               -0.00967252                0.01630442               -0.00376511
               5.00023407                1.00052546                6.00739854                0.01000000               -0.03354956               -0.04265016                0.13781723               -0.00821075                0.01451282               -0.00914417
               5.99986887                1.00025890                6.00769189                0.01000000               -0.03810583               -0.03961319                0.13915215               -0.00493507                0.01036800               -0.01184162
               6.99947196                0.99999920                6.00795557                0.31153541               -0.04039339               -0.04219948                0.14010750                0.00162714                0.00653686                0.00328102
               7.99906100                0.99975737                6.00819489                0.86518312               -0.04162825               -0.04249274                0.14120904                0.00106747                0.00321777                0.00221632
               8.99863939                0.99953247                6.00840849                0.99121676               -0.04268319               -0.04320750                0.14345017                0.00030334                0.00082932                0.00014388
               9.99820734                0.99932960                6.00861185                1.00000000               -0.04320537               -0.04381641                0.14571581               -0.00111990                0.00007961               -0.00250706
               0.00174165                2.00066905                6.00676689                0.41644936               -0.03970851               -0.03713509                0.12412447               -0.00207095               -0.00027113               -0.00487587
               1.00134456                2.00069884                6.00676698                0.01000000               -0.03546110               -0.03227518                0.13230299               -0.00929616               -0.01069162               -0.00956993
               2.00103243                2.00065038                6.00654702                0.01069387               -0.02826778               -0.03934050                0.13931160               -0.01402978                0.00862110               -0.00747013
               3.00077921                2.00046832                6.00696804                0.01140559               -0.02419487               -0.04460054                0.13457872               -0.01593113                0.02833873               -0.01025996
               4.00054853                2.00031908                6.00719484                0.01000001               -0.02313096               -0.04649619                0.14424656               -0.01760083                0.01891801               -0.01664660
               5.00031659                2.00009083                6.00744609                0.01000000               -0.02590631               -0.04561026                0.15094487               -0.01040241                0.02299908               -0.00135950
               6.00003040                1.99988268                6.00773515                0.01000000               -0.02814347               -0.04004891                0.16288888               -0.01091568                0.04030221                0.00223249
               6.99975372                1.99956968                6.00833626                0.01445127               -0.03581236               -0.03516975                0.14484457               -0.00990743                0.02679188               -0.01213637
               7.99931416                1.99932156                6.00857520                0.01000001               -0.04466277               -0.02835309                0.14831872               -0.00542151                0.00520344               -0.02163574
               8.99886047                1.99908778                6.00878176                0.11175356               -0.04557770               -0.04536318                0.15135278                0.00176633                0.00251661                0.00425931
               9.99840260                1.99887911                6.00898441                0.68950087               -0.04578620               -0.04610245                0.15391064               -0.00251591                0.00221721               -0.00023903
               0.00164830                3.00030614                6.00684392                0.38918315               -0.04259659               -0.03187763                0.12555498               -0.00131943               -0.00143451               -0.00261078
               1.00122233                3.00040430                6.00681318                0.01000000               -0.03293998               -0.03060370                0.13260709               -0.01584959                0.00950297               -0.00867626
               2.00098950                3.00024658                6.00696240                0.01140647               -0.02174632               -0.04025491                0.13260942               -0.02040732                0.01215242                0.00633208
               3.00078741                3.00005846                6.00704352                0.01000001               -0.02120834               -0.04216999                0.12318501               -0.01921841                0.01164123               -0.01199376
               4.00056533                2.99984004                6.00726181                0.01000000               -0.01624949               -0.04771250                0.13863724               -0.01469924                0.04513692                0.00142581
               5.00046242                2.99961326                6.00807831                0.01601022               -0.01968095               -0.04368710                0.13472818               -0.01002390                0.05599012                0.01512880
               6.00017171                2.99945792                6.00842334                0.01488756               -0.03137406               -0.03861850                0.13847540               -0.00320865                0.01366830                0.02353387
               6.99983493                2.99929580                6.00834429                0.01000001               -0.03686235               -0.02601899                0.14218435               -0.00457529                0.00556855               -0.01101378
               7.99943447                2.99919030                6.00846361                0.01000000               -0.03588868               -0.01524448                0.13686773               -0.02361208                0.04028382               -0.05312095
               8.99911716                2.99862521                6.00924432                0.01000000               -0.04300546               -0.00446064                0.16664725               -0.03314212                0.03317770               -0.05341417
               9.99857436                2.99840755                6.00940343                0.21783185               -0.05428048                0.00886113                0.16760244               -0.04044939               -0.00074444               -0.02130589
               0.00151893                4.00003150                6.00705993                0.45919329               -0.04318001               -0.02752986                0.12848916               -0.00290807               -0.00163322                0.00350605
               1.00108713                4.00008676                6.00699451                0.01000000               -0.02744016               -0.03509032                0.13344753               -0.01766268                0.01110691               -0.00392173
               2.00097013                3.99984528                6.00715022                0.01000001               -0.01428738               -0.04004679                0.14097221               -0.02518284                0.01498583               -0.00871117
               3.00080138                3.99962492                6.00723754                0.01000000               -0.01351913               -0.04503732                0.13572893               -0.01955846                0.03307963                0.00826588
               4.00069974                3.99936483                6.00796814                0.01588144               -0.01515775               -0.04508046                0.13218147               -0.01245853                0.06488376                0.02040863
               5.00049823                3.99921709                6.00869653                0.01436038               -0.02080287               -0.03762822                0.12283030               -0.00927807                0.04794996                0.00490632
               6.00028369                3.99911031                6.00900355                0.01712017               -0.02841962               -0.03102778                0.10583743               -0.00444056                0.01382084                0.00392984
               6.99992984                3.99904930                6.00875191                0.01000000               -0.03855874               -0.02604723                0.13993685               -0.00698426               -0.02637750               -0.00657153
               7.99951251                3.99901667                6.00816021                0.01000000               -0.04747287               -0.01847144                0.17594501               -0.00871281                0.00077413               -0.04057681
               8.99898038                3.99899857                6.00847728                0.01000000               -0.07417896                0.01889964                0.16765404               -0.01542826                0.04239741               -0.03734543
               9.99802893                3.99905633                6.00937078                0.24495417               -0.09514449                0.05616053                0.21752084               -0.03270090                0.04361223                0.03001589
               0.00147960                4.99975554                6.00738297                0.58902717               -0.04243026               -0.03031039                0.13280920               -0.00331068               -0.00125858                0.00761136
               1.00105530                4.99970250                6.00727658                0.01000000               -0.02659581               -0.04004369                0.13502602               -0.01316424                0.00572169               -0.00157429
               2.00094768                4.99944564                6.00729909                0.01000000               -0.00893038               -0.04358333                0.14446786               -0.02365876                0.03029275               -0.01277208
               3.00087669                4.99915771                6.00788983                0.01601309               -0.01118449               -0.04653843                0.12956205               -0.01947585                0.05622721                0.01259541
               4.00072399                4.99893843                6.00857016                0.01436203               -0.01726604               -0.03721742                0.12206913               -0.01714295                0.05167596               -0.00205313
               5.00053137                4.99886069                6.00901174                0.01696161               -0.02366475               -0.03398176                0.12276435               -0.00779291                0.03784138               -0.01144470
               6.00025070                4.99883737                6.00921895                0.01000000               -0.03712349               -0.02905114                0.13562457               -0.01885686                0.00865085               -0.03768368
               6.99978890                4.99877486                6.00877591                0.01000000               -0.04698797               -0.02241158                0.14794109               -0.02377471               -0.02367220               -0.05066712
               7.99931094                4.99882087                6.00826254                0.01000000               -0.05099846               -0.01454054                0.14970077               -0.01380758                0.01091416                0.00957522
               8.99876893                4.99900320                6.00911518                0.01157736               -0.07530660                0.00568630                0.19376412                0.00753901                0.06534413                0.06616246
               9.99780481                4.99953076                6.01039683                0.28541254               -0.09641223                0.01900579                0.22818325                0.01909012                0.10019894                0.08527521
               0.00155880                5.99942529                6.00774851                0.79585125               -0.04250627               -0.03556098                0.13740144               -0.00225544               -0.00086166                0.00888683
               1.00113374                5.99928589                6.00759120                0.01000000               -0.02585333               -0.04201903                0.13719901               -0.01104394               -0.00078190               -0.00230061
               2.00104174                5.99897361                6.00744386                0.01000000               -0.01073303               -0.03991810                0.15783857               -0.03372861                0.04219690               -0.01784246
               3.00091908                5.99869416                6.00821315                0.01489246               -0.01939176               -0.04208815                0.14527765               -0.02544685                0.06941645               -0.03840493
               4.00065390                5.99862048                6.00865836                0.01712387               -0.02378248               -0.03295548                0.10217693               -0.01791401                0.04456793               -0.03118201
               5.00044343                5.99853746                6.00901957                0.01000000               -0.03307583               -0.03282921                0.13356617               -0.02320342                0.01683655               -0.04610332
               5.99999239                5.99852929                6.00868739                0.01000000               -0.04862983               -0.02816395                0.14949499               -0.02193023               -0.01429889               -0.07176439
               6.99947083                5.99860106                6.00824866                0.01000000               -0.04921830               -0.01664112                0.14394816               -0.01186657                0.01732434               -0.00513509
               7.99900802                5.99872586                6.00881969                0.01000001               -0.05247805               -0.00956147                0.14951535               -0.00827875                0.05691238                0.04628653
               8.99842127                5.99911229                6.00993092                0.01028238               -0.08262013               -0.00456749                0.22170484               -0.00874889                0.06793822                0.04059266
               9.99735562                5.99943645                6.01121632                0.34750006               -0.10656565               -0.01176816                0.27059151               -0.01913420                0.10274868                0.08452134
               0.00171328                6.99904432                6.00812559                0.99803346               -0.04271901               -0.03945300                0.14114716               -0.00090580               -0.00089829                0.00916358
               1.00128609                6.99886212                6.00790864                0.33820315               -0.04242187               -0.04233267                0.13909406               -0.00280052               -0.00607846               -0.00372855
               2.00086485                6.99864728                6.00759076                0.01445985               -0.02826043               -0.03669793                0.13279599               -0.02661936                0.01448397               -0.01945985
               3.00072088                6.99831595                6.00778824                0.01000001               -0.01712175               -0.03654594                0.13668001               -0.02672084                0.05403244               -0.04746026
               4.00052241                6.99827932                6.00833460                0.01000000               -0.02811991               -0.03209198                0.14140609               -0.01903273                0.04571955               -0.07580910
               5.00015849                6.99820411                6.00835958                0.01000000               -0.03869625               -0.03178458                0.14225393               -0.02449114                0.00266248               -0.07633326
               5.99974849                6.99827409                6.00803108                0.01000000               -0.04017420               -0.02581842                0.13881382               -0.00706283                0.04188096               -0.02710891
               6.99935500                6.99844204                6.00894252                0.01000000               -0.05571758               -0.01856215                0.16879469                0.00540086                0.07623617                0.03710113
               7.99863413                6.99862965                6.00964435                0.01000000               -0.07358230               -0.00422597                0.19270709               -0.01266158                0.04453593                0.06762241
               8.99788336                6.99891185                6.01023545                0.01000000               -0.09301620               -0.00549791                0.23982618               -0.02976378                0.06343791                0.11782564
               9.99677381                6.99929540                6.01189730                0.46433159               -0.11095462               -0.03852773                0.26730796               -0.01321863                0.11885745                0.09497845
               0.00190510                7.99863623                6.00850970                0.99999999               -0.04303280               -0.04163913                0.14420117                0.00028932               -0.00159355                0.01014003
               1.00147477                7.99843924                6.00821962                0.89944037               -0.04247896               -0.04251088                0.14087354               -0.00041427               -0.00369023               -0.00289608
               2.00105552                7.99823965                6.00788218                0.01000001               -0.03610716               -0.04129565                0.13675419               -0.00469723                0.00902215               -0.01127644
               3.00075263                7.99796324                6.00786124                0.01000000               -0.03352164               -0.03234950                0.12871770               -0.00713360                0.00122693               -0.02415558
               4.00038509                7.99797864                6.00749131                0.01000000               -0.03968934               -0.03529882                0.15958310               -0.00713891                0.01441155               -0.05857005
               4.99995884                7.99790177                6.00770844                0.01000000               -0.03859412               -0.03361954                0.13979602               -0.00073253                0.05901733               -0.03182934
               5.99961320                7.99801292                6.00840780                0.01000001               -0.03677718               -0.03175279                0.14116293                0.00751906                0.08230376                0.02920951
               6.99922330                7.99822982                6.00936539                0.01000000               -0.06641144               -0.02966844                0.19044673                0.01441319                0.09448879                0.01354052
               7.99828497                7.99864134                6.01044344                0.01000000               -0.10315243                0.00002419                0.22403062                0.01422083                0.13945646                0.11503144
               8.99716025                7.99900234                6.01246286                0.43693943               -0.09804107               -0.03180550                0.25317802               -0.02163429                0.08353759                0.10623396
               9.99632415                7.99866590                6.01288609                0.96249191               -0.08360942               -0.06752168                0.25166234               -0.03684811               -0.00673095                0.03446740
               0.00211305                8.99821154                6.00890938                0.99999999               -0.04386675               -0.04355013                0.14805799                0.00060244                0.00016748                0.00902267
               1.00167438                8.99801190                6.00856800                0.99787900               -0.04330740               -0.04322948                0.14419721                0.00003391                0.00045423               -0.00068798
               2.00124690                8.99782137                6.00822704                0.09001608               -0.04175779               -0.04220068                0.14039258                0.00144987                0.00762214               -0.00836551
               3.00083923                8.99766896                6.00803792                0.01000000               -0.04028993               -0.03896752                0.14740885                0.00095157                0.00689896               -0.01786087
               4.00044110                8.99757334                6.00769898                0.01000000               -0.03648374               -0.05123099                0.15239016                0.01025220                0.03338048               -0.00888361
               5.00010955                8.99753172                6.00832799                0.01161423               -0.04351461               -0.05011726                0.17715927                0.01909093                0.09071112                0.03687675
               5.99957081                8.99763903                6.00936736                0.01027185               -0.05473494               -0.05425389                0.19636152                0.01737105                0.08588383                0.05009297
               6.99901485                8.99784867                6.00976918                0.01000000               -0.07123872               -0.05046009                0.23309153                0.02897343                0.15280555                0.05881339
               7.99814604                8.99863013                6.01230214                0.46464563               -0.07943709               -0.04121052                0.24945052                0.02901951                0.10051351                0.09770599
               8.99742611                8.99827574                6.01250504                0.98600159               -0.07181540               -0.07189322                0.23882376               -0.00563045               -0.01017460               -0.00078292
               9.99670973                8.99794496                6.01285080                0.99386036               -0.07163824               -0.07072161                0.23579681                0.00300647               -0.00450217               -0.01107567
               0.00231643                9.99776522                6.00926948                0.99787529               -0.04508092               -0.04463138                0.15199190                0.00127986                0.00776007                0.00724118
               1.00186562                9.99757465                6.00893207                1.00000000               -0.04444848               -0.04372511                0.14792610                0.00064414                0.00799444               -0.00002764
               2.00142746                9.99739564                6.00859531                0.67021033               -0.04229665               -0.04257304                0.14401129               -0.00148266                0.02220752               -0.00739910
               3.00101968                9.99718389                6.00854260                0.21726636               -0.03500441               -0.04850722                0.15116542               -0.00403533                0.02891525               -0.00123418
               4.00072737                9.99695402                6.00834170                0.24503921               -0.03723575               -0.06193248                0.20399955                0.01440317                0.06325565                0.00478438
               5.00027497                9.99689942                6.00954342                0.28540661               -0.05418459               -0.06322992                0.20847583                0.01523297                0.09079888                0.07631934
               5.99964368                9.99692784                6.01039931                0.34742643               -0.07316500               -0.07111884                0.24326245                0.02334645                0.08869097                0.07689011
               6.99881167                9.99722062                6.01119095                0.46654834               -0.06026921               -0.06280480                0.25293022                0.02414557                0.10344742                0.11793858
               7.99843829                9.99781713                6.01234795                0.99275106               -0.05394320               -0.08130036                0.24270664                0.04641809                0.04252640               -0.00272139
               8.99773280                9.99756447                6.01262149                0.99386164               -0.06962271               -0.07112690                0.23172707                0.00238621               -0.00057388                0.00131812
               9.99704584                9.99725146                6.01296760                0.99594993               -0.06869668               -0.06934995                0.22848004                0.00231007                0.00181699               -0.00462198
               0.00165448                0.00121357                7.00763323                0.89343929               -0.03347096               -0.03383641                0.10714439                0.00246430               -0.00280572               -0.00015840
               1.00131977                0.00120838                7.00772956                0.62838075               -0.03531359               -0.03537991                0.11452017                0.00031751               -0.00494207               -0.00245951
               2.00094821                0.00120186                7.00778268                0.40826396               -0.03901314               -0.03822095                0.12061353               -0.00162340               -0.00525971               -0.00104457
               3.00053951                0.00112208                7.00787376                0.38269741               -0.04031487               -0.04003849                0.12252537               -0.00038611                0.00205210               -0.00142997
               4.00014191                0.00092133                7.00812576                0.45235302               -0.03886550               -0.04054648                0.12408187                0.00110032                0.00829584               -0.00088288
               4.99976220                0.00064089                7.00842531                0.57771448               -0.03804180               -0.04044515                0.12675696                0.00060252                0.00710083               -0.00037386
               5.99938108                0.00034138                7.00870638                0.77335326               -0.03847117               -0.04052621                0.12945586                0.00031447                0.00340504               -0.00009866
               6.99899278                0.00005307                7.00895542                0.99887754               -0.03921398               -0.04087447                0.13170874                0.00026007                0.00011519                0.00007977
               7.99859680               -0.00021421                7.00917986                1.00000000               -0.03992868               -0.04141286                0.13381767                0.00036761               -0.00193492                0.00046671
               8.99819420               -0.00045864                7.00939361                0.99999999               -0.04058255               -0.04202308                0.13582174                0.00041728               -0.00239641                0.00024024
               9.99778515               -0.00067987                7.00961550                1.00000000               -0.04090563               -0.04260083                0.13766373               -0.00086029               -0.00211343               -0.00191393
               0.00168431                1.00087521                7.00784683                0.63129551               -0.03555084               -0.03601517                0.11591903                0.00004246                0.00029626               -0.00254668
               1.00132881                1.00085458                7.00794955                0.01263451               -0.03545934               -0.03548226                0.12330762               -0.00321077                0.00041257               -0.00639669
               2.00097513                1.00081965                7.00804671                0.01000000               -0.03264464               -0.04059103                0.13056543               -0.00498104                0.00086728               -0.00573821
               3.00067591                1.00072170                7.00816226                0.01000000               -0.02908079               -0.04397038                0.13316824               -0.00603816                0.00722854               -0.01178464
               4.00039351                1.00051586                7.00844313                0.01000000               -0.03088571               -0.04450351                0.13454055               -0.00759766                0.01374927               -0.00753030
               5.00005820                1.00023644                7.00877094                0.01000000               -0.03576911               -0.04576951                0.13641355               -0.00732797                0.01270271               -0.00546897
               5.99967813                0.99993612                7.00908074                0.01000000               -0.03925151               -0.04255081                0.13820112               -0.00322908                0.00893704               -0.00679478
               6.99927317                0.99964433                7.00935663                0.30969450               -0.04108991               -0.04191711                0.13978768                0.00055381                0.00548242                0.00184294
               7.99885633                0.99937166                7.00960929                0.86318317               -0.04209814               -0.04243903                0.14149117                0.00038207                0.00301292                0.00149262
               8.99843121                0.99912113                7.00984577                0.99479186               -0.04292819               -0.04315366                0.14366434                0.00022266                0.00132816                0.00032380
               9.99799777                0.99889412                7.01007116                0.99999999               -0.04334384               -0.04378371                0.14573041               -0.00111194                0.00071748               -0.00188079
               0.00169658                2.00049327                7.00801189                0.41285942               -0.03854602               -0.03882221                0.12406805               -0.00231385               -0.00031877               -0.00827441
               1.00131112                2.00049874                7.00808332                0.01000000               -0.03575509               -0.03461363                0.13040365               -0.01035413                0.00280736               -0.01493511
               2.00098148                2.00039003                7.00819671                0.01019263               -0.02942942               -0.04258819                0.14002650               -0.01182462               -0.00062262               -0.02092725
               3.00072253                2.00024267                7.00820602                0.01090200               -0.02531301               -0.04713510                0.12891611               -0.01366079                0.01239032               -0.01763824
               4.00047522                2.00003126                7.00859236                0.01000001               -0.02635725               -0.05188957                0.14836310               -0.01948901                0.03099186               -0.01619268
               5.00019539                1.99972550                7.00899315                0.01000000               -0.02833065               -0.05281902                0.15899736               -0.01015832                0.02750476               -0.00839789
               5.99990861                1.99949036                7.00930676                0.01000000               -0.03135418               -0.04229838                0.15566246               -0.00084980                0.02852280               -0.01521980
               6.99956830                1.99921473                7.00978605                0.01257952               -0.03904820               -0.03329993                0.14500776                0.00367683                0.01830281               -0.00967170
               7.99912764                1.99893701                7.01005922                0.01000000               -0.04460530               -0.02863650                0.14864231                0.00103161                0.00613218               -0.00881232
               8.99867620                1.99867828                7.01029954                0.11316987               -0.04553650               -0.04533873                0.15152731               -0.00057702                0.00391872                0.00442595
               9.99821691                1.99844446                7.01052627                0.69446345               -0.04592859               -0.04607389                0.15379344               -0.00049288                0.00325828               -0.00057169
               0.00162710                3.00009876                7.00811073                0.38732567               -0.04021418               -0.03578098                0.12692035               -0.00147564               -0.00153312               -0.00676910
               1.00122496                3.00016231                7.00813854                0.01000000               -0.03161997               -0.03572542                0.13192587               -0.01553542                0.00112107               -0.01588115
               2.00099470                2.99996788                7.00818028                0.01090286               -0.02317406               -0.04191946                0.12714350               -0.01849474                0.01024238               -0.01491428
               3.00076148                2.99977899                7.00840234                0.01000001               -0.02368972               -0.04988347                0.14164482               -0.02317560                0.02614721               -0.00964647
               4.00052091                2.99947807                7.00877549                0.01000000               -0.01827747               -0.05438613                0.14794021               -0.02155195                0.04124171               -0.00483839
               5.00039593                2.99918006                7.00930180                0.01584793               -0.01745020               -0.04382487                0.11798143               -0.00629141                0.03264646               -0.00607309
               6.00017190                2.99909015                7.00948692                0.01427898               -0.02479369               -0.03449799                0.11475027                0.01016038                0.02778456               -0.00755686
               6.99990005                2.99897833                7.00995638                0.01709292               -0.03792457               -0.02271419                0.13938740                0.00881503                0.03056353               -0.01095729
               7.99941341                2.99879893                7.01028257                0.01000000               -0.04939165               -0.01495882                0.15214542               -0.01061329                0.03206470               -0.00153429
               8.99891222                2.99821435                7.01083133                0.01000000               -0.04789251               -0.00541704                0.15636832               -0.03697540                0.01712902               -0.02963804
               9.99845556                2.99797265                7.01100602                0.21909151               -0.04566601                0.01306289                0.15801300               -0.05472681                0.00239946               -0.01464875
               0.00153997                3.99977765                7.00835106                0.45870775               -0.04086792               -0.03132613                0.12921088               -0.00276718               -0.00189987                0.00284103
               1.00113129                3.99978423                7.00832385                0.01000000               -0.02725356               -0.04008610                0.13236596               -0.01513160                0.01057316               -0.00885868
               2.00099490                3.99955165                7.00850950                0.01000001               -0.01912308               -0.04511298                0.14087414               -0.02826123                0.01835317               -0.00502885
               3.00074883                3.99924500                7.00871051                0.01000000               -0.01758928               -0.05069529                0.14710785               -0.02723387                0.03612768               -0.00384863
               4.00064312                3.99894353                7.00924299                0.01627287               -0.01456758               -0.04312156                0.11956755               -0.01224889                0.04192921               -0.00187451
               5.00045748                3.99884900                7.00959153                0.01483740               -0.01647877               -0.02892388                0.08775174               -0.00007444                0.02876747               -0.00602377
               6.00031354                3.99880040                7.00985472                0.01740423               -0.02108321               -0.02433871                0.09137418                0.00520173                0.02770463               -0.00026245
               7.00003582                3.99876045                7.01021337                0.01000000               -0.03170936               -0.02387983                0.12750189               -0.00073375                0.04324643               -0.01916117
               7.99967935                3.99863784                7.01078407                0.01000000               -0.06364192               -0.00928981                0.19232239               -0.01784435                0.01560252               -0.03250082
               8.99876298                3.99856994                7.01060579                0.01000000               -0.10367844                0.03938907                0.21750400               -0.03273634                0.00477394               -0.00789881
               9.99760578                3.99870572                7.01117989                0.24789900               -0.11571932                0.07274807                0.18848475               -0.03596488                0.02909559                0.01940122
               0.00155860                4.99947224                7.00871532                0.58918749               -0.04102660               -0.03240005                0.13302699               -0.00308817               -0.00158233                0.00887247
               1.00114833                4.99936059                7.00862460                0.01000000               -0.02949469               -0.04296171                0.13426359               -0.01250893                0.01205969               -0.00452141
               2.00096870                4.99906562                7.00878492                0.01000000               -0.01617090               -0.04824502                0.15285506               -0.02558647                0.02805096               -0.01545650
               3.00082491                4.99876509                7.00907735                0.01585073               -0.01483858               -0.04091545                0.11277670               -0.01432864                0.03486070               -0.00784192
               4.00067193                4.99861564                7.00946235                0.01483901               -0.01436708               -0.02919798                0.08725003               -0.00501767                0.03866793               -0.01820633
               5.00053757                4.99860158                7.00986181                0.01769350               -0.01537195               -0.02439834                0.08357566                0.00433161                0.03391144               -0.01304041
               6.00036449                4.99860337                7.01012396                0.01000000               -0.02448133               -0.02133336                0.09250503               -0.00568351                0.02276419               -0.01429944
               7.00004794                4.99850073                7.01024243                0.01000000               -0.05587319               -0.01497848                0.14559730               -0.01436501                0.02435362               -0.01642129
               7.99924703                4.99861314                7.01045813                0.01000000               -0.09291647               -0.00320985                0.23073707               -0.02288052                0.05410419               -0.01309761
               8.99818961                4.99900213                7.01154318                0.01604174               -0.08911560                0.02279280                0.19803590               -0.01436616                0.04696426                0.07024217
               9.99746472                4.99942761                7.01219163                0.28925602               -0.07248985                0.04500939                0.13910136                0.01883480                0.03596212                0.07366951
               0.00170151                5.99912965                7.00912417                0.79667920               -0.04137799               -0.03631494                0.13706203               -0.00202969               -0.00150378                0.01020252
               1.00128773                5.99892500                7.00896250                0.01000000               -0.03114201               -0.04336515                0.13664794               -0.00925094                0.00608123               -0.00415338
               2.00107867                5.99858675                7.00893763                0.01000000               -0.01877455               -0.04343722                0.14733128               -0.01913349                0.02472946               -0.03125075
               3.00091224                5.99842669                7.00927572                0.01428375               -0.01862014               -0.03667669                0.10983553               -0.00466966                0.03318375               -0.01897974
               4.00070627                5.99835957                7.00951291                0.01740786               -0.01779328               -0.03195206                0.09145871                0.00166123                0.03969169               -0.01793023
               5.00055638                5.99836103                7.00992263                0.01000000               -0.02027769               -0.02720021                0.09266147               -0.00354699                0.04089094               -0.03356236
               6.00030072                5.99837373                7.01017204                0.01000000               -0.04088135               -0.02611750                0.13874824               -0.00877726                0.04389171               -0.02468165
               6.99973875                5.99846088                7.01050539                0.01000000               -0.07901872               -0.01527864                0.21744102               -0.02487567                0.05602647                0.01119668
               7.99872034                5.99857364                7.01106620                0.01000000               -0.10387825               -0.00596523                0.24045160               -0.01129245                0.08502350                0.05288779
               8.99766119                5.99902580                7.01262779                0.01513623               -0.07944063               -0.00572612                0.19440383                0.00656897                0.06253102                0.06344274
               9.99713153                5.99960590                7.01339233                0.35147733               -0.05296554                0.00121334                0.13638268                0.00458865                0.04758494                0.08640755
               0.00192731                6.99874594                7.00953514                0.99891528               -0.04210940               -0.03966238                0.14056783               -0.00065975               -0.00124977                0.01023308
               1.00150621                6.99849329                7.00930032                0.33682550               -0.04214874               -0.04302457                0.13898641               -0.00369539               -0.00799045               -0.00512914
               2.00108433                6.99819688                7.00892285                0.01258790               -0.02737620               -0.04002938                0.13365919               -0.00982697                0.02554346               -0.03085493
               3.00095869                6.99803155                7.00935923                0.01710011               -0.01567592               -0.04476969                0.13562845               -0.00266296                0.06098587               -0.02268022
               4.00077082                6.99797660                7.00977723                0.01000000               -0.02531103               -0.04234655                0.12133949                0.00684001                0.03660450               -0.01762412
               5.00045247                6.99805757                7.00976241                0.01000000               -0.03408556               -0.04462244                0.14007569               -0.00335065                0.04327153               -0.04199378
               6.00008910                6.99808102                7.01020906                0.01000000               -0.05509725               -0.04311947                0.20997955               -0.01567877                0.08293918               -0.01625784
               6.99935052                6.99819516                7.01100520                0.01000000               -0.08164235               -0.02524448                0.21574392               -0.01197688                0.08786935                0.02808764
               7.99845626                6.99849383                7.01197803                0.01000000               -0.10308978               -0.01118516                0.24179942                0.00008807                0.10319810                0.07830682
               8.99728873                6.99888761                7.01347789                0.01000000               -0.10299894               -0.00414237                0.27616588               -0.00254983                0.08070575                0.09275562
               9.99639628                6.99945187                7.01449243                0.46813827               -0.08924512               -0.05259407                0.22444116               -0.00133084                0.05363086                0.07542194
               0.00219363                7.99833640                7.00995004                0.99999999               -0.04307412               -0.04184916                0.14395825                0.00026405               -0.00189650                0.01135028
               1.00176289                7.99806450                7.00963094                0.89826977               -0.04248828               -0.04298475                0.14132985               -0.00094903               -0.00477281               -0.00347212
               2.00134387                7.99778616                7.00925403                0.01000000               -0.03418131               -0.04149348                0.13782162               -0.00036981                0.02757152               -0.01140133
               3.00107926                7.99753130                7.00958450                0.01000000               -0.02634083               -0.04720177                0.14856674               -0.00196836                0.05638180               -0.04101297
               4.00081705                7.99751264                7.00990141                0.01000000               -0.03471632               -0.05627380                0.17771789               -0.00461661                0.03264857               -0.05804383
               5.00038494                7.99746859                7.00971517                0.01000000               -0.04837466               -0.06602045                0.20987647               -0.01033761                0.06204090               -0.01215745
               5.99984956                7.99751134                7.01050488                0.01000000               -0.06492682               -0.05529802                0.22085354                0.01630728                0.11321526                0.02630074
               6.99908640                7.99795599                7.01166148                0.01000000               -0.09099517               -0.03284274                0.23428713                0.03460574                0.11497448                0.06524597
               7.99802965                7.99834994                7.01300447                0.01000000               -0.12171268                0.00318101                0.25064316                0.01560964                0.13230451                0.11273301
               8.99665215                7.99894295                7.01479881                0.43094150               -0.10266345               -0.03342306                0.23850617               -0.00109091                0.06524904                0.06760820
               9.99597638                7.99855402                7.01520570                0.95720074               -0.06757639               -0.08079618                0.23743687               -0.04141335                0.00067410                0.02793505
               0.00247638                8.99790896                7.01038700                0.99999999               -0.04389063               -0.04364630                0.14762837                0.00059402                0.00035213                0.01014144
               1.00203748                8.99763359                7.01001220                0.99999996               -0.04331214               -0.04348447                0.14449954                0.00013272                0.00043364               -0.00036043
               2.00161014                8.99736701                7.00963799                0.09449478               -0.04223193               -0.04248971                0.14142756               -0.00109187                0.00720864               -0.00799718
               3.00119284                8.99708752                7.00940066                0.01000000               -0.04344713               -0.04188010                0.13442288               -0.00736177                0.03243677               -0.03977268
               4.00074120                8.99685112                7.00954821                0.01000000               -0.04729116               -0.05817080                0.19523504               -0.02112721                0.08263621               -0.05006868
               5.00024702                8.99673717                7.01054158                0.01608365               -0.04066749               -0.05843982                0.18234523               -0.01512181                0.10248351                0.00829153
               5.99992785                8.99697506                7.01166794                0.01514655               -0.05214835               -0.04031849                0.16854278                0.03017825                0.10968327                0.03714137
               6.99920405                8.99753830                7.01295647                0.01161233               -0.10731812               -0.04253923                0.25915142                0.07534930                0.13440015                0.08037890
               7.99778149                8.99855745                7.01459309                0.45725506               -0.10706117               -0.02253670                0.23447954                0.03943278                0.06087318                0.07980376
               8.99706282                8.99821915                7.01489461                0.98560798               -0.07178087               -0.07166183                0.23901574                0.00329824               -0.00435188                0.00463615
               9.99634587                8.99783595                7.01522946                0.99444716               -0.07169566               -0.07140926                0.23821327               -0.00031932               -0.00277669               -0.00471512
               0.00275625                9.99746347                7.01078272                1.00000000               -0.04487530               -0.04454848                0.15096293                0.00112054                0.00875472                0.00818841
               1.00230750                9.99719481                7.01041208                0.99999999               -0.04440737               -0.04387769                0.14789396                0.00064634                0.00896604                0.00045880
               2.00186810                9.99693636                7.01004186                0.67734972               -0.04297898               -0.04306455                0.14490454                0.00074034                0.02228225               -0.00736659
               3.00144792                9.99669370                7.00994037                0.21858942               -0.05616217               -0.03938200                0.13817541               -0.00384902                0.04789731                0.00045615
               4.00074486                9.99634923                7.01010576                0.24800995               -0.07446780               -0.05018950                0.18555908               -0.01932942                0.07517176                0.00099603
               4.99995856                9.99629979                7.01122273                0.28925876               -0.05464377               -0.04373768                0.13558216               -0.01105804                0.07255985                0.01886217
               5.99965198                9.99670497                7.01231579                0.35143097               -0.04737819               -0.02700880                0.12386820                0.01268417                0.07821139                0.03620854
               6.99901100                9.99710520                7.01371410                0.47041104               -0.07572591               -0.04331023                0.20732094                0.04040623                0.08111097                0.07185933
               7.99813746                9.99789920                7.01458512                0.98612453               -0.07856901               -0.06582519                0.22945031                0.05582353                0.03266674                0.00445617
               8.99743962                9.99750971                7.01495715                0.99444847               -0.07005355               -0.07094343                0.23408490               -0.00098907                0.00584093                0.00293024
               9.99673639                9.99712584                7.01529332                0.99700362               -0.07032226               -0.07101135                0.23332402                0.00066486                0.00321017               -0.00353776
               0.00149072                0.00095732                8.00870728                0.89934414               -0.03346177               -0.03380739                0.10771784                0.00201656               -0.00319716                0.00047488
               1.00115610                0.00091842                8.00887120                0.63036839               -0.03523242               -0.03503013                0.11391350                0.00022095               -0.00569180               -0.00270757
               2.00078607                0.00087803                8.00898511                0.40434231               -0.03979405               -0.03734273                0.11981489               -0.00169926               -0.00777935               -0.00106964
               3.00036022                0.00076814                8.00910212                0.37933213               -0.04273629               -0.03856243                0.12303758               -0.00036935               -0.00120526               -0.00120938
               3.99993134                0.00054531                8.00936854                0.45046381               -0.04145373               -0.03925504                0.12460536                0.00132924                0.00681318               -0.00061741
               4.99953115                0.00024509                8.00969238                0.57667550               -0.03952551               -0.03968502                0.12687232                0.00088320                0.00719091               -0.00017383
               5.99914083               -0.00007576                8.00999872                0.77289395               -0.03913434               -0.04016215                0.12938690                0.00049551                0.00387593                0.00012320
               6.99874846               -0.00038717                8.01027166                0.99881295               -0.03958247               -0.04074021                0.13188216                0.00034287                0.00059458                0.00018640
               7.99834919               -0.00067810                8.01051972                1.00000000               -0.04026972               -0.04140348                0.13432693                0.00027381               -0.00158264                0.00041278
               8.99794306               -0.00094757                8.01075380                0.99999999               -0.04079905               -0.04194030                0.13621615                0.00030002               -0.00226794                0.00029681
               9.99753320               -0.00119414                8.01099343                1.00000000               -0.04098601               -0.04246465                0.13783646               -0.00088636               -0.00230610               -0.00166826
               0.00154978                1.00061924                8.00900216                0.63310813               -0.03518247               -0.03588263                0.11524843               -0.00002757                0.00073544               -0.00193711
               1.00119796                1.00056812                8.00917182                0.01088486               -0.03527816               -0.03536368                0.12134997               -0.00274294                0.00094809               -0.00727758
               2.00084422                1.00050460                8.00933937                0.01000000               -0.03375356               -0.03898812                0.12810637               -0.00372000               -0.00014592               -0.01761419
               3.00052289                1.00038252                8.00948625                0.01000000               -0.03190278               -0.04463304                0.13183960               -0.00403471                0.00437616               -0.01622254
               4.00020616                1.00015276                8.00978020                0.01373224               -0.03361878               -0.04412241                0.13333570               -0.00421942                0.01152464               -0.00109978
               4.99985051                0.99984824                8.01012681                0.01000000               -0.03721208               -0.04265329                0.13521076               -0.00044982                0.01160911                0.00363421
               5.99946192                0.99952262                8.01045592                0.01000000               -0.03987250               -0.03760642                0.13729291                0.00121590                0.00837908               -0.00285966
               6.99905306                0.99920543                8.01075133                0.30543060               -0.04148983               -0.04181657                0.13946747                0.00020521                0.00531038                0.00051496
               7.99863212                0.99890786                8.01102471                0.86001302               -0.04244870               -0.04249385                0.14173308                0.00008620                0.00312828                0.00126981
               8.99820409                0.99863302                8.01128177                0.99741290               -0.04306073               -0.04308456                0.14367235                0.00010321                0.00146767                0.00030027
               9.99777091                0.99838121                8.01152646                0.99999999               -0.04331762               -0.04365209                0.14551605               -0.00112688                0.00071750               -0.00183345
               0.00159242                2.00023967                8.00924825                0.40874823               -0.03765281               -0.03938297                0.12312816               -0.00224060               -0.00002092               -0.00963075
               1.00121589                2.00021115                8.00937505                0.01000000               -0.03475711               -0.03609876                0.12808339               -0.00820784               -0.00696006               -0.01853235
               2.00089727                2.00009826                8.00934755                0.01000001               -0.02922605               -0.04345470                0.12460636               -0.01246681               -0.00229174               -0.02682879
               3.00063137                1.99987548                8.00954636                0.01000001               -0.02580204               -0.05107420                0.14023396               -0.01215742                0.02727536               -0.01977331
               4.00038123                1.99966286                8.01016211                0.01000001               -0.02395409               -0.05300591                0.13925608               -0.00994541                0.04146590               -0.01776626
               5.00015228                1.99939202                8.01062604                0.01000000               -0.02866328               -0.04774068                0.13497260                0.00313323                0.02227551               -0.02093444
               5.99980797                1.99917212                8.01084840                0.01000000               -0.03924819               -0.03818960                0.16826251               -0.00023133                0.01747933               -0.02555271
               6.99936732                1.99877650                8.01123642                0.01014904               -0.04423275               -0.02780431                0.14598085               -0.00513030                0.01385419               -0.02864077
               7.99892331                1.99847202                8.01154805                0.01000000               -0.04477691               -0.02365479                0.14908372               -0.00085401                0.00742228               -0.02615208
               8.99847178                1.99819073                8.01181231                0.11290999               -0.04545102               -0.04534131                0.15126740               -0.00034975                0.00426130                0.00188633
               9.99801429                1.99793281                8.01206028                0.69782253               -0.04574910               -0.04601238                0.15335103               -0.00068875                0.00359196               -0.00328321
               0.00156200                2.99983158                8.00938233                0.38386537               -0.03868033               -0.03779703                0.12728676               -0.00139754               -0.00115223               -0.00957336
               1.00117520                2.99984614                8.00945170                0.01000000               -0.03157278               -0.03938045                0.13093126               -0.01359090               -0.00070432               -0.02157071
               2.00093055                2.99963550                8.00950527                0.01000001               -0.02300306               -0.04791035                0.13886220               -0.02159286                0.01420065               -0.00870969
               3.00071514                2.99936103                8.00987642                0.01300311               -0.02199195               -0.05012685                0.13293831               -0.01918927                0.03038804               -0.01020486
               4.00049071                2.99909264                8.01022061                0.01000000               -0.01556104               -0.05111897                0.13566047               -0.00957604                0.02444370               -0.02576879
               5.00040392                2.99889343                8.01043793                0.01439021               -0.02089438               -0.04277119                0.12142325               -0.00121214                0.02054484               -0.03656811
               6.00007282                2.99875883                8.01071835                0.01248414               -0.03766862               -0.03520465                0.14533107                0.00819421                0.02659950               -0.03474252
               6.99965055                2.99864934                8.01113204                0.01492199               -0.04360082               -0.01982386                0.15125721                0.00870158                0.02491233               -0.03731959
               7.99920081                2.99843477                8.01150652                0.01000000               -0.04571243               -0.01404656                0.13872327               -0.02071566                0.04177517               -0.01096502
               8.99873630                2.99772620                8.01237169                0.01000000               -0.04639161               -0.00309962                0.15437184               -0.03827757                0.03417525               -0.00177362
               9.99827297                2.99746096                8.01256369                0.21916315               -0.04633245                0.01629665                0.15627254               -0.05410571                0.00012136               -0.00090800
               0.00153534                3.99948372                8.00964415                0.45664551               -0.03951953               -0.03358513                0.12951257               -0.00264897               -0.00157438                0.00177021
               1.00114015                3.99942354                8.00964183                0.01373558               -0.02924083               -0.04363623                0.13164925               -0.01459929                0.01588886               -0.01312542
               2.00095053                3.99914006                8.00996771                0.01000001               -0.01748519               -0.04635588                0.13019924               -0.02125981                0.02268735               -0.00114392
               3.00079045                3.99887294                8.01017969                0.01000000               -0.01466050               -0.04626827                0.13500505               -0.01591174                0.02329996               -0.02555956
               4.00065732                3.99864048                8.01035949                0.01509656               -0.01642971               -0.03941270                0.10482638               -0.00570828                0.01492653               -0.02623998
               5.00046185                3.99853660                8.01045157                0.01365683               -0.02206899               -0.03123232                0.09648861               -0.00141976                0.02335528               -0.02021264
               6.00021594                3.99846802                8.01083103                0.01616934               -0.02982185               -0.02623887                0.10555640                0.00479791                0.03425427               -0.01713991
               6.99986541                3.99838002                8.01130195                0.01000000               -0.03918982               -0.02474643                0.11989359                0.00071586                0.04526740               -0.01105906
               7.99943214                3.99819109                8.01200666                0.01000000               -0.05926885               -0.00789889                0.15415470               -0.01799054                0.05336370                0.02486414
               8.99868004                3.99812874                8.01282736                0.01000000               -0.09847484                0.03299194                0.21326658               -0.03469620                0.03553554               -0.01109595
               9.99746265                3.99825875                8.01314047                0.24944445               -0.12173922                0.06653731                0.18812745               -0.03929043                0.01225689               -0.01470828
               0.00162940                4.99915988                8.01004351                0.58779154               -0.04025142               -0.03371023                0.13279848               -0.00281051               -0.00137043                0.00953803
               1.00122688                4.99897342                8.00996185                0.01000000               -0.02867248               -0.04482198                0.13358190               -0.00748711                0.02301408               -0.00668548
               2.00105595                4.99870839                8.01035619                0.01000000               -0.01652012               -0.04646952                0.13155993               -0.01325868                0.01686963               -0.02095926
               3.00089648                4.99843567                8.01014537                0.01439293               -0.01715306               -0.04201304                0.11653850               -0.00934857                0.00877348               -0.02867089
               4.00071289                4.99830439                8.01031516                0.01365839               -0.01742492               -0.03467455                0.09531838               -0.00116906                0.03427017               -0.02941708
               5.00054798                4.99826878                8.01068325                0.01675471               -0.01937624               -0.02854917                0.09323124                0.00349655                0.03926135               -0.01713659
               6.00032536                4.99823405                8.01106905                0.01000000               -0.03030936               -0.02587328                0.10778605               -0.00214225                0.04507841               -0.01038469
               6.99994180                4.99815441                8.01168785                0.01000000               -0.06165450               -0.01588930                0.15541948               -0.00627340                0.07967604                0.02221674
               7.99909227                4.99827679                8.01287728                0.01000000               -0.09835388                0.00363097                0.23405176               -0.03072172                0.06386490                0.03571709
               8.99797472                4.99838604                8.01307590                0.01000001               -0.09325592                0.01588493                0.20035051               -0.04096771                0.00632362               -0.00305517
               9.99722715                4.99879171                8.01317886                0.29201977               -0.07475639                0.03025270                0.16685008                0.00634764               -0.02107013               -0.01265949
               0.00185206                5.99880952                8.01048975                0.79548662               -0.04101564               -0.03683842                0.13647997               -0.00181604               -0.00131402                0.01126295
               1.00144190                5.99852710                8.01032416                0.01000000               -0.03144757               -0.04411626                0.13614186               -0.00435863                0.01053941               -0.00532437
               2.00122311                5.99821067                8.01039049                0.01000000               -0.02172134               -0.04973035                0.15724861               -0.01167787                0.02303080               -0.05374617
               3.00100748                5.99803268                8.01040986                0.01248877               -0.02111415               -0.04410508                0.12309897               -0.00369654                0.02044633               -0.02902620
               4.00080082                5.99794699                8.01048754                0.01617288               -0.02026801               -0.03830267                0.10408979                0.00356849                0.03527832               -0.02211654
               5.00060212                5.99796562                8.01087280                0.01000000               -0.02566808               -0.03485435                0.10788660                0.00238349                0.05385302               -0.02309447
               6.00028746                5.99795056                8.01146235                0.01000000               -0.04524533               -0.03089768                0.13850409               -0.00321347                0.08456003                0.00848004
               6.99969721                5.99806223                8.01259748                0.01000000               -0.08506898               -0.01533587                0.21087182               -0.01426135                0.10329845                0.03010113
               7.99858608                5.99826371                8.01362872                0.01000000               -0.11757217               -0.00096402                0.24033573               -0.02413306                0.06050980                0.03622440
               8.99734577                5.99844644                8.01381900                0.01000001               -0.09039160                0.01049566                0.18467781               -0.01957748                0.01507694                0.09217619
               9.99677825                5.99886380                8.01394398                0.35480033               -0.05675143                0.00993782                0.15193310               -0.02875407               -0.03421942                0.12195821
               0.00215792                6.99842311                8.01093694                0.99807475               -0.04193547               -0.03990773                0.14017059               -0.00053691               -0.00118835                0.01129965
               1.00173857                6.99809109                8.01068837                0.33271631               -0.04205563               -0.04345946                0.13896704               -0.00379607               -0.00989296               -0.00587633
               2.00131681                6.99771378                8.01026394                0.01015722               -0.03261692               -0.04570869                0.13540885               -0.00536234                0.01430100               -0.03793686
               3.00108623                6.99755357                8.01050081                0.01492898               -0.02327427               -0.04655685                0.13960469                0.00249787                0.04719559               -0.02844113
               4.00085132                6.99753833                8.01076139                0.01000000               -0.02470705               -0.04501055                0.11132728                0.00623420                0.04836829               -0.02116277
               5.00059209                6.99757169                8.01116109                0.01000000               -0.03434224               -0.05430850                0.14721960                0.00359233                0.08589206               -0.00500237
               6.00016448                6.99761610                8.01223067                0.01000000               -0.06243354               -0.04352514                0.20275250               -0.00401327                0.11115751                0.01404586
               6.99934341                6.99784769                8.01325739                0.01000000               -0.09695368               -0.02393814                0.22612839               -0.00163033                0.11053268                0.03066456
               7.99822540                6.99825751                8.01448034                0.01000000               -0.11801690                0.00086137                0.24019619               -0.00220443                0.10357669                0.05891042
               8.99698308                6.99859595                8.01575877                0.01329403               -0.12040266                0.02456687                0.24642534               -0.01744050                0.05324541                0.16885296
               9.99581735                6.99899047                8.01638612                0.47129615               -0.11657268               -0.01881183                0.22709171               -0.02326795                0.02282960                0.18482695
               0.00250536                7.99801137                8.01138887                0.99999999               -0.04300438               -0.04207171                0.14394436                0.00024281               -0.00214272                0.01247139
               1.00207531                7.99765791                8.01104621                0.89574956               -0.04259844               -0.04337706                0.14186357               -0.00106845               -0.00539831               -0.00379198
               2.00165339                7.99729649                8.01063862                0.01000000               -0.04212170               -0.04200922                0.13916462                0.00647245                0.02115554               -0.01125790
               3.00123288                7.99710155                8.01083257                0.01000000               -0.03730041               -0.05179675                0.13452949                0.01208984                0.05012637               -0.04086844
               4.00090738                7.99704678                8.01104567                0.01000000               -0.03183427               -0.05853544                0.14141616               -0.00602548                0.07363297               -0.01534249
               5.00059620                7.99687945                8.01190597                0.01000000               -0.04880922               -0.06908490                0.20918197               -0.02596601                0.10200281               -0.01685927
               5.99993120                7.99708005                8.01282487                0.01000000               -0.07865019               -0.05225759                0.21627337               -0.00554357                0.11375873               -0.02041511
               6.99902319                7.99758347                8.01405113                0.01000000               -0.10687286               -0.02220309                0.23672853                0.03175877                0.12699743                0.05252510
               7.99779374                7.99828094                8.01545631                0.01000000               -0.13795954                0.01940214                0.24222248                0.02771305                0.13214026                0.11914148
               8.99626400                7.99893778                8.01723298                0.43139054               -0.11349404               -0.01929141                0.24306744               -0.00368718                0.06792048                0.07788810
               9.99552386                7.99848757                8.01763483                0.95793360               -0.07401419               -0.06137124                0.24265824               -0.03666385               -0.00293953                0.05678698
               0.00286969                8.99758168                8.01186195                0.99999998               -0.04376190               -0.04369070                0.14734311                0.00056015                0.00026256                0.01107371
               1.00243207                8.99722355                8.01145800                0.99999996               -0.04335340               -0.04369149                0.14486040                0.00011989                0.00026040               -0.00036380
               2.00200262                8.99687360                8.01105559                0.09714695               -0.04271661               -0.04279684                0.14246214               -0.00072536                0.00373241               -0.00845074
               3.00157774                8.99651763                8.01072637                0.01000000               -0.05248550               -0.04939819                0.13402577                0.00874397                0.06713637               -0.03568932
               4.00095291                8.99636762                8.01160368                0.01000000               -0.07691234               -0.05939684                0.20104471               -0.01432857                0.09608458               -0.01397015
               5.00003949                8.99619000                8.01197490                0.01000001               -0.08016638               -0.04825454                0.18306373               -0.04383674                0.06886843               -0.03584720
               5.99934958                8.99657095                8.01273821                0.01000001               -0.06308919               -0.03618652                0.17120614               -0.00005133                0.12691065               -0.03672461
               6.99877771                8.99740363                8.01495221                0.01536694               -0.09621130               -0.02204622                0.18229046                0.06079849                0.16540257                0.05463411
               7.99742536                8.99864555                8.01699173                0.45732990               -0.10375002               -0.01793732                0.23948403                0.04306608                0.08122152                0.08266364
               8.99670271                8.99821012                8.01728536                0.98338287               -0.07204289               -0.07198914                0.23972114               -0.00025431               -0.00450097                0.00484870
               9.99598450                8.99776304                8.01761507                0.99396864               -0.07182073               -0.07172859                0.23930098                0.00098464               -0.00316461               -0.00499859
               0.00323281                9.99713755                8.01228874                1.00000000               -0.04470172               -0.04441278                0.15026780                0.00096530                0.00944284                0.00863312
               1.00278580                9.99678408                8.01188995                0.99999999               -0.04440041               -0.04394737                0.14802500                0.00052286                0.00939826                0.00039866
               2.00234480                9.99644056                8.01149340                0.68272452               -0.04360321               -0.04330402                0.14589137                0.00069354                0.01970603               -0.00771839
               3.00191373                9.99611358                8.01130611                0.21872901               -0.06981796               -0.04040493                0.13828395                0.00451379                0.07616443               -0.00228683
               4.00094845                9.99585884                8.01205288                0.24958233               -0.11987977               -0.05087818                0.18705627               -0.01040773                0.08320462               -0.01702598
               4.99951614                9.99591436                8.01225506                0.29203313               -0.11159562               -0.02756386                0.16302648               -0.02746131                0.05901272               -0.02936928
               5.99871653                9.99635632                8.01287667                0.35477717               -0.06757903               -0.02146241                0.15403838               -0.00189546                0.10898396               -0.03474946
               6.99816456                9.99714255                8.01533737                0.47359508               -0.04339803               -0.02610859                0.13908729                0.01697831                0.11875052                0.03749485
               7.99784857                9.99792219                8.01693695                0.98637307               -0.05115644               -0.07233618                0.23513724                0.06009407                0.06940523                0.00094654
               8.99714143                9.99749800                8.01730319                0.99396993               -0.07054308               -0.07121250                0.23547435                0.00041219                0.00547290                0.00257539
               9.99643771                9.99705299                8.01763408                0.99744625               -0.07037160               -0.07100471                0.23504504                0.00082104                0.00318481               -0.00353389
               0.00126270                0.00063331                9.00978758                0.90407602               -0.03345868               -0.03378046                0.10831746                0.00167146               -0.00342736                0.00118521
               1.00092811                0.00055300                9.01000783                0.63264210               -0.03504972               -0.03478166                0.11348878                0.00017696               -0.00587903               -0.00285268
               2.00056170                0.00047194                9.01017898                0.40114736               -0.03980702               -0.03670184                0.11892374               -0.00156012               -0.00870510               -0.00111157
               3.00013197                0.00032965                9.01033451                0.37570781               -0.04368909               -0.03766376                0.12318980               -0.00025010               -0.00304778               -0.00103442
               3.99968792                0.00008567                9.01061787                0.44796559               -0.04280659               -0.03853650                0.12514161                0.00149760                0.00545008               -0.00042923
               4.99927584               -0.00023145                9.01096276                0.57517489               -0.04043050               -0.03930971                0.12720383                0.00107145                0.00693752               -0.00004255
               5.99887931               -0.00057055                9.01129412                0.77230409               -0.03960841               -0.04002029                0.12966995                0.00063328                0.00412135                0.00019415
               6.99848367               -0.00090254                9.01159306                0.99910881               -0.03981561               -0.04075939                0.13231763                0.00042195                0.00095136                0.00023122
               7.99808300               -0.00121594                9.01186640                1.00000000               -0.04042701               -0.04153317                0.13484190                0.00023991               -0.00153030                0.00049578
               8.99767513               -0.00150864                9.01211794                0.99138898               -0.04116115               -0.04227283                0.13746784                0.00019989               -0.00264493                0.00060409
               9.99725978               -0.00177929                9.01237223                0.99641933               -0.04153539               -0.04301059                0.13996391               -0.00076852               -0.00301942               -0.00096436
               0.00135972                1.00029550                9.01015180                0.63521306               -0.03491531               -0.03564076                0.11475134               -0.00003872                0.00120955               -0.00086533
               1.00101056                1.00020519                9.01037655                0.01000000               -0.03509680               -0.03523952                0.11979612               -0.00230364                0.00181279               -0.00765893
               2.00065778                1.00010492                9.01060884                0.01000000               -0.03439780               -0.03921933                0.12592000               -0.00247737                0.00017572               -0.01803730
               3.00032261                0.99995301                9.01079905                0.01000000               -0.03371683               -0.04363058                0.13067737               -0.00415567                0.00296361               -0.01293226
               3.99998344                0.99970030                9.01110984                0.01201866               -0.03539728               -0.04250744                0.13269027               -0.00203106                0.00988259               -0.01106927
               4.99961466                0.99937546                9.01147516                0.01000000               -0.03811275               -0.03864361                0.13461349                0.00038562                0.01083743               -0.01449695
               5.99922119                0.99902925                9.01182660                0.01000000               -0.04020396               -0.03562862                0.13690009                0.00414595                0.00815379                0.01595044
               6.99881058                0.99868987                9.01214598                0.30193171               -0.04163683               -0.04181320                0.13938966                0.00007757                0.00537584                0.00055776
               7.99838845                0.99836873                9.01244395                0.85796862               -0.04258873               -0.04259528                0.14192662               -0.00020227                0.00311750                0.00135266
               8.99795881                0.99806863                9.01271921                0.99999996               -0.04328544               -0.04326316                0.14423536               -0.00020394                0.00121004                0.00050642
               9.99752274                0.99779060                9.01298148                0.99002074               -0.04360649               -0.04395716                0.14643519               -0.00115204                0.00027714               -0.00135463
               0.00144256                1.99992049                9.01047445                0.40533239               -0.03699378               -0.03920522                0.12205928               -0.00194794                0.00024146               -0.00946893
               1.00107262                1.99984821                9.01064499                0.01000000               -0.03391109               -0.03705344                0.12602039               -0.00777878               -0.00550557               -0.02048118
               2.00076433                1.99968755                9.01068884                0.01000001               -0.03095692               -0.04656963                0.13649984               -0.00974837                0.00401835               -0.02575880
               3.00045348                1.99945703                9.01101070                0.01000000               -0.02697407               -0.05057228                0.14133216               -0.00603727                0.01953089               -0.02971190
               4.00022485                1.99923552                9.01137748                0.01225167               -0.02494366               -0.04674945                0.11924103                0.00017333                0.01896427               -0.02391902
               4.99995461                1.99899568                9.01169261                0.01000000               -0.02885180               -0.03761434                0.11488896                0.00878926                0.04268576               -0.03010012
               5.99964782                1.99871688                9.01267201                0.01686983               -0.04044350               -0.03082913                0.13496949                0.00270569                0.02857672               -0.01190512
               6.99914574                1.99826120                9.01270566                0.01000000               -0.04738103               -0.02617315                0.14682542                0.00074109               -0.00494412               -0.01324162
               7.99870020                1.99793216                9.01304089                0.01000000               -0.04482764               -0.01238559                0.14919186               -0.00071454                0.00755103               -0.02675566
               8.99824918                1.99762609                9.01332488                0.11223567               -0.04537003               -0.04524044                0.15096850               -0.00054235                0.00425813                0.00009193
               9.99779280                1.99734156                9.01359330                0.70045925               -0.04563885               -0.04581503                0.15293038               -0.00089130                0.00353336               -0.00501848
               0.00146532                2.99951140                9.01065646                0.38012070               -0.03773912               -0.03843102                0.12727477               -0.00119993               -0.00085738               -0.01105455
               1.00108793                2.99946412                9.01075717                0.01000000               -0.03056625               -0.04183209                0.13010600               -0.01424872                0.00490978               -0.02550896
               2.00085399                2.99917353                9.01095752                0.01000000               -0.02170126               -0.05048527                0.14025250               -0.01880515                0.00821983               -0.02307528
               3.00065390                2.99894156                9.01106111                0.01169938               -0.02028638               -0.04960850                0.12794380               -0.00193252                0.02148924               -0.02134156
               4.00044826                2.99876531                9.01148870                0.01000001               -0.01724059               -0.04556645                0.12343558                0.00632630                0.02786544               -0.03726844
               5.00030909                2.99862317                9.01173026                0.01254279               -0.02192400               -0.03981256                0.12973622                0.00728945                0.03057759               -0.04134645
               6.00000978                2.99841266                9.01239354                0.01039603               -0.03494822               -0.03049900                0.15037645                0.00218338                0.05047849               -0.07134877
               6.99961012                2.99816641                9.01298152                0.01262635               -0.05002578               -0.01388729                0.15611357                0.01640769                0.02295157               -0.05815213
               7.99900927                2.99812102                9.01305704                0.01000001               -0.05357834               -0.00838968                0.17158169               -0.02407878                0.02819134               -0.00513868
               8.99853856                2.99716382                9.01391877                0.01000000               -0.04676432                0.00088592                0.15430898               -0.05780138                0.03271809                0.01754640
               9.99807398                2.99687430                9.01413147                0.21870733               -0.04645751                0.02274120                0.15656714               -0.05735647                0.00030943                0.00527818
               0.00151312                3.99915187                9.01094131                0.45398960               -0.03876067               -0.03470006                0.12979627               -0.00257024               -0.00138886                0.00066749
               1.00112551                3.99901157                9.01095684                0.01202192               -0.03011663               -0.04597834                0.13142288               -0.01330088                0.00627672               -0.01662278
               2.00091079                3.99867785                9.01111349                0.01225366               -0.01512317               -0.04749376                0.11719905               -0.01390611                0.02371243               -0.02249330
               3.00082305                3.99846486                9.01141062                0.01000001               -0.01205069               -0.04900319                0.11782453                0.00169275                0.01352533               -0.02606893
               4.00066977                3.99832419                9.01133952                0.01331845               -0.01850019               -0.04330324                0.11636454                0.00528747                0.00791363               -0.04300716
               5.00045304                3.99819943                9.01152130                0.01180004               -0.02607627               -0.03927773                0.12193857                0.00212600                0.02934426               -0.03766826
               6.00014825                3.99810690                9.01196585                0.01430744               -0.03437553               -0.03241524                0.13661554                0.00178499                0.04731904               -0.04486268
               6.99976553                3.99798345                9.01261124                0.01000000               -0.04635193               -0.02584383                0.15507426               -0.00597082                0.08200472               -0.02297294
               7.99922121                3.99776436                9.01386716                0.01000001               -0.07128283               -0.02078011                0.22891056               -0.01063155                0.09377409                0.05949862
               8.99833988                3.99764381                9.01487112                0.01000000               -0.09982493                0.03927886                0.22266379               -0.02460128                0.03794264                0.03401494
               9.99722471                3.99779639                9.01494244                0.25010731               -0.11151679                0.07483057                0.17184955               -0.04657172               -0.00103043                0.00746018
               0.00169451                4.99881740                9.01137129                0.58595811               -0.03985830               -0.03451990                0.13277068               -0.00261951               -0.00128061                0.00971993
               1.00129593                4.99854455                9.01129623                0.01000000               -0.02859687               -0.04597939                0.13341560               -0.00607334                0.00877580               -0.00853632
               2.00112258                4.99822365                9.01141612                0.01000000               -0.01272567               -0.05368903                0.11433516               -0.00201259                0.01488134               -0.00334593
               3.00104142                4.99796150                9.01140812                0.01254543               -0.01515641               -0.04870681                0.12690361                0.00383315                0.00969359               -0.03338428
               4.00081945                4.99789925                9.01136871                0.01180156               -0.02362582               -0.04265873                0.11979779                0.00776229                0.02675622               -0.03424177
               5.00056890                4.99783762                9.01172644                0.01504835               -0.02789941               -0.03890626                0.12136449                0.00353462                0.04860430               -0.02166437
               6.00026146                4.99776436                9.01227968                0.01000000               -0.03678301               -0.03625875                0.14088622               -0.00345478                0.07751656               -0.00391397
               6.99983324                4.99764953                9.01335082                0.01000000               -0.05625898               -0.02450485                0.18641530               -0.00930633                0.12907811                0.05327489
               7.99913628                4.99770542                9.01513917                0.01000000               -0.09093653               -0.00346507                0.24772794               -0.01061589                0.10286627                0.04085524
               8.99801451                4.99794940                9.01555019                0.01000001               -0.11494395                0.02713185                0.25116281               -0.00134578                0.03312996                0.01716986
               9.99683740                4.99837091                9.01552863                0.29391811               -0.11771085                0.05207064                0.21636395               -0.00922532               -0.00412474                0.02912538
               0.00200642                5.99846147                9.01185377                0.79418766               -0.04086335               -0.03722886                0.13632285               -0.00164042               -0.00132574                0.01197419
               1.00159779                5.99809198                9.01168534                0.01000000               -0.02764173               -0.04454224                0.13613221               -0.00859899                0.02707850               -0.00628733
               2.00145359                5.99760407                9.01208260                0.01687530               -0.01868337               -0.05168206                0.12764393               -0.00829564                0.02232105               -0.04298206
               3.00122412                5.99749073                9.01173770                0.01040054               -0.02523419               -0.04607389                0.11905034                0.01153447               -0.00457168               -0.01899724
               4.00094890                5.99747101                9.01159471                0.01431088               -0.02827469               -0.04520162                0.13033810                0.00945132                0.03476649               -0.02549499
               5.00065863                5.99742130                9.01208036                0.01000000               -0.03408333               -0.04566316                0.13866508                0.00214185                0.07624146               -0.01276459
               6.00026723                5.99738172                9.01294213                0.01000000               -0.05101388               -0.03824670                0.16616617                0.00132731                0.13443870                0.03517425
               6.99963835                5.99749336                9.01472283                0.01000000               -0.07791055               -0.01473648                0.22145154               -0.01041979                0.14636095                0.04448578
               7.99870902                5.99769506                9.01587291                0.01000000               -0.09954395                0.00695208                0.21928701               -0.02083874                0.08244663                0.02969721
               8.99764747                5.99818645                9.01632135                0.01000000               -0.12559233                0.04506423                0.24197056               -0.02119584                0.03822899                0.10719256
               9.99619718                5.99883780                9.01643099                0.35751586               -0.14502915                0.05433264                0.24675331                0.00317314               -0.00700329                0.15499470
               0.00240069                6.99807282                9.01233855                0.99755617               -0.04193304               -0.04003226                0.14010270               -0.00042787               -0.00120829                0.01217593
               1.00198135                6.99765371                9.01207966                0.32913870               -0.04213839               -0.04364706                0.13922210               -0.00377071               -0.01068636               -0.00647598
               2.00155792                6.99719001                9.01163103                0.01000000               -0.02880967               -0.04173576                0.13716170               -0.00433265                0.02814060               -0.05680975
               3.00140516                6.99704002                9.01215132                0.01263316               -0.02400102               -0.05011803                0.13877252                0.01279117                0.04241457               -0.02670538
               4.00107790                6.99699521                9.01200377                0.01000000               -0.03520660               -0.05537586                0.14645974                0.00758688                0.05579874               -0.01280090
               5.00070103                6.99692435                9.01270680                0.01000000               -0.04309722               -0.05518540                0.17529409               -0.00043112                0.12921485                0.01359756
               6.00021595                6.99699942                9.01426411                0.01000000               -0.06947633               -0.03931127                0.20727193                0.00713951                0.14774260                0.02522527
               6.99931150                6.99735480                9.01552777                0.01000000               -0.10947696               -0.00908428                0.21965051                0.01007996                0.12883527                0.02712632
               7.99802641                6.99784446                9.01678196                0.01023068               -0.14318233                0.02631565                0.24229471                0.01387312                0.13367001                0.06276601
               8.99644786                6.99885068                9.01840640                0.01682817               -0.12141242                0.03938384                0.20183140               -0.01011644                0.08206662                0.15185545
               9.99559816                6.99945756                9.01903426                0.47432220               -0.08496912               -0.01884898                0.17699169                0.00652441                0.04012658                0.17075227
               0.00283609                7.99766083                9.01282892                0.99999999               -0.04309114               -0.04211298                0.14391243                0.00026386               -0.00228603                0.01318220
               1.00240518                7.99721904                9.01246821                0.89416742               -0.04277363               -0.04355624                0.14234624               -0.00118949               -0.00586936               -0.00423384
               2.00198062                7.99676935                9.01203733                0.01000000               -0.03652182               -0.04234032                0.14029773                0.00639099                0.02382277               -0.01201591
               3.00167474                7.99648837                9.01227509                0.01000000               -0.03821543               -0.05699134                0.15200875                0.00882280                0.07414735               -0.06639718
               4.00121631                7.99636350                9.01272974                0.01000001               -0.05144743               -0.07153533                0.20129585                0.00828499                0.12368443               -0.00717959
               5.00064579                7.99631760                9.01389881                0.01000000               -0.06183665               -0.06266090                0.20758292                0.00104113                0.14408841               -0.00944365
               5.99997958                7.99659550                9.01483034                0.01000000               -0.08254406               -0.04053282                0.20585132                0.01334342                0.14109270               -0.01950196
               6.99899491                7.99731167                9.01639606                0.01027709               -0.12444847               -0.00050287                0.22753853                0.02864786                0.15073419                0.02145673
               7.99749061                7.99822138                9.01784892                0.01000000               -0.15814380                0.04428102                0.23570586                0.03544047                0.14505530                0.11831415
               8.99583204                7.99897413                9.01966016                0.43177965               -0.11883513               -0.03023835                0.24138993                0.00705297                0.06808262                0.06846618
               9.99511390                7.99846082                9.02005886                0.95868032               -0.07181325               -0.08604174                0.24063019               -0.05008104               -0.00153505                0.04694929
               0.00328953                8.99723056                9.01333386                0.99174924               -0.04404954               -0.04391434                0.14795021                0.00053255                0.00056186                0.01135579
               1.00284904                8.99678258                9.01290941                0.99999996               -0.04365618               -0.04400792                0.14580867               -0.00008641                0.00040275               -0.00068328
               2.00241641                8.99634321                9.01248723                0.09926093               -0.04307823               -0.04314901                0.14358513               -0.00084725                0.00103665               -0.00901050
               3.00198747                8.99590019                9.01208117                0.01000000               -0.05010220               -0.04999411                0.13631099               -0.00208552                0.09607812               -0.04274392
               4.00141437                8.99556451                9.01356911                0.01000000               -0.07488113               -0.06265891                0.21347585                0.00073156                0.14989695               -0.02432077
               5.00048985                8.99567113                9.01420285                0.01000001               -0.09628107               -0.05827637                0.22018837                0.01467442                0.13397951               -0.03740241
               5.99948875                8.99618877                9.01509207                0.01000000               -0.11156359               -0.04312115                0.22306885                0.02216933                0.14718974               -0.01727636
               6.99825858                8.99734474                9.01660228                0.01000001               -0.12079886               -0.01134486                0.20227591                0.04360618                0.20019913               -0.01880124
               7.99707277                8.99873008                9.01938277                0.45716918               -0.09545543               -0.00968417                0.23793379                0.04851584                0.11805074                0.08292756
               8.99634947                8.99824592                9.01968903                0.98142061               -0.07248051               -0.07242844                0.24076194                0.00132811               -0.00418767                0.00522594
               9.99562316                8.99773673                9.02001548                0.99305151               -0.07263132               -0.07218419                0.24029319                0.00030182               -0.00266306               -0.00471020
               0.00374270                9.99678254                9.01378808                0.99642264               -0.04518955               -0.04480187                0.15171228                0.00095053                0.01080564                0.00849328
               1.00329080                9.99633888                9.01337258                0.98984849               -0.04483196               -0.04436980                0.14940855                0.00036793                0.01046167                0.00004338
               2.00284606                9.99590637                9.01295969                0.68728291               -0.04395358               -0.04368341                0.14703691                0.00044487                0.01819132               -0.00822395
               3.00241173                9.99548849                9.01270605                0.21834346               -0.06930295               -0.04117091                0.14086284                0.00262285                0.09556426               -0.00242645
               4.00146000                9.99511032                9.01384689                0.25026753               -0.10483547               -0.04541901                0.16070764               -0.01225751                0.13504490               -0.04288593
               5.00031502                9.99515207                9.01448326                0.29393947               -0.13553241               -0.05190644                0.20535597                0.01365468                0.12354675               -0.03127193
               5.99874935                9.99573307                9.01539656                0.35751230               -0.14946488               -0.04556951                0.23326726                0.02269586                0.11864530               -0.01391499
               6.99732572                9.99708478                9.01649584                0.47665535               -0.05947998               -0.02599693                0.19087465                0.02144533                0.17166984               -0.03388652
               7.99755975                9.99802769                9.01928787                0.98653829               -0.02368873               -0.07023875                0.23376117                0.07073747                0.12848622                0.00235080
               8.99685195                9.99752556                9.01966664                0.99305275               -0.07107192               -0.07203576                0.23674586               -0.00028005                0.00578227                0.00312669
               9.99613831                9.99701714                9.01999422                0.99757741               -0.07136358               -0.07195928                0.23630844                0.00067330                0.00377896               -0.00298849
               0.00098167                0.00025258               10.01087363                0.90762874               -0.03345478               -0.03375154                0.10884845                0.00141428               -0.00359393                0.00186718
               1.00064712                0.00012393               10.01114098                0.63488255               -0.03481888               -0.03461380                0.11320363                0.00018005               -0.00582462               -0.00295745
               2.00028529               -0.00000392               10.01136358                0.39882946               -0.03933721               -0.03620841                0.11804572               -0.00128388               -0.00860770               -0.00116786
               2.99986038               -0.00018163               10.01156592                0.37227410               -0.04365945               -0.03706834                0.12294943               -0.00008694               -0.00373075               -0.00092421
               3.99941210               -0.00044722               10.01187137                0.44512673               -0.04333634               -0.03810223                0.12547595                0.00161380                0.00434722               -0.00030387
               4.99899365               -0.00078057               10.01223645                0.57321523               -0.04095720               -0.03909810                0.12753977                0.00120346                0.00641118                0.00003633
               5.99859296               -0.00113684               10.01259212                0.77128706               -0.03992257               -0.03994205                0.12994860                0.00073033                0.00410234                0.00023594
               6.99819520               -0.00148839               10.01291801                0.99925602               -0.03996277               -0.04076311                0.13263040                0.00048142                0.00104589                0.00023162
               7.99779370               -0.00182328               10.01321655                1.00000000               -0.04054310               -0.04162945                0.13527201                0.00027115               -0.00107447                0.00067996
               8.99738434               -0.00213805               10.01350316                0.99350974               -0.04147406               -0.04257482                0.13851793                0.00021023               -0.00170003                0.00011697
               9.99696422               -0.00243192               10.01379271                0.99836964               -0.04201150               -0.04350272                0.14170092               -0.00061624               -0.00172134               -0.00227955
               0.00112447                0.99991507               10.01129719                0.63729119               -0.03472938               -0.03534795                0.11438805               -0.00000248                0.00165276                0.00033273
               1.00077717                0.99977779               10.01156774                0.01000000               -0.03496177               -0.03515094                0.11862132               -0.00184035                0.00277819               -0.00777561
               2.00042523                0.99963400               10.01185777                0.01000000               -0.03480089               -0.03808380                0.12405948               -0.00017347                0.00140986               -0.01446706
               3.00008116                0.99944768               10.01209979                0.01000000               -0.03487620               -0.03995895                0.12948053                0.00053640                0.00285694               -0.01347892
               3.99972771                0.99917176               10.01243400                0.01061431               -0.03653293               -0.03735802                0.13220533                0.00236369                0.00883474               -0.02245504
               4.99935050                0.99882845               10.01281908                0.01000000               -0.03867671               -0.03422558                0.13429422                0.00048980                0.01017356               -0.02370847
               5.99895417                0.99846374               10.01319392                0.01000000               -0.04036344               -0.02480391                0.13666955                0.00245046                0.00794292               -0.01211937
               6.99854323                0.99810398               10.01353912                0.29869279               -0.04164660               -0.04177414                0.13929127                0.00005266                0.00536957                0.00085172
               7.99812124                0.99776043               10.01386324                0.85645165               -0.04262347               -0.04264523                0.14201476               -0.00031814                0.00325523                0.00170970
               8.99769076                0.99743620               10.01416648                0.99999996               -0.04346573               -0.04344662                0.14479569               -0.00035843                0.00141656                0.00009800
               9.99725193                0.99713305               10.01445516                0.99292019               -0.04388318               -0.04428146                0.14742970               -0.00111901                0.00056283               -0.00237501
               0.00125618                1.99954563               10.01168943                0.40277430               -0.03647893               -0.03857174                0.12097924               -0.00152270                0.00046669               -0.00836015
               1.00089139                1.99942091               10.01189546                0.01000000               -0.03221248               -0.03768388                0.12424945               -0.00580301               -0.00028695               -0.02120300
               2.00061193                1.99923440               10.01207754                0.01000001               -0.02790234               -0.04423222                0.13495626               -0.00179728                0.00765331               -0.02472811
               3.00033334                1.99901919               10.01237300                0.01000000               -0.02666585               -0.04567005                0.13445081                0.00519055                0.01050789               -0.03093817
               4.00007861                1.99880562               10.01254693                0.01121316               -0.03109351               -0.03932628                0.12713600                0.00834430                0.01167299               -0.03555923
               4.99971147                1.99853492               10.01292382                0.01000001               -0.03560837               -0.02953221                0.13140273                0.01607955                0.02826021               -0.04014927
               5.99936644                1.99836708               10.01354779                0.01531224               -0.04059562               -0.02128568                0.10797096                0.00090801                0.03490232               -0.02132390
               6.99889956                1.99767612               10.01417292                0.01000000               -0.04556650               -0.02616258                0.14666228               -0.00702061                0.02330007               -0.02606691
               7.99845511                1.99732382               10.01453188                0.01000000               -0.04475081               -0.01273512                0.14898342                0.00115191                0.00713963               -0.01029593
               8.99800454                1.99699302               10.01483168                0.11112334               -0.04534883               -0.04526557                0.15088202               -0.00079473                0.00356565               -0.00183707
               9.99754814                1.99668245               10.01511889                0.70228144               -0.04564057               -0.04578339                0.15302536               -0.00096482                0.00284704               -0.00685102
               0.00134345                2.99914363               10.01192782                0.37653542               -0.03711102               -0.03816881                0.12684958               -0.00093537               -0.00064259               -0.01142205
               1.00097234                2.99902411               10.01205382                0.01000000               -0.02762194               -0.04344459                0.12920831               -0.00960820                0.00639011               -0.02784217
               2.00079101                2.99874935               10.01231032                0.01000000               -0.01792932               -0.05014059                0.13404710               -0.00653788                0.01156182               -0.03286867
               3.00061375                2.99853428               10.01243529                0.01053184               -0.02060716               -0.05073184                0.14026921                0.00687306                0.01370491               -0.03666126
               4.00037886                2.99838523               10.01268932                0.01000001               -0.02515581               -0.04526487                0.13325575                0.01649105                0.02280539               -0.03897351
               5.00011063                2.99823781               10.01303266                0.01078729               -0.02738663               -0.03739304                0.14142021                0.01818639                0.03550674               -0.04888807
               5.99983113                2.99803802               10.01372588                0.01000000               -0.03322787               -0.03412253                0.14404538                0.00244263                0.04272731               -0.05059526
               6.99944608                2.99758072               10.01425431                0.01059327               -0.05018725               -0.00624311                0.14123620                0.00861699                0.03596919               -0.04853416
               7.99882739                2.99750573               10.01493816                0.01000000               -0.05649224               -0.00124417                0.22601206               -0.02286013                0.03354422                0.03868142
               8.99831623                2.99653089               10.01545787                0.01000000               -0.04868119                0.00923000                0.15244785               -0.04646328                0.01344658                0.05604802
               9.99785376                2.99621739               10.01569503                0.21806643               -0.04624687                0.01641687                0.15473247               -0.04378709                0.00141259                0.00390450
               0.00147651                3.99878225               10.01224007                0.45098913               -0.03830060               -0.03509049                0.12989181               -0.00250069               -0.00128986               -0.00027241
               1.00109351                3.99855202               10.01227029                0.01061752               -0.02527571               -0.04749600                0.13131163               -0.00827144               -0.00037777               -0.01937120
               2.00097100                3.99823159               10.01231169                0.01121509               -0.01292938               -0.05384987                0.13073555               -0.00483915                0.01773363               -0.03078844
               3.00083492                3.99800455               10.01253618                0.01000001               -0.01330448               -0.05466931                0.12856096                0.00963730                0.02129690               -0.03746287
               4.00070491                3.99790032               10.01268678                0.01150684               -0.02062541               -0.05104344                0.14607547                0.01666675                0.01958770               -0.04879348
               5.00042241                3.99778706               10.01289034                0.01000000               -0.03162653               -0.04806900                0.15891819                0.01413856                0.04137756               -0.04700377
               6.00007238                3.99768463               10.01356334                0.01233574               -0.04091088               -0.04292638                0.18010218                0.00921899                0.06997085               -0.04397503
               6.99960419                3.99755126               10.01440343                0.01000001               -0.05123175               -0.02362010                0.19444213               -0.00839494                0.12919645                0.00368131
               7.99904774                3.99729893               10.01658487                0.01655223               -0.06202887               -0.02087915                0.22389597               -0.01254011                0.12734088                0.08639168
               8.99836362                3.99717762               10.01728064                0.01000000               -0.08741705                0.03741546                0.19580716               -0.01782606                0.00346101                0.06788423
               9.99729940                3.99701079               10.01657746                0.25025791               -0.10642137                0.08341380                0.17653551               -0.04998181               -0.05491175                0.01430722
               0.00175390                4.99844182               10.01269892                0.58366423               -0.03963304               -0.03502524                0.13279616               -0.00246885               -0.00125976                0.00954211
               1.00135756                4.99807419               10.01263016                0.01000000               -0.02561028               -0.04670463                0.13347626               -0.00541708                0.00297331               -0.01024190
               2.00124169                4.99767235               10.01264289                0.01000001               -0.01099009               -0.05477375                0.12928613                0.00064365                0.01342254               -0.02386045
               3.00113776                4.99744090               10.01268344                0.01078986               -0.01559986               -0.05475086                0.13811540                0.01305152                0.01369826               -0.04414080
               4.00092969                4.99736437               10.01271111                0.01000000               -0.02643304               -0.05491479                0.15454447                0.01420549                0.03231794               -0.04077936
               5.00060910                4.99727643               10.01311054                0.01310938               -0.03391915               -0.05285468                0.16649676                0.00861209                0.06537107               -0.02634681
               6.00025131                4.99717949               10.01388678                0.01000000               -0.04726166               -0.05075076                0.17975422                0.00466457                0.11477038               -0.00082667
               6.99966387                4.99710832               10.01541616                0.01000001               -0.06505410               -0.03881279                0.25907670               -0.00009522                0.19117120                0.07741088
               7.99895023                4.99708814               10.01783184                0.01000000               -0.07080069               -0.00420348                0.21297301               -0.01201877                0.13279900                0.00900040
               8.99824785                4.99727920               10.01809916                0.01000000               -0.08812226                0.02782347                0.18664757               -0.00069138                0.00630055               -0.00560901
               9.99718778                4.99788566               10.01750613                0.29512143               -0.10600730                0.07236371                0.21183392                0.01662159               -0.02826027                0.05893871
               0.00216240                5.99808174               10.01321621                0.79243409               -0.04077631               -0.03751744                0.13623623               -0.00150027               -0.00136684                0.01236235
               1.00175464                5.99761793               10.01304680                0.01000000               -0.02726163               -0.04477453                0.13626221               -0.00354194                0.00197709               -0.00724312
               2.00161717                5.99713612               10.01294337                0.01531760               -0.01753490               -0.05247463                0.10600799               -0.00710603                0.00441851               -0.03644576
               3.00140394                5.99690954               10.01279087                0.01000000               -0.02318383               -0.04794140                0.12202279                0.00449615                0.02256629               -0.03555308
               4.00115349                5.99680203               10.01309430                0.01233909               -0.03122070               -0.06085416                0.16684257                0.01512787                0.06245408               -0.02543528
               5.00077952                5.99672997               10.01364610                0.01000000               -0.04098576               -0.06256159                0.17516858                0.00872640                0.10024648               -0.00100521
               6.00033378                5.99666961               10.01478567                0.01000000               -0.05429422               -0.04735537                0.20275529                0.00460458                0.17391340                0.04634349
               6.99969364                5.99677501               10.01702651                0.01000000               -0.08486426               -0.01956658                0.24881354                0.01418289                0.16745326                0.04703555
               7.99863649                5.99721487               10.01801446                0.01000000               -0.10706852                0.02243405                0.22412496                0.00145134                0.10327617                0.02125783
               8.99755227                5.99773409               10.01865841                0.01000000               -0.11087905                0.05075254                0.21922363               -0.03162758                0.05428977                0.04772062
               9.99641891                5.99845806               10.01887904                0.35959580               -0.11333605                0.04459877                0.22389058               -0.01878390                0.04022061                0.08886516
               0.00265153                6.99769148               10.01373900                0.99689680               -0.04191744               -0.04010262                0.14000110               -0.00034432               -0.00127242                0.01272921
               1.00223235                6.99717870               10.01347281                0.32567985               -0.04217848               -0.04372223                0.13945097               -0.00368636               -0.01124256               -0.00716386
               2.00180796                6.99662286               10.01300718                0.01000000               -0.03352897               -0.04680710                0.13808820                0.00045842                0.01541224               -0.03388814
               3.00156177                6.99648207               10.01327626                0.01059997               -0.01980695               -0.05328933                0.12787337                0.00719490                0.05712615               -0.02043613
               4.00141182                6.99614728               10.01369058                0.01000001               -0.03228636               -0.07320866                0.17844579                0.00734897                0.10000231                0.00475609
               5.00091605                6.99602519               10.01466697                0.01000001               -0.05567291               -0.07677217                0.23900640                0.03414686                0.17306396                0.02393834
               6.00029836                6.99623239               10.01637611                0.01000000               -0.07568873               -0.04037763                0.21978122                0.03069144                0.19137060                0.01610753
               6.99940227                6.99671699               10.01765040                0.01000000               -0.11390946                0.00815436                0.20764916                0.03150485                0.16753967                0.02093772
               7.99802017                6.99753682               10.01932624                0.01084538               -0.15150839                0.04157701                0.23108459                0.01857568                0.11949809                0.07697595
               8.99637210                6.99829425               10.01979540                0.01000001               -0.13280109                0.06451883                0.19170831               -0.04478724                0.05508028                0.13790162
               9.99536415                6.99877764               10.01992596                0.47688121               -0.10079545               -0.00063648                0.17389259               -0.03781923               -0.00079595                0.15048995
               0.00318106                7.99727969               10.01426712                0.99999999               -0.04315365               -0.04209185                0.14385174                0.00029393               -0.00235022                0.01420667
               1.00274952                7.99674348               10.01389314                0.89298959               -0.04290462               -0.04365897                0.14271824               -0.00126564               -0.00611429               -0.00451549
               2.00232297                7.99619997               10.01344457                0.01000000               -0.03630541               -0.04259202                0.14115104                0.00719508                0.03381363               -0.01318479
               3.00202342                7.99584375               10.01387275                0.01000000               -0.02828114               -0.06251400                0.18443407               -0.00032353                0.12470309               -0.08275763
               4.00175734                7.99533786               10.01507158                0.01656674               -0.03230291               -0.06916111                0.18325171               -0.01159364                0.15661307                0.00581269
               5.00137736                7.99519452               10.01605763                0.01000000               -0.07507681               -0.05838466                0.18966112                0.04021385                0.14238775               -0.00855304
               6.00025581                7.99586206               10.01694189                0.01000000               -0.11790290               -0.02865896                0.21807533                0.06695792                0.17300370               -0.03874047
               6.99901930                7.99693809               10.01860190                0.01089716               -0.14125329                0.01054139                0.21869322                0.06365283                0.17499481                0.02983704
               7.99743074                7.99804641               10.02017042                0.01000000               -0.18017941                0.06641669                0.22739169                0.03829070                0.16968196                0.10341682
               8.99541571                7.99902446               10.02206078                0.43187381               -0.13674966                0.00069535                0.24067855                0.00065352                0.07297442                0.12246448
               9.99469575                7.99844533               10.02244743                0.95900622               -0.07199614               -0.05220788                0.23904450               -0.06220304               -0.00228298                0.12535770
               0.00372983                8.99684964               10.01482095                0.99386158               -0.04430717               -0.04403517                0.14844943                0.00053199                0.00010682                0.01286528
               1.00328676                8.99630552               10.01437417                1.00000000               -0.04391190               -0.04424304                0.14659218               -0.00023621                0.00004295               -0.00046850
               2.00285159                8.99577102               10.01392729                0.10083877               -0.04346675               -0.04344096                0.14454199               -0.00107722               -0.00157368               -0.00998195
               3.00241742                8.99523179               10.01345259                0.01000000               -0.05112094               -0.05142253                0.13734731               -0.00462775                0.14137512               -0.05732699
               4.00182917                8.99476406               10.01587320                0.01000000               -0.06106514               -0.04461458                0.17704247               -0.01297485                0.19015712               -0.06557352
               5.00119612                8.99485750               10.01637866                0.01000000               -0.09676119               -0.02332110                0.15890852               -0.00224047                0.11744011               -0.05710777
               5.99989395                8.99565921               10.01719959                0.01000000               -0.13525691               -0.01965084                0.20479379                0.04456805                0.15909545               -0.02016823
               6.99849098                8.99692782               10.01899773                0.01000001               -0.15971675               -0.01302052                0.23464484                0.09466476                0.23375839               -0.00685078
               7.99669961                8.99886516               10.02175041                0.45668119               -0.12523678                0.00563079                0.23758524                0.05985497                0.11848133                0.08776099
               8.99598625                8.99830816               10.02210060                0.99999997               -0.07106329               -0.07095720                0.23653539                0.00016660               -0.00200348                0.00730619
               9.99527835                8.99773348               10.02242093                0.99203451               -0.07078981               -0.07047940                0.23498205                0.00065146               -0.00160465               -0.00235844
               0.00427993                9.99639899               10.01532299                0.99837297               -0.04565143               -0.04506499                0.15283374                0.00097325                0.01017639                0.01029579
               1.00382342                9.99585862               10.01487812                0.99274399               -0.04523875               -0.04469031                0.15054594                0.00027423                0.01013850                0.00053588
               2.00337516                9.99533116               10.01443414                0.69097098               -0.04427979               -0.04398651                0.14810261                0.00019037                0.01658155               -0.00908113
               3.00293782                9.99481530               10.01412337                0.21778802               -0.07515102               -0.04164916                0.14139292                0.00776020                0.09540709               -0.00182536
               4.00187214                9.99444556               10.01526703                0.25043029               -0.12502105               -0.03184963                0.14727548               -0.00006361                0.14440208               -0.11349546
               5.00043740                9.99472810               10.01636218                0.29514746               -0.13976414               -0.01294013                0.18070752               -0.02469810                0.13488367               -0.04412067
               5.99907685                9.99546904               10.01754202                0.35961268               -0.13653783               -0.01901654                0.20391644                0.01576948                0.15885456                0.00346946
               6.99770664                9.99667768               10.01915487                0.47923549               -0.09146756               -0.02501357                0.25048287                0.05606511                0.21057637               -0.00647647
               7.99724750                9.99815902               10.02161218                0.98626585               -0.05779616               -0.07061366                0.23303843                0.10117067                0.11354778                0.00159698
               8.99655072                9.99760532               10.02203811                0.99203567               -0.06946845               -0.07028378                0.23194129                0.00028364                0.00795265                0.00398708
               9.99585813                9.99703575               10.02236025                0.99758643               -0.06925874               -0.06977341                0.23038465                0.00102111                0.00491841               -0.00182027
               0.00065613               -0.00017647               11.01196455                0.91018017               -0.03344576               -0.03371756                0.10927888                0.00123477               -0.00374117                0.00248118
               1.00032167               -0.00035967               11.01227191                0.63691879               -0.03457580               -0.03451356                0.11302617                0.00022221               -0.00569599               -0.00304397
               1.99996461               -0.00053979               11.01253990                0.39734840               -0.03860514               -0.03585919                0.11730100               -0.00091441               -0.00791817               -0.00122038
               2.99954957               -0.00075659               11.01279350                0.36932915               -0.04301393               -0.03670659                0.12250168                0.00010062               -0.00351640               -0.00084440
               3.99910433               -0.00104567               11.01312739                0.44228457               -0.04331239               -0.03786833                0.12565007                0.00168363                0.00364549               -0.00021122
               4.99868332               -0.00139596               11.01351355                0.57102014               -0.04122659               -0.03901157                0.12786113                0.00130203                0.00580473                0.00009702
               5.99827980               -0.00176943               11.01389309                0.77000621               -0.04015823               -0.03993777                0.13024019                0.00081251                0.00388868                0.00027024
               6.99788015               -0.00214012               11.01424567                0.99935607               -0.04017189               -0.04078865                0.13290055                0.00053572                0.00103552                0.00026059
               7.99747636               -0.00249571               11.01457184                0.99999999               -0.04075880               -0.04166910                0.13564495                0.00034280               -0.00095552                0.00079453
               8.99706498               -0.00283294               11.01488829                0.99538290               -0.04150508               -0.04249867                0.13847040                0.00031972               -0.00150552                0.00000352
               9.99664626               -0.00314980               11.01520625                0.99994380               -0.04187172               -0.04332869                0.14121608               -0.00064865               -0.00136974               -0.00258570
               0.00085167                0.99948636               11.01243956                0.63917276               -0.03461240               -0.03504372                0.11413051                0.00006961                0.00204823                0.00149203
               1.00050555                0.99929520               11.01274898                0.01000000               -0.03488747               -0.03511274                0.11777486               -0.00138184                0.00372166               -0.00777198
               2.00015393                0.99910162               11.01309003                0.01000000               -0.03510188               -0.03598871                0.12259237                0.00281985                0.00318313               -0.01353647
               2.99980351                0.99887635               11.01338866                0.01000000               -0.03565344               -0.03703212                0.12834115                0.00593580                0.00381331               -0.01476272
               3.99944086                0.99857565               11.01375395                0.01000000               -0.03726472               -0.03426587                0.13180946                0.00703676                0.00845437               -0.02304680
               4.99905822                0.99821392               11.01416104                0.01000000               -0.03904270               -0.03124611                0.13417041                0.00455896                0.00968201               -0.02423949
               5.99866000                0.99783119               11.01455999                0.01000000               -0.04047837               -0.02360644                0.13662434                0.00275168                0.00774849               -0.01951018
               6.99824865                0.99745199               11.01493181                0.29588346               -0.04169016               -0.04176049                0.13932229                0.00019466                0.00537701                0.00127494
               7.99782620                0.99708760               11.01528424                0.85558143               -0.04267167               -0.04264822                0.14216386               -0.00010219                0.00330389                0.00196446
               8.99739522                0.99674207               11.01561513                0.99999996               -0.04347829               -0.04345483                0.14488503               -0.00010858                0.00140555                0.00006833
               9.99695663                0.99641691               11.01593007                0.99513901               -0.04385844               -0.04427651                0.14750325               -0.00106367                0.00061333               -0.00250473
               0.00103984                1.99912266               11.01289404                0.40104732               -0.03610722               -0.03770194                0.12002567               -0.00101799                0.00066857               -0.00672797
               1.00067877                1.99893808               11.01312997                0.01000000               -0.02999921               -0.03813756                0.12283874               -0.00272716                0.00208728               -0.02110454
               2.00043986                1.99874044               11.01338796                0.01000001               -0.02422562               -0.04098029                0.12939426                0.00572595                0.00916298               -0.02551368
               3.00019426                1.99850277               11.01369971                0.01000000               -0.02661811               -0.04155949                0.13301013                0.01370305                0.00932483               -0.03205111
               3.99990749                1.99826901               11.01392020                0.01042676               -0.03376516               -0.03648289                0.14215164                0.01712468                0.01148840               -0.03934945
               4.99951895                1.99797911               11.01432066                0.01000001               -0.04053670               -0.02675142                0.14560464                0.02069397                0.02449340               -0.04177647
               5.99909676                1.99775844               11.01483143                0.01412767               -0.04456556               -0.02229944                0.13824572                0.00141149                0.03859028               -0.03110778
               6.99862764                1.99702467               11.01563891                0.01000001               -0.04562613               -0.02433875                0.14653606               -0.01192706                0.03092360               -0.02461776
               7.99818424                1.99665132               11.01602056                0.01339198               -0.04470764               -0.01229687                0.14887513               -0.00381529                0.00671688                0.04420298
               8.99773349                1.99629796               11.01634252                0.10989359               -0.04544651               -0.04531288                0.15122932               -0.00156293                0.00316848               -0.00507592
               9.99727531                1.99596467               11.01665380                0.70342742               -0.04581816               -0.04615481                0.15371190                0.00023411                0.00251482               -0.01017413
               0.00120048                2.99873232               11.01319345                0.37341414               -0.03672502               -0.03736676                0.12620855               -0.00063481               -0.00046853               -0.01090285
               1.00083323                2.99853244               11.01334133                0.01000000               -0.02483635               -0.04451360                0.12831312               -0.00413647                0.00730257               -0.02884558
               2.00070375                2.99828201               11.01363847                0.01000000               -0.01421138               -0.05054643                0.13339197                0.00362098                0.01567822               -0.03456652
               3.00054900                2.99804516               11.01386649                0.01000000               -0.01983716               -0.05176535                0.14615557                0.01218063                0.01675253               -0.04073012
               4.00030701                2.99784599               11.01415381                0.01000001               -0.02831647               -0.04712420                0.15284309                0.02168057                0.02504039               -0.04277729
               4.99998267                2.99767889               11.01455867                0.01000000               -0.03321658               -0.03988208                0.16083689                0.02121478                0.04215213               -0.04443526
               5.99964268                2.99738520               11.01527445                0.01000000               -0.04327217               -0.03459735                0.16186854                0.01120692                0.04236643               -0.03191734
               6.99911723                2.99696522               11.01580625                0.01000000               -0.05830383               -0.00647170                0.16210277                0.00783741                0.08388483               -0.02405656
               7.99847660                2.99684166               11.01757728                0.01728639               -0.05333075               -0.00264031                0.17686898               -0.02114112                0.03444122                0.03900779
               8.99805061                2.99583582               11.01696773                0.01000001               -0.04243484                0.00311226                0.14682627               -0.03324113               -0.04312693                0.05036845
               9.99762790                2.99549382               11.01722612                0.21740008               -0.04227094                0.01533793                0.14926335               -0.02132360               -0.00038257                0.01644463
               0.00142689                3.99837532               11.01353915                0.44797533               -0.03805488               -0.03501080                0.12985969               -0.00243335               -0.00123725               -0.00084132
               1.00104634                3.99804780               11.01358307                0.01000000               -0.02136638               -0.04846238                0.13124858               -0.00338077                0.00401059               -0.02130971
               2.00099956                3.99772951               11.01372820                0.01042864               -0.00862241               -0.05836243                0.14524346                0.00268279                0.01974074               -0.03618980
               3.00087389                3.99746746               11.01398184                0.01000001               -0.01460961               -0.06105805                0.15254219                0.01475921                0.02809506               -0.04372420
               4.00070737                3.99732653               11.01426103                0.01000001               -0.02349296               -0.05849252                0.17032266                0.02228518                0.03433685               -0.04933195
               5.00040403                3.99718147               11.01469966                0.01000000               -0.03363999               -0.05619874                0.19179755                0.02289754                0.06172797               -0.04228004
               6.00003457                3.99706649               11.01556789                0.01051947               -0.05380509               -0.04298559                0.19898869                0.01611697                0.08326221               -0.03658134
               6.99932793                3.99689524               11.01650008                0.01000001               -0.05718774               -0.01952755                0.24759019                0.00632014                0.12894691                0.07128886
               7.99889082                3.99659852               11.01834508                0.01529852               -0.04557128               -0.01929129                0.15619034                0.00488191                0.10989012                0.01850600
               8.99841651                3.99636021               11.01878726                0.01000000               -0.06789923                0.03118168                0.13293663                0.00442618                0.01001119                0.01982737
               9.99753283                3.99627143               11.01847315                0.25014432               -0.08836752                0.08771417                0.21826966               -0.01736124               -0.01032495                0.02944057
               0.00180685                4.99803210               11.01402721                0.58113230               -0.03954216               -0.03533385                0.13287307               -0.00234023               -0.00126782                0.00927140
               1.00141142                4.99756320               11.01396576                0.01000000               -0.02345498               -0.04716696                0.13369965               -0.00267532                0.00366832               -0.01170037
               2.00133775                4.99711477               11.01400185                0.01000001               -0.00821303               -0.06093200                0.14173090                0.00295627                0.01777463               -0.03542298
               3.00124716                4.99682400               11.01417043                0.01000000               -0.01495223               -0.06403085                0.15687182                0.01059952                0.03122919               -0.05633570
               4.00103870                4.99667614               11.01445960                0.01000000               -0.02732541               -0.06718445                0.18527717                0.01831514                0.05333783               -0.04090998
               5.00070066                4.99655492               11.01505637                0.01124274               -0.03937260               -0.06683513                0.20646277                0.02087495                0.08207772               -0.02813890
               6.00025125                4.99652549               11.01587476                0.01000001               -0.04945255               -0.06236151                0.21874087                0.01751356                0.17008399                0.00239688
               6.99971161                4.99657467               11.01853236                0.01710469               -0.05709935               -0.03477063                0.24790260                0.01805176                0.17806586                0.10170812
               7.99910926                4.99645583               11.01939863                0.01000000               -0.06226912                0.00136505                0.14099870                0.00683097                0.05731045                0.03543419
               8.99846622                4.99645945               11.01928314                0.01000000               -0.08255130                0.05422037                0.13999640                0.01222222                0.03869221                0.01947815
               9.99745824                4.99724810               11.01976531                0.29582162               -0.10079854                0.09619241                0.20039880                0.03023932                0.05614878                0.05606588
               0.00231790                5.99766865               11.01457849                0.79041049               -0.04077244               -0.03778030                0.13625912               -0.00138015               -0.00141823                0.01256506
               1.00191017                5.99710446               11.01441058                0.01000000               -0.02600032               -0.04495513                0.13656470               -0.00404392               -0.00342377               -0.00814136
               2.00179789                5.99651087               11.01420276                0.01413291               -0.01928298               -0.05518592                0.13465433               -0.00963240                0.00382122               -0.04439033
               3.00152451                5.99618685               11.01417816                0.01000000               -0.02275681               -0.06372879                0.15033384                0.00445445                0.04810672               -0.04849382
               4.00134275                5.99598284               11.01493156                0.01052276               -0.02761652               -0.07815423                0.18617251                0.01532242                0.08800453               -0.03133409
               5.00097218                5.99584477               11.01558374                0.01000001               -0.04888308               -0.07816650                0.21147310                0.03062753                0.12323495                0.03153732
               6.00036509                5.99581926               11.01699723                0.01000001               -0.06067782               -0.06800676                0.26927251                0.05818693                0.22427248                0.06426339
               6.99975862                5.99619982               11.01969910                0.01000000               -0.06112194               -0.01882501                0.20244069                0.04035577                0.18648338               -0.00372145
               7.99914265                5.99662582               11.02035541                0.01000000               -0.09449709                0.03860920                0.16887948                0.02034551                0.08604793                0.03394344
               8.99786868                5.99744462               11.02070582                0.01000000               -0.12911686                0.08734448                0.20491809                0.00264889                0.05499063                0.11095909
               9.99656032                5.99819528               11.02090880                0.36111513               -0.13083676                0.08254363                0.20901471               -0.03178932                0.03033951                0.10551159
               0.00290760                6.99727650               11.01513857                0.99619682               -0.04192814               -0.04028176                0.13996087               -0.00028264               -0.00130943                0.01317072
               1.00248832                6.99666409               11.01486868                0.32255532               -0.04224432               -0.04385437                0.13979371               -0.00350895               -0.01163395               -0.00780769
               2.00206272                6.99601105               11.01439280                0.01000001               -0.03120200               -0.04626631                0.13902242               -0.01176420                0.01753463               -0.03048403
               3.00186428                6.99554942               11.01470879                0.01000000               -0.01877450               -0.07649825                0.14855687                0.00596430                0.08632149                0.00142143
               4.00168723                6.99511305               11.01557269                0.01000001               -0.01937498               -0.08428543                0.21721094                0.01315496                0.16928161               -0.02898246
               5.00147678                6.99499159               11.01748693                0.01711130               -0.03136467               -0.07049607                0.21627454                0.03516791                0.19051209                0.01243022
               6.00105993                6.99516536               11.01865973                0.01000000               -0.08823091               -0.04110309                0.19168297                0.08684354                0.14744833                0.03341842
               6.99971216                6.99619817               11.01968075                0.01000000               -0.13942773                0.01806324                0.21416427                0.07851581                0.17997027               -0.00219657
               7.99827138                6.99722802               11.02140365                0.01122204               -0.13812121                0.06198607                0.20890099                0.01454425                0.15242284                0.07405399
               8.99694974                6.99820634               11.02224056                0.01000000               -0.14751252                0.08368007                0.23510391               -0.05916052                0.08347737                0.17809303
               9.99532113                6.99889897               11.02251211                0.47894961               -0.16286116                0.01388611                0.25385718               -0.04400518                0.02386809                0.20036066
               0.00353704                7.99686301               11.01570596                0.99999999               -0.04316049               -0.04222507                0.14382181                0.00031819               -0.00243762                0.01487065
               1.00310544                7.99622738               11.01532258                0.89234604               -0.04298829               -0.04379318                0.14312214               -0.00111179               -0.00637584               -0.00490266
               2.00267728                7.99558554               11.01486035                0.01340278               -0.02818245               -0.04285247                0.14202231               -0.01633504                0.06780932               -0.01434906
               3.00254179                7.99465688               11.01596377                0.01729573               -0.02567968               -0.05231925                0.14160772               -0.01418116                0.10002788               -0.07545756
               4.00216369                7.99429713               11.01639477                0.01531152               -0.04592768               -0.05277314                0.13061622                0.01910891                0.10843054               -0.01021254
               5.00162324                7.99443485               11.01769204                0.01000000               -0.06341521               -0.03835784                0.15444061                0.03677750                0.15004469               -0.07227527
               6.00089538                7.99499720               11.01919185                0.01000000               -0.11784794                0.00099631                0.16228138                0.05589475                0.18025976               -0.04212061
               6.99926628                7.99656109               11.02076992                0.01127674               -0.17350083                0.02282982                0.21615954                0.07695518                0.17411695                0.04821244
               7.99742536                7.99786554               11.02239675                0.01000000               -0.21258815                0.09077640                0.22052864                0.03126390                0.18045084                0.12430041
               8.99501452                7.99911822               11.02447373                0.43221766               -0.15652109                0.01041864                0.24009110               -0.03517000                0.08325594                0.12220531
               9.99429494                7.99847300               11.02483975                0.95944425               -0.07195726               -0.05611153                0.23755896               -0.08305841               -0.00182631                0.11690849
               0.00418523                8.99643199               11.01630285                0.99572673               -0.04416786               -0.04393160                0.14790441                0.00056977               -0.00006150                0.01355446
               1.00374355                8.99578823               11.01584126                1.00000000               -0.04393597               -0.04428382                0.14675531               -0.00005073               -0.00003783               -0.00057093
               2.00330651                8.99515400               11.01537807                0.10215840               -0.04372414               -0.04372430                0.14552714               -0.00150173               -0.00461573               -0.01079417
               3.00286907                8.99450303               11.01482812                0.01000001               -0.05075370               -0.02732267                0.13536158               -0.00756070                0.13270481               -0.09468250
               4.00229144                8.99405759               11.01710996                0.01000000               -0.06784044               -0.01221915                0.09590677               -0.01665315                0.17079041               -0.04958603
               5.00151226                8.99422443               11.01738102                0.01000000               -0.11199255               -0.00661145                0.12139366                0.01210811                0.13280209               -0.04245044
               6.00005159                8.99518528               11.01918794                0.01000000               -0.15646664                0.00602058                0.19662689                0.03343558                0.20500251               -0.02961980
               6.99838293                8.99665476               11.02129517                0.01000000               -0.18560307                0.00399418                0.22333468                0.10295375                0.23488487                0.01314183
               7.99633953                8.99904355               11.02413448                0.45645625               -0.13720249                0.02352778                0.23742428                0.06410252                0.12285190                0.09785111
               8.99563888                8.99841471               11.02441974                0.99999997               -0.06945647               -0.06939706                0.23183004               -0.00091927               -0.00368630                0.00551147
               9.99495040                8.99777674               11.02471512                0.99107129               -0.06884824               -0.06854522                0.22903088                0.00107604               -0.00239113               -0.00420972
               0.00483597                9.99598438               11.01684475                0.99994714               -0.04535458               -0.04476160                0.15171842                0.00080572                0.01028472                0.01102759
               1.00438242                9.99534170               11.01638350                0.99497335               -0.04517635               -0.04465294                0.15048108                0.00022063                0.01046763                0.00061913
               2.00393244                9.99471106               11.01592174                0.69392063               -0.04477187               -0.04429412                0.14918433                0.00102898                0.01401834               -0.00975903
               3.00348698                9.99411043               11.01553391                0.21722903               -0.09116062               -0.03926074                0.13930049                0.02887578                0.09922909               -0.00327008
               4.00210923                9.99405275               11.01679240                0.25032862               -0.13746375               -0.00048431                0.15411824               -0.00861163                0.20614271               -0.09074420
               5.00073771                9.99430262               11.01809741                0.29585130               -0.14877345                0.00781888                0.15946281               -0.02421215                0.16812363                0.02324605
               5.99913376                9.99511761               11.01947489                0.36114343               -0.16353096               -0.00676690                0.19405108                0.02513468                0.16988872               -0.00519530
               6.99746709                9.99664097               11.02150550                0.48130377               -0.10931464               -0.00137919                0.22921721                0.06934010                0.19834218                0.01602183
               7.99694747                9.99833610               11.02394863                0.98612990               -0.06020790               -0.07074502                0.23240318                0.11525915                0.11265297                0.00195653
               8.99626293                9.99773028               11.02430547                0.99107244               -0.06775321               -0.06844353                0.22652995                0.00070518                0.00599258                0.00320998
               9.99559240                9.99710210               11.02460191                0.99756881               -0.06705301               -0.06746480                0.22368683                0.00138221                0.00388208               -0.00265351
               0.00029214               -0.00064781               12.01305921                0.91194078               -0.03342790               -0.03367609                0.10959387                0.00111776               -0.00388811                0.00301649
               0.99995786               -0.00089110               12.01340150                0.63866566               -0.03434005               -0.03446188                0.11291960                0.00028940               -0.00557485               -0.00312609
               1.99960533               -0.00112859               12.01370960                0.39654233               -0.03776499               -0.03562084                0.11672653               -0.00049990               -0.00693947               -0.00127411
               2.99920256               -0.00138885               12.01401595                0.36697386               -0.04201866               -0.03649354                0.12197630                0.00029645               -0.00266294               -0.00079543
               3.99876496               -0.00170456               12.01438437                0.43965409               -0.04292555               -0.03774306                0.12568372                0.00170727                0.00338493               -0.00014863
               4.99834405               -0.00207361               12.01479368                0.56876511               -0.04131725               -0.03898354                0.12812943                0.00137028                0.00523523                0.00013541
               5.99793862               -0.00246525               12.01519692                0.76857130               -0.04034461               -0.03995631                0.13051640                0.00088397                0.00357787                0.00029627
               6.99753715               -0.00285546               12.01557602                0.99942136               -0.04033253               -0.04083066                0.13313901                0.00058945                0.00093066                0.00027944
               7.99713197               -0.00323219               12.01592945                0.99999999               -0.04086673               -0.04168115                0.13582337                0.00039425               -0.00098654                0.00086253
               8.99671982               -0.00359165               12.01627257                0.99701430               -0.04155262               -0.04250153                0.13844488                0.00036840               -0.00150597                0.00004467
               9.99630091               -0.00393127               12.01661703                1.00000000               -0.04189059               -0.04333207                0.14108163               -0.00062286               -0.00146227               -0.00261947
               0.00054660                0.99901543               12.01357980                0.64077406               -0.03454568               -0.03475062                0.11394599                0.00016262                0.00239025                0.00253953
               1.00020114                0.99876428               12.01392324                0.01000000               -0.03486933               -0.03512190                0.11719048               -0.00094398                0.00458693               -0.00772765
               1.99984921                0.99851520               12.01430962                0.01000000               -0.03538180               -0.03478566                0.12150338                0.00510222                0.00520778               -0.01328768
               2.99949350                0.99824622               12.01466662                0.01000001               -0.03623971               -0.03554055                0.12732173                0.00939269                0.00554947               -0.01483521
               3.99912442                0.99791801               12.01507019                0.01000000               -0.03777057               -0.03383372                0.13144748                0.01064028                0.00873421               -0.01835697
               4.99873809                0.99753655               12.01550248                0.01000000               -0.03930180               -0.03123088                0.13414381                0.00816214                0.00943125               -0.01861815
               5.99833838                0.99713519               12.01592640                0.01000000               -0.04057877               -0.02521409                0.13669611                0.00405310                0.00764079               -0.01688923
               6.99792652                0.99673623               12.01632557                0.29347487               -0.04171904               -0.04176039                0.13943690                0.00037800                0.00545037                0.00166514
               7.99750400                0.99635100               12.01670652                0.85522959               -0.04267365               -0.04264855                0.14226912                0.00004891                0.00337452                0.00213594
               8.99707304                0.99598334               12.01706418                0.99999996               -0.04348454               -0.04347262                0.14493674               -0.00003709                0.00138136                0.00005699
               9.99663431                0.99563541               12.01740523                0.99680876               -0.04387356               -0.04429035                0.14754779               -0.00104481                0.00053633               -0.00264492
               0.00079767                1.99865717               12.01408995                0.40000018               -0.03584677               -0.03674795                0.11924830               -0.00048510                0.00084131               -0.00486879
               1.00043920                1.99840646               12.01435223                0.01000000               -0.02861129               -0.03850894                0.12178139               -0.00046231                0.00360458               -0.02051302
               2.00022545                1.99817569               12.01466543                0.01000001               -0.02258026               -0.03987055                0.12758828                0.01120401                0.01060870               -0.02629684
               2.99998760                1.99790034               12.01503320                0.01000000               -0.02690072               -0.04043277                0.13419920                0.01915097                0.01294853               -0.02978500
               3.99968743                1.99761877               12.01538996                0.01000000               -0.03487445               -0.03645741                0.14688837                0.02322541                0.01616762               -0.03471922
               4.99929011                1.99730177               12.01583591                0.01000001               -0.04337166               -0.02832251                0.15203543                0.02533277                0.02250539               -0.03413961
               5.99882000                1.99703047               12.01631270                0.01326797               -0.04806046               -0.02359857                0.15171057                0.00500294                0.03629257               -0.02358682
               6.99832890                1.99630933               12.01710365                0.01000000               -0.04670813               -0.02489042                0.14643590               -0.01106050                0.02863468               -0.01614274
               7.99788584                1.99591484               12.01750938                0.01229616               -0.04471155               -0.01948191                0.14889837                0.00401514                0.00646268                0.01159753
               8.99743467                1.99553890               12.01785626                0.10031179               -0.04549796               -0.04449075                0.15143498               -0.00000546                0.00299303               -0.01264576
               9.99697588                1.99518292               12.01819313                0.70409737               -0.04587929               -0.04542358                0.15401256               -0.00084710                0.00245285               -0.01772116
               0.00103832                2.99828047               12.01445199                0.37086616               -0.03649397               -0.03627542                0.12548654               -0.00032377               -0.00033360               -0.00973446
               1.00067338                2.99799411               12.01462008                0.01000001               -0.02294501               -0.04525324                0.12748109               -0.00086087                0.00934730               -0.02882551
               2.00057941                2.99771779               12.01497816                0.01000000               -0.01199619               -0.05156386                0.13464423                0.00925290                0.02229391               -0.03278406
               3.00043345                2.99743756               12.01535841                0.01000000               -0.01959591               -0.05371040                0.14884905                0.01737321                0.02542650               -0.03698704
               4.00018750                2.99718886               12.01574618                0.01000001               -0.03002032               -0.05054343                0.16362995                0.02594640                0.03114646               -0.03437385
               4.99983305                2.99697010               12.01624940                0.01000000               -0.03783088               -0.04290088                0.17174679                0.02671777                0.04468533               -0.02957902
               5.99943088                2.99666322               12.01696325                0.01000000               -0.05060545               -0.03388943                0.16901062                0.01927628                0.04318865               -0.01298839
               6.99882094                2.99623842               12.01749637                0.01000000               -0.05380741               -0.00292001                0.17107687                0.01875927                0.05550506                0.03483305
               7.99835473                2.99596136               12.01847554                0.01607676               -0.05080405               -0.00335669                0.11558546               -0.00361852                0.02708260                0.02693280
               8.99780486                2.99509352               12.01839439                0.01694775               -0.05127025               -0.01400767                0.15682758               -0.01166604               -0.01550118                0.02526129
               9.99732933                2.99472694               12.01868030                0.21693635               -0.04755292               -0.00612555                0.15974375                0.00060426               -0.00285450                0.05598570
               0.00136392                3.99793167               12.01483727                0.44516119               -0.03792537               -0.03462792                0.12970347               -0.00237016               -0.00121926               -0.00096094
               1.00098467                3.99750140               12.01489526                0.01000000               -0.01984360               -0.04907160                0.13116933               -0.00021642                0.01203992               -0.02244981
               2.00096705                3.99714442               12.01521656                0.01000000               -0.00603388               -0.06142284                0.14814148                0.00689158                0.02992507               -0.03729735
               3.00086399                3.99682613               12.01558703                0.01000001               -0.01466141               -0.06598489                0.16513443                0.01673094                0.04077956               -0.04367213
               4.00067382                3.99660790               12.01609323                0.01000000               -0.02569393               -0.06566116                0.18367746                0.02703122                0.05103062               -0.04123326
               5.00035011                3.99644375               12.01672629                0.01000000               -0.03683084               -0.05702634                0.19791394                0.03736165                0.06597855               -0.02634306
               5.99993720                3.99635268               12.01754311                0.01000000               -0.04720850               -0.04325636                0.19340220                0.02766523                0.12036542               -0.01116685
               6.99940594                3.99625093               12.01935523                0.01677541               -0.04894191               -0.01474767                0.20590578                0.01877058                0.11164542                0.07464244
               7.99895837                3.99584771               12.01970868                0.01420041               -0.04850828               -0.00874337                0.12924523               -0.00006320                0.03113456                0.03460817
               8.99843578                3.99525875               12.01993937                0.01000000               -0.06186149                0.03283388                0.12027340                0.00314335                0.05028895                0.02340498
               9.99772114                3.99506041               12.02094286                0.24991067               -0.07146398                0.09221942                0.15798058               -0.01897868                0.09482685                0.01510471
               0.00185144                4.99758791               12.01535638                0.57853886               -0.03951477               -0.03549892                0.13293010               -0.00222703               -0.00130505                0.00907086
               1.00145630                4.99701267               12.01530415                0.01000000               -0.02294654               -0.04746114                0.13397435               -0.00106775                0.00999210               -0.01282276
               2.00139251                4.99648933               12.01547751                0.01000001               -0.00758537               -0.06435280                0.14898110                0.00320801                0.03048704               -0.04337339
               3.00130459                4.99611786               12.01582087                0.01000000               -0.01410055               -0.07124175                0.16896184                0.00797980                0.05041164               -0.06243189
               4.00111050                4.99587564               12.01641666                0.01000000               -0.02345474               -0.07728194                0.19277604                0.02729459                0.07343677               -0.04257362
               5.00083549                4.99582957               12.01723980                0.01000000               -0.04667483               -0.07567960                0.20436292                0.03754446                0.09788886               -0.01947025
               6.00017701                4.99579809               12.01826160                0.01000001               -0.05670868               -0.05913861                0.26164557                0.04402776                0.16924627                0.05985894
               6.99970132                4.99594347               12.02037421                0.01577035               -0.04156789               -0.03493727                0.16141199                0.03237955                0.13607485                0.01995257
               7.99934565                4.99578649               12.02065181                0.01000000               -0.05231511                0.00205030                0.11803291                0.00995436                0.04546386                0.01491700
               8.99865502                4.99575020               12.02089908                0.01000000               -0.09996109                0.08685509                0.16522074                0.02238745                0.05339597                0.07107919
               9.99734643                4.99657132               12.02151411                0.29618010               -0.13085924                0.13805400                0.18481083                0.02704291                0.04753994                0.03770735
               0.00246985                5.99722169               12.01594139                0.78823382               -0.04079611               -0.03802424                0.13633185               -0.00126732               -0.00147932                0.01273115
               1.00206189                5.99655218               12.01577810                0.01000000               -0.02719162               -0.04510590                0.13696403               -0.00375876               -0.00042888               -0.00886784
               2.00192602                5.99585736               12.01563645                0.01327311               -0.02123061               -0.05668675                0.14666477               -0.01124253                0.01202366               -0.05102200
               3.00163728                5.99540130               12.01579755                0.01000000               -0.02090086               -0.06964895                0.16340798                0.00043086                0.06951267               -0.05584826
               4.00150800                5.99506226               12.01681775                0.01000000               -0.02293644               -0.08856103                0.18314278                0.02188366                0.11533258               -0.00288123
               5.00117855                5.99493016               12.01787556                0.01000001               -0.04020685               -0.08320377                0.24905508                0.04557001                0.18869748                0.00692295
               6.00070386                5.99516991               12.02017112                0.01643951               -0.05567112               -0.05459767                0.24205576                0.07492614                0.18886125                0.04090578
               7.00006513                5.99555218               12.02107533                0.01000000               -0.06765717               -0.01706169                0.13066306                0.06376231                0.09384106                0.01994646
               7.99935072                5.99588871               12.02139205                0.01000000               -0.09832161                0.05950341                0.13306990                0.03034159                0.10506849                0.08229219
               8.99809869                5.99699585               12.02275677                0.01000000               -0.13654879                0.11690027                0.19881240                0.01054731                0.09130080                0.13804053
               9.99661974                5.99782149               12.02305934                0.36216623               -0.14789494                0.11412877                0.21756110               -0.01983670                0.02577165                0.13902828
               0.00316512                6.99682742               12.01653822                0.99547564               -0.04196704               -0.04044332                0.13996913               -0.00022590               -0.00135083                0.01355230
               1.00274545                6.99611056               12.01626869                0.31976698               -0.04232884               -0.04396630                0.14021652               -0.00330504               -0.01196618               -0.00832880
               2.00231854                6.99535560               12.01578763                0.01000000               -0.03185701               -0.04648210                0.13990717               -0.01368644                0.02435208               -0.03518183
               3.00210831                6.99472488               12.01624740                0.01000000               -0.01496142               -0.05930160                0.15545391               -0.01994537                0.12910170               -0.03049702
               4.00201931                6.99410442               12.01803480                0.01678092               -0.02345319               -0.07329597                0.17895682                0.00651517                0.14654346               -0.03081164
               5.00163925                6.99416550               12.01899246                0.01577691               -0.04829046               -0.05376185                0.14687520                0.05021709                0.11213652                0.00115154
               6.00105350                6.99470614               12.02020977                0.01000000               -0.06907411               -0.03392347                0.15218809                0.07579958                0.14036097               -0.03929980
               7.00025776                6.99560223               12.02193369                0.01000000               -0.12723453                0.03678658                0.16344937                0.07510180                0.18279017                0.03825546
               7.99850881                6.99697656               12.02350426                0.01145044               -0.16622875                0.09564361                0.20855428                0.02356003                0.13986807                0.13290903
               8.99693319                6.99808821               12.02449748                0.01000000               -0.16052022                0.11467706                0.22166190               -0.07917628                0.07007519                0.19580853
               9.99529841                6.99885390               12.02500310                0.48054106               -0.16347779                0.03795039                0.24125767               -0.05805893                0.03731236                0.20260435
               0.00389907                7.99641282               12.01714355                0.99999999               -0.04314529               -0.04227461                0.14367025                0.00033674               -0.00254925                0.01538535
               1.00346762                7.99567285               12.01675558                0.89211703               -0.04305548               -0.04386848                0.14344631               -0.00098836               -0.00667033               -0.00525596
               2.00303796                7.99492772               12.01628502                0.01230677               -0.04890346               -0.04309273                0.14285824               -0.00018572                0.03357575               -0.01530756
               3.00248955                7.99421527               12.01670490                0.01608592               -0.04201353               -0.04784420                0.10027568               -0.00500271                0.07953820               -0.06321968
               4.00219769                7.99359634               12.01768391                0.01421325               -0.04541877               -0.03648511                0.13055166                0.01562119                0.12092236               -0.07157920
               5.00158117                7.99385492               12.01914645                0.01000000               -0.07072850               -0.02811897                0.12472550                0.05150156                0.12216257               -0.06247557
               6.00078312                7.99449144               12.02018752                0.01000000               -0.11422187                0.00388199                0.12785380                0.07296665                0.18278402                0.00264299
               6.99929674                7.99628791               12.02292509                0.01150565               -0.17235848                0.04264185                0.20982679                0.06472637                0.21728714                0.05129362
               7.99733595                7.99780159               12.02458100                0.01000000               -0.23294517                0.11468681                0.21667875                0.02623728                0.18520763                0.14404670
               8.99463783                7.99928939               12.02686260                0.43247088               -0.17043864                0.02492226                0.23818614               -0.04111981                0.09501618                0.13177386
               9.99392718                7.99858050               12.02719861                0.95965747               -0.07106541               -0.04833866                0.23504730               -0.10382119               -0.00162444                0.11341408
               0.00465179                8.99598193               12.01777904                0.99735054               -0.04410101               -0.04385406                0.14739625                0.00057905               -0.00008443                0.01405043
               1.00421078                8.99523319               12.01730927                0.99999999               -0.04396907               -0.04431633                0.14686057               -0.00000137               -0.00011416               -0.00071925
               2.00377241                8.99449374               12.01683784                0.09750624               -0.04355754               -0.04395445                0.14632628                0.00009817               -0.01065361               -0.01139478
               3.00333963                8.99376800               12.01615982                0.01701723               -0.05401660               -0.04384740                0.14264444                0.02215886                0.09433731               -0.06597811
               4.00269208                8.99337472               12.01779133                0.01000000               -0.07827289               -0.01652696                0.08032503                0.05344600                0.16762557               -0.03744935
               5.00177418                8.99360312               12.01880654                0.01000000               -0.13061181               -0.00473394                0.15048246                0.04726352                0.18373499               -0.03710837
               6.00007985                8.99478378               12.02113213                0.01000000               -0.17660161                0.01499045                0.19000087                0.05676836                0.23297010                0.01957210
               6.99824214                8.99645507               12.02346442                0.01000000               -0.20238804                0.01447742                0.21370951                0.11947636                0.25440793                0.02240348
               7.99603208                8.99927030               12.02649889                0.45612542               -0.14551326                0.03841266                0.23594800                0.07481137                0.13449208                0.10950133
               8.99533188                8.99858665               12.02673720                0.99999998               -0.06961569               -0.06956582                0.23185460               -0.00018539               -0.00404523                0.00509833
               9.99463977                8.99788713               12.02700155                0.99023940               -0.06921080               -0.06857018                0.22867940                0.00083290               -0.00289427               -0.00458117
               0.00540814                9.99553574               12.01835736                1.00000000               -0.04523631               -0.04461915                0.15093844                0.00071329                0.01067211                0.01133515
               1.00495578                9.99478652               12.01788774                0.99666726               -0.04515171               -0.04466611                0.15040121                0.00014401                0.01076411                0.00051282
               2.00450511                9.99404863               12.01741783                0.69629668               -0.04520148               -0.04451117                0.14989573                0.00085924                0.00875132               -0.01022751
               3.00405175                9.99333832               12.01690938                0.21681920               -0.05368092               -0.04296824                0.14740709                0.03207019                0.10351857               -0.00517704
               4.00343149                9.99326580               12.01834939                0.25011068               -0.14671840               -0.01089157                0.10980375                0.09503721                0.20213995               -0.01933195
               5.00111738                9.99376024               12.01955144                0.29621568               -0.21824781                0.01571242                0.15614960                0.01059306                0.17765304                0.02083960
               5.99906653                9.99479125               12.02142304                0.36220222               -0.19588219                0.00074723                0.19916055                0.03952993                0.19840115               -0.00456190
               6.99719974                9.99657746               12.02373921                0.48288090               -0.11829680                0.01223918                0.22087938                0.08468902                0.21554208                0.02010346
               7.99670060                9.99856984               12.02626024                0.98575913               -0.05912214               -0.07004605                0.23067103                0.13288194                0.11844921                0.00213415
               8.99601730                9.99789807               12.02656871                0.99024038               -0.06788576               -0.06885767                0.22652283                0.00050453                0.00566529                0.00274196
               9.99534288                9.99720909               12.02683398                0.99757076               -0.06744127               -0.06780323                0.22334185                0.00141331                0.00329272               -0.00326646
              -0.00010622               -0.00115732               13.01415643                0.91310700               -0.03340003               -0.03362672                0.10979563                0.00104904               -0.00404034                0.00347687
               0.99955978               -0.00146566               13.01453030                0.64009934               -0.03412042               -0.03444267                0.11285316                0.00037088               -0.00549454               -0.00320899
               1.99921137               -0.00176530               13.01487443                0.39621954               -0.03691218               -0.03546631                0.11631283               -0.00007503               -0.00587013               -0.00132773
               2.99882154               -0.00207382               13.01523303                0.36518646               -0.04085322               -0.03637857                0.12145998                0.00049021               -0.00139608               -0.00076606
               3.99839431               -0.00242028               13.01564106                0.43734867               -0.04230300               -0.03768009                0.12560845                0.00168425                0.00353904               -0.00010366
               4.99797548               -0.00281087               13.01607614                0.56658440               -0.04126483               -0.03898085                0.12832437                0.00140593                0.00478912                0.00016146
               5.99756901               -0.00322247               13.01650342                0.76706908               -0.04046195               -0.03999009                0.13076126                0.00093529                0.00323169                0.00031540
               6.99716624               -0.00363362               13.01690845                0.99943904               -0.04044623               -0.04087077                0.13333673                0.00062473                0.00075378                0.00029036
               7.99676009               -0.00403259               13.01728831                0.99999999               -0.04094767               -0.04170243                0.13596320                0.00041675               -0.00114323                0.00091618
               8.99634728               -0.00441527               13.01765719                0.99842074               -0.04159936               -0.04252127                0.13851656                0.00038548               -0.00166906                0.00006861
               9.99592810               -0.00477859               13.01802788                1.00000000               -0.04191847               -0.04334973                0.14113444               -0.00061552               -0.00161253               -0.00271435
               0.00021261                0.99850641               13.01471848                0.64207269               -0.03451332               -0.03447940                0.11380687                0.00026591                0.00268220                0.00345328
               0.99986747                0.99818991               13.01509279                0.01000000               -0.03489532               -0.03516823                0.11680298               -0.00053865                0.00535388               -0.00768338
               1.99951470                0.99788004               13.01552010                0.01000000               -0.03567739               -0.03443744                0.12073868                0.00660823                0.00728487               -0.01250484
               2.99915393                0.99756239               13.01593510                0.01000001               -0.03675145               -0.03554475                0.12645938                0.01150217                0.00779688               -0.01335653
               3.99877967                0.99720292               13.01638290                0.01000000               -0.03816481               -0.03405440                0.13109452                0.01353799                0.00959974               -0.01339582
               4.99839063                0.99679932               13.01684392                0.01000000               -0.03949687               -0.03198595                0.13413498                0.01227758                0.00946193               -0.01235631
               5.99798974                0.99637763               13.01729391                0.01000000               -0.04065432               -0.02638342                0.13679947                0.00721123                0.00763703               -0.01065636
               6.99757754                0.99595767               13.01772055                0.29138596               -0.04173294               -0.04176844                0.13954529                0.00050837                0.00556190                0.00200068
               7.99715508                0.99555038               13.01812963                0.85523190               -0.04267047               -0.04265755                0.14234452                0.00013177                0.00344240                0.00226888
               8.99672414                0.99515952               13.01851386                1.00000000               -0.04349062               -0.04349487                0.14499780               -0.00000733                0.00134406                0.00007925
               9.99628526                0.99478792               13.01888103                0.99805475               -0.04388708               -0.04431184                0.14761502               -0.00103398                0.00047748               -0.00274240
               0.00053209                1.99815309               13.01527900                0.39944843               -0.03567174               -0.03580509                0.11864637                0.00003980                0.00098793               -0.00297620
               1.00017538                1.99783097               13.01556560                0.01000000               -0.02805182               -0.03885023                0.12103267                0.00096968                0.00550849               -0.01966684
               1.99997106                1.99754595               13.01593973                0.01000001               -0.02233401               -0.04024167                0.12763367                0.01404533                0.01375574               -0.02524411
               2.99972870                1.99721528               13.01638370                0.01000000               -0.02714601               -0.04053979                0.13587847                0.02441312                0.01847175               -0.02592772
               3.99942814                1.99689864               13.01685797                0.01000000               -0.03411881               -0.03738419                0.14418175                0.02967001                0.02136445               -0.02420368
               4.99904632                1.99654941               13.01736137                0.01000001               -0.04366290               -0.03011917                0.14948238                0.03099551                0.02472690               -0.02260317
               5.99855488                1.99624986               13.01786564                0.01266062               -0.05213353               -0.02413047                0.15566980                0.01256726                0.03384564               -0.01159178
               6.99800365                1.99553101               13.01856763                0.01000000               -0.04970028               -0.02736919                0.14635623                0.00009442                0.02282346               -0.00557564
               7.99756087                1.99511426               13.01899853                0.01148114               -0.04470223               -0.01846805                0.14889707                0.00744869                0.00639195                0.00473198
               8.99710960                1.99471484               13.01937122                0.09902336               -0.04551214               -0.04507943                0.15150138                0.00163035                0.00299056               -0.00611972
               9.99665063                1.99433518               13.01973405                0.70441108               -0.04589738               -0.04620541                0.15411068               -0.00227946                0.00249097               -0.01107439
               0.00085763                2.99779031               13.01570319                0.36887838               -0.03636308               -0.03506887                0.12477654               -0.00001884               -0.00022529               -0.00814268
               1.00049400                2.99741291               13.01589096                0.01000001               -0.02231665               -0.04581197                0.12675717                0.00086858                0.01250377               -0.02808065
               2.00041130                2.99707521               13.01633135                0.01000000               -0.01022479               -0.05308710                0.13591834                0.01369629                0.02909975               -0.02925847
               3.00028951                2.99675159               13.01684347                0.01000000               -0.01861782               -0.05418646                0.14501355                0.02320720                0.03677683               -0.02810455
               4.00003895                2.99645524               13.01742641                0.01000001               -0.03150968               -0.05336218                0.17021262                0.03029625                0.04383798               -0.02484361
               4.99965931                2.99619694               13.01799360                0.01000000               -0.03897346               -0.04425996                0.17397005                0.03335923                0.04914776               -0.01772782
               5.99925948                2.99589502               13.01865466                0.01000001               -0.04721382               -0.03525273                0.16512518                0.02357046                0.04915390                0.00154852
               6.99871504                2.99541029               13.01922778                0.01000000               -0.05696244               -0.00103850                0.17396880                0.03388154                0.05076886                0.02334944
               7.99812023                2.99518102               13.01988899                0.01517906               -0.05896075                0.00000748                0.15249331                0.01080689                0.01766239                0.02288959
               8.99753582                2.99425793               13.02010428                0.01612903               -0.05606150               -0.01956085                0.16759601               -0.01193559               -0.00421453                0.00490266
               9.99699900                2.99386381               13.02042099                0.21656257               -0.05368260               -0.02977304                0.17041180               -0.00082389               -0.00006215                0.00616269
               0.00128652                3.99745171               13.01613322                0.44266253               -0.03786690               -0.03404581                0.12945022               -0.00231890               -0.00122249               -0.00066479
               1.00090785                3.99691473               13.01620646                0.01000000               -0.01901113               -0.04945023                0.13105384                0.00143177                0.01939169               -0.02289221
               2.00090630                3.99648421               13.01669103                0.01000000               -0.00475210               -0.06239031                0.14432220                0.01181400                0.04523729               -0.03505620
               3.00081281                3.99613155               13.01728452                0.01000001               -0.01587879               -0.06933781                0.17056845                0.01869629                0.05697725               -0.03931862
               4.00058872                3.99583139               13.01793458                0.01000000               -0.02695424               -0.06775454                0.18793655                0.02911135                0.06332921               -0.03481012
               5.00027372                3.99566421               13.01865794                0.01000000               -0.03878935               -0.05903487                0.18790005                0.04337971                0.07093134               -0.02024829
               5.99981293                3.99554481               13.01943593                0.01000000               -0.04392229               -0.04001802                0.18330230                0.05441603                0.09586870                0.04314072
               6.99939528                3.99551024               13.02061820                0.01560563               -0.04417822               -0.00783313                0.13837011                0.04487238                0.07658039                0.05539166
               7.99892937                3.99511441               13.02092999                0.01328926               -0.06035844               -0.00551117                0.13566960                0.00934088                0.02349435                0.02231275
               8.99818811                3.99432362               13.02119273                0.01000000               -0.07534824                0.04028529                0.14054470               -0.01193361                0.01474538                0.03869534
               9.99742240                3.99373971               13.02163276                0.24965680               -0.07657042                0.10109793                0.10954825               -0.04939121                0.01044169                0.04895193
               0.00188521                4.99710939               13.01668581                0.57602271               -0.03950721               -0.03551372                0.13289405               -0.00213002               -0.00134794                0.00899673
               1.00149014                4.99642390               13.01664525                0.01000000               -0.02272232               -0.04760817                0.13418945                0.00083448                0.01748115               -0.01360429
               2.00143076                4.99582740               13.01698147                0.01000001               -0.00869425               -0.06519489                0.14704711                0.00267756                0.04630400               -0.04574474
               3.00131625                4.99536484               13.01754966                0.01000000               -0.01711252               -0.07440961                0.17792723                0.00967034                0.06718253               -0.06448672
               4.00108851                4.99510015               13.01831512                0.01000000               -0.02513804               -0.07621603                0.18484620                0.03170342                0.07931422               -0.04108369
               5.00081349                4.99501624               13.01914363                0.01000000               -0.02933760               -0.07168242                0.18862097                0.05567724                0.13818311                0.01913823
               6.00050176                4.99509466               13.02110768                0.01663113               -0.03853034               -0.04277993                0.20793800                0.06835042                0.14907509                0.05830283
               7.00004289                4.99525363               13.02176060                0.01458825               -0.05040471               -0.02354847                0.12586083                0.04976901                0.05550339                0.02035129
               7.99949367                4.99507080               13.02175929                0.01000000               -0.06855222                0.01524047                0.13224839                0.02216104                0.04972376                0.03827275
               8.99867184                4.99506364               13.02258756                0.01000000               -0.11573431                0.11417069                0.16929786                0.03271352                0.07650195                0.11186501
               9.99717898                4.99588577               13.02346153                0.29633142               -0.14928602                0.18735687                0.18667203                0.03462293                0.06292636                0.11399409
               0.00261490                5.99674144               13.01730513                0.78600008               -0.04083659               -0.03820066                0.13635893               -0.00116511               -0.00156063                0.01293460
               1.00220653                5.99596257               13.01714986                0.01000000               -0.02979925               -0.04519341                0.13732797               -0.00258373                0.00550180               -0.00938825
               2.00201891                5.99518031               13.01713606                0.01266567               -0.02365323               -0.05842764                0.15090195               -0.00894626                0.02438778               -0.05807591
               3.00173347                5.99464336               13.01744632                0.01000001               -0.02237620               -0.06663572                0.15971114                0.00048237                0.08272715               -0.05924067
               4.00157139                5.99430707               13.01859441                0.01000000               -0.01703554               -0.07347419                0.17260074                0.01858575                0.15761076               -0.02632290
               5.00139276                5.99423056               13.02056484                0.01663294               -0.03144181               -0.06362518                0.19831804                0.05565957                0.16534477                0.01091949
               6.00094255                5.99468921               13.02183835                0.01514319               -0.04891193               -0.03658483                0.13062492                0.06164397                0.09580538               -0.01712077
               7.00041452                5.99503927               13.02231236                0.01000000               -0.06899866               -0.00700584                0.12202737                0.03802986                0.07467751                0.00667808
               7.99956258                5.99541922               13.02301681                0.01000000               -0.11935526                0.08132278                0.16789057                0.02895220                0.12559953                0.14583285
               8.99802741                5.99660703               13.02468207                0.01022884               -0.15459852                0.14765189                0.19579699                0.01240969                0.09919315                0.17040698
               9.99647061                5.99748685               13.02526002                0.36286231               -0.15568037                0.14630116                0.21844478               -0.01816076                0.03577128                0.16684440
               0.00341964                6.99634538               13.01793795                0.99472562               -0.04200538               -0.04057714                0.14002304               -0.00017905               -0.00136082                0.01390102
               1.00299959                6.99552003               13.01767301                0.31725261               -0.04242949               -0.04404497                0.14067423               -0.00312465               -0.01232748               -0.00874961
               2.00257105                6.99465885               13.01719094                0.01000000               -0.04002215               -0.04755662                0.14064364               -0.00536759                0.03212362               -0.04255994
               3.00219914                6.99403212               13.01781787                0.01000000               -0.03490118               -0.05816501                0.15825230               -0.00139935                0.11181789               -0.04233228
               4.00187303                6.99363066               13.01915183                0.01561105               -0.03272987               -0.05990299                0.12609855                0.01404064                0.12696884               -0.03281234
               5.00154455                6.99374373               13.02042443                0.01459482               -0.04735496               -0.04296479                0.13904033                0.04512086                0.11695558               -0.05758093
               6.00092593                6.99436296               13.02170350                0.01000000               -0.07355354               -0.02807556                0.13544674                0.05998194                0.11939735               -0.04508460
               7.00007348                6.99511351               13.02294974                0.01000000               -0.12104879                0.05084770                0.13204084                0.05691605                0.18448622                0.08951386
               7.99850495                6.99669725               13.02557474                0.01157965               -0.16105385                0.11663102                0.19979704                0.02662957                0.17754605                0.16227849
               8.99685240                6.99801668               13.02667380                0.01000000               -0.17244121                0.14534713                0.21579771               -0.08078275                0.07372236                0.22143435
               9.99505613                6.99881179               13.02733727                0.48172550               -0.17962708                0.06279914                0.22655987               -0.06449726                0.04036712                0.20873957
               0.00426201                7.99592989               13.01857936                0.99999999               -0.04314353               -0.04230902                0.14353971                0.00034913               -0.00265566                0.01572324
               1.00383057                7.99508167               13.01819150                0.89214237               -0.04312669               -0.04391743                0.14374265               -0.00089142               -0.00700068               -0.00562200
               2.00339947                7.99422918               13.01771751                0.01149157               -0.05484534               -0.04327780                0.14353546                0.00351136                0.02486346               -0.01607625
               3.00273366                7.99348006               13.01796928                0.01518808               -0.06294409               -0.05265629                0.14093382                0.02415021                0.09153544               -0.08175675
               4.00214059                7.99310901               13.01900581                0.01330172               -0.05853945               -0.04937734                0.13604617                0.05077084                0.12022716               -0.07916023
               5.00156287                7.99337126               13.02018655                0.01000000               -0.06840876               -0.03332326                0.12323109                0.06601536                0.14333440               -0.05248254
               6.00077241                7.99412770               13.02174893                0.01000000               -0.11721639               -0.00108773                0.16462172                0.09060689                0.23767853                0.02434754
               6.99921855                7.99605623               13.02496646                0.01163407               -0.17902048                0.05876021                0.19823388                0.08274922                0.24203001                0.10546846
               7.99719201                7.99775184               13.02673033                0.01000000               -0.24606615                0.14285364                0.21279071                0.03546944                0.19883249                0.16106684
               8.99429722                7.99951398               13.02923745                0.43267485               -0.18007835                0.03969501                0.23709864               -0.04030394                0.10816223                0.14406609
               9.99359044                7.99874284               13.02954070                0.95973947               -0.07067852               -0.03810206                0.23385218               -0.11172997               -0.00173638                0.11631166
               0.00512307                8.99549920               13.01925078                0.99874965               -0.04405977               -0.04377266                0.14696668                0.00058062               -0.00012775                0.01434145
               1.00468247                8.99464169               13.01877847                0.99999999               -0.04400890               -0.04433224                0.14695748                0.00003778               -0.00015979               -0.00089590
               2.00424289                8.99379329               13.01830460                0.09774696               -0.04400763               -0.04413283                0.14695723                0.00118341               -0.00783829               -0.01181885
               3.00380232                8.99297900               13.01768101                0.01620193               -0.06228264               -0.04861396                0.15103045                0.03709751                0.06717766               -0.05687834
               4.00299724                8.99264312               13.01871646                0.01000000               -0.09780755               -0.02795109                0.11528676                0.07338241                0.16928794               -0.07270733
               5.00184617                8.99307727               13.02039067                0.01000000               -0.14720676               -0.00708289                0.15880630                0.06761716                0.22174517               -0.00578745
               6.00005310                8.99434121               13.02298796                0.01035806               -0.18709230                0.01584302                0.18850317                0.06765199                0.25532127                0.04353324
               6.99810432                8.99628871               13.02556936                0.01000000               -0.21482551                0.02186191                0.20837679                0.14676500                0.28165349                0.03065772
               7.99575659                8.99955433               13.02885344                0.45574436               -0.15245004                0.05521250                0.23524850                0.09084047                0.14835744                0.12262149
               8.99505532                8.99881058               13.02905683                0.99999998               -0.06963912               -0.06959384                0.23188694                0.00003451               -0.00427534                0.00485725
               9.99436381                8.99804975               13.02928871                0.98957028               -0.06915106               -0.06854702                0.22867025                0.00078022               -0.00280371               -0.00478992
               0.00598864                9.99505444               13.01986352                1.00000000               -0.04514103               -0.04447574                0.15034063                0.00061597                0.01099987                0.01157681
               1.00553723                9.99419503               13.01939152                0.99794622               -0.04514076               -0.04466589                0.15036399                0.00008033                0.01108387                0.00042704
               2.00508583                9.99334653               13.01891966                0.69823164               -0.04557227               -0.04467661                0.15043554               -0.00006869                0.01272203               -0.01057794
               3.00462579                9.99250778               13.01848205                0.21650852               -0.07879310               -0.04712178                0.15566378                0.04252006                0.06119826               -0.00351411
               4.00350997                9.99254999               13.01898847                0.24986602               -0.17043307               -0.00931276                0.09905653                0.08736411                0.16102816               -0.04824006
               5.00121713                9.99322961               13.02122040                0.29636660               -0.22979786                0.01523376                0.16420738                0.03182424                0.22471563                0.02960015
               5.99891401                9.99444456               13.02345810                0.36289942               -0.21381996                0.01033497                0.20415619                0.04928349                0.21296385                0.01104473
               6.99694073                9.99649347               13.02592309                0.48403183               -0.12135280                0.02047511                0.21231158                0.10421690                0.22988219                0.02516502
               7.99648695                9.99885609               13.02856206                0.98525438               -0.05691169               -0.06982415                0.23015007                0.15446763                0.12586723                0.00203383
               8.99580249                9.99812210               13.02883592                0.98957120               -0.06796265               -0.06884773                0.22683256                0.00050763                0.00548435                0.00283976
               9.99512770                9.99737189               13.02906875                0.99761182               -0.06747934               -0.06778530                0.22361865                0.00136847                0.00336508               -0.00320203
              -0.00053641               -0.00170238               14.01525512                0.91384210               -0.03336216               -0.03356991                0.10989552                0.00101599               -0.00419765                0.00387168
               0.99912997               -0.00208026               14.01565857                0.64123364               -0.03391925               -0.03444276                0.11280355                0.00045828               -0.00546266               -0.00329407
               1.99878520               -0.00244649               14.01603586                0.39620894               -0.03609844               -0.03537141                0.11603021                0.00033665               -0.00482781               -0.00138139
               2.99840800               -0.00280831               14.01644515                0.36388678               -0.03962879               -0.03632714                0.12100196                0.00067359                0.00010083               -0.00075044
               3.99799263               -0.00319030               14.01689654                0.43540859               -0.04152617               -0.03765129                0.12545821                0.00161467                0.00403883               -0.00007054
               4.99757748               -0.00360594               14.01736016                0.56456982               -0.04108430               -0.03898598                0.12844122                0.00140196                0.00450167                0.00017820
               5.99717094               -0.00403994               14.01781215                0.76557589               -0.04050707               -0.04002273                0.13096351                0.00095995                0.00289158                0.00032691
               6.99676733               -0.00447385               14.01824276                0.99940920               -0.04052932               -0.04090848                0.13352733                0.00064311                0.00053073                0.00030089
               7.99636036               -0.00489650               14.01864872                0.99999999               -0.04102344               -0.04173433                0.13614495                0.00042928               -0.00136324                0.00095690
               8.99594687               -0.00530362               14.01904290                0.99962276               -0.04165388               -0.04254938                0.13865662                0.00039873               -0.00189085                0.00010336
               9.99552728               -0.00569184               14.01943972                1.00000000               -0.04195866               -0.04337668                0.14125285               -0.00059750               -0.00181945               -0.00279512
              -0.00014837                0.99796192               14.01585594                0.64308329               -0.03450230               -0.03423352                0.11369209                0.00037149                0.00293061                0.00423766
               0.99950660                0.99757531               14.01625930                0.01000000               -0.03495138               -0.03523897                0.11655505               -0.00017214                0.00602263               -0.00765590
               1.99915260                0.99719980               14.01672439                0.01000000               -0.03599809               -0.03469775                0.12023012                0.00751801                0.00929075               -0.01104740
               2.99878664                0.99682841               14.01719580                0.01000001               -0.03725043               -0.03591357                0.12576362                0.01320913                0.01032174               -0.01050292
               3.99840759                0.99643319               14.01769208                0.01000000               -0.03851638               -0.03592615                0.13073985                0.01601015                0.01091962               -0.01075223
               4.99801631                0.99600420               14.01818518                0.01000000               -0.03965472               -0.03470156                0.13408789                0.01630738                0.00974868               -0.00905791
               5.99761450                0.99555983               14.01866239                0.01000000               -0.04071352               -0.02610851                0.13686806                0.01162887                0.00771116               -0.00402927
               6.99720204                0.99511706               14.01911647                0.28955308               -0.04174825               -0.04177848                0.13962183                0.00057388                0.00567265                0.00229326
               7.99677953                0.99468616               14.01955341                0.85544411               -0.04267586               -0.04266937                0.14240969                0.00017751                0.00349864                0.00238044
               8.99634853                0.99427089               14.01996414                1.00000000               -0.04349998               -0.04351462                0.14505719                0.00001594                0.00130976                0.00010855
               9.99590953                0.99387439               14.02035753                0.99897997               -0.04389953               -0.04433450                0.14768696               -0.00101214                0.00042036               -0.00284142
               0.00024423                1.99761295               14.01646287                0.39922535               -0.03555850               -0.03492600                0.11819524                0.00053340                0.00111146               -0.00116321
               0.99988865                1.99721496               14.01677289                0.01000000               -0.02808831               -0.03918382                0.12053112                0.00176458                0.00796320               -0.01872421
               1.99968246                1.99685956               14.01721810                0.01000001               -0.02249259               -0.04092392                0.12827694                0.01573737                0.01906752               -0.02194850
               2.99943879                1.99647341               14.01775077                0.01000000               -0.02727072               -0.04268845                0.13573485                0.02594511                0.02307881               -0.02293047
               3.99913705                1.99609118               14.01827359                0.01000000               -0.03309092               -0.04089028                0.14249059                0.03665731                0.02406310               -0.00925984
               4.99877698                1.99570002               14.01882556                0.01000001               -0.04231987               -0.03426107                0.14762172                0.04590785                0.02874886               -0.00833591
               5.99829065                1.99543789               14.01942610                0.01223829               -0.05622455               -0.02179688                0.15329301                0.02779164                0.02966860               -0.00421140
               6.99765248                1.99469058               14.02003077                0.01000001               -0.05402868               -0.02311098                0.14625065                0.01060811                0.01666318                0.00587803
               7.99721008                1.99425012               14.02048733                0.01086273               -0.04467647               -0.00992318                0.14882709                0.00937337                0.00641938                0.00905980
               8.99675896                1.99382609               14.02088629                0.09783006               -0.04550210               -0.04504095                0.15148755                0.00056922                0.00306649               -0.00296136
               9.99630004                1.99342147               14.02127534                0.70451310               -0.04589183               -0.04614513                0.15413876               -0.00120653                0.00257931               -0.00809414
               0.00065827                2.99726340               14.01694752                0.36737802               -0.03629819               -0.03386029                0.12413674                0.00026170               -0.00013710               -0.00630381
               1.00029529                2.99679164               14.01715522                0.01000001               -0.02246864               -0.04628476                0.12616294                0.00219817                0.01658803               -0.02685921
               2.00020889                2.99638132               14.01769653                0.01000000               -0.01106798               -0.05331911                0.13549216                0.01471351                0.03419990               -0.02684763
               3.00007393                2.99597464               14.01825868                0.01000000               -0.01473840               -0.05699226                0.14438393                0.02776247                0.05073715               -0.01635959
               3.99991413                2.99561538               14.01915044                0.01307969               -0.02430846               -0.05340957                0.15422084                0.03871335                0.05768595               -0.00285955
               4.99958776                2.99531897               14.01972880                0.01000000               -0.03671758               -0.04056341                0.15337724                0.04994612                0.04292530               -0.00190040
               5.99917977                2.99512390               14.02026575                0.01000001               -0.04928880               -0.03377070                0.15646814                0.04697686                0.04559001                0.01153040
               6.99860198                2.99465484               14.02097575                0.01000000               -0.06741449                0.00676862                0.19018653                0.05774065                0.03941241                0.02520576
               7.99783149                2.99448770               14.02152540                0.01451471               -0.07067094                0.00867743                0.17761067                0.01794338                0.00916065                0.01362966
               8.99718856                2.99337007               14.02174631                0.01550977               -0.05684170               -0.01383590                0.16261542               -0.01336276               -0.00665135                0.00120920
               9.99669465                2.99295149               14.02208854                0.21618492               -0.04939105               -0.02112746                0.16513580               -0.00436459                0.00155370               -0.00166390
               0.00119299                3.99693574               14.01742627                0.44052236               -0.03783007               -0.03337340                0.12913815               -0.00227985               -0.00123532               -0.00003837
               1.00081469                3.99628927               14.01751634                0.01000000               -0.01996309               -0.04972282                0.13090049                0.00362069                0.02362027               -0.02278592
               2.00079373                3.99579318               14.01810300                0.01000000               -0.00273526               -0.06259569                0.14197352                0.01247916                0.06170139               -0.03514858
               3.00075998                3.99533357               14.01899840                0.01308070               -0.01133696               -0.06541537                0.15315495                0.02352339                0.07694845               -0.02075431
               4.00056699                3.99502298               14.01985196                0.01000000               -0.02463002               -0.06106250                0.15693029                0.03719399                0.06446817               -0.02828451
               5.00026738                3.99488876               14.02048429                0.01000001               -0.03363335               -0.05067661                0.16079712                0.04791703                0.06152210               -0.01233943
               5.99989432                3.99476248               14.02120916                0.01000000               -0.04119429               -0.02810818                0.16991397                0.06494816                0.08442321                0.03707747
               6.99944350                3.99482595               14.02212264                0.01467521               -0.05203010                0.00007453                0.15062308                0.06094926                0.05932384                0.03134451
               7.99885372                3.99442367               14.02242207                0.01255722               -0.07077931               -0.00112864                0.15425890                0.02025494                0.01942056                0.01936377
               8.99802791                3.99354937               14.02275027                0.01000000               -0.09019026                0.05640436                0.16238386               -0.00652453                0.01386057                0.04752484
               9.99704991                3.99299892               14.02313382                0.24941804               -0.09779970                0.11362270                0.16081849               -0.04692725               -0.00007764                0.07938934
               0.00190562                4.99659593               14.01801427                0.57367931               -0.03953558               -0.03537506                0.13280330               -0.00206616               -0.00141035                0.00901658
               1.00151027                4.99579718               14.01798794                0.01000000               -0.02457231               -0.04763096                0.13434191                0.00298914                0.02143543               -0.01412597
               2.00141418                4.99512941               14.01841845                0.01000001               -0.00978408               -0.06534023                0.14537813                0.00963758                0.06609766               -0.04422431
               3.00131458                4.99466634               14.01937942                0.01000000               -0.01556781               -0.06926436                0.16233202                0.01691031                0.08052937               -0.06851815
               4.00110282                4.99439413               14.02011358                0.01000001               -0.02539897               -0.06619441                0.15968665                0.03069054                0.07946342               -0.04801874
               5.00080660                4.99430544               14.02101222                0.01000000               -0.02806378               -0.05105025                0.17429466                0.05708645                0.12007387                0.00173281
               6.00054154                4.99456173               14.02242036                0.01550096               -0.03234137               -0.02654025                0.13320975                0.06645111                0.10013876                0.02536944
               7.00015978                4.99465633               14.02289143                0.01359232               -0.05141914               -0.01646728                0.12907348                0.04200536                0.04856613                0.01359353
               7.99951316                4.99446512               14.02329678                0.01000000               -0.08384789                0.02831283                0.16078740                0.02405511                0.06445088                0.05782351
               8.99848282                4.99449816               14.02428504                0.01000000               -0.13280709                0.13841863                0.17677158                0.02851254                0.07632530                0.14276871
               9.99685702                4.99522394               14.02524755                0.29636456               -0.16258005                0.21418597                0.18156367                0.02904597                0.05961886                0.15452907
               0.00274917                5.99622824               14.01866857                0.78379878               -0.04081708               -0.03823609                0.13619719               -0.00105109               -0.00163698                0.01309737
               1.00234100                5.99533665               14.01852466                0.01000000               -0.03159224               -0.04516284                0.13747669               -0.00031115                0.01205132               -0.00982574
               2.00211732                5.99448637               14.01865449                0.01224325               -0.02537656               -0.06032320                0.14943738                0.00068085                0.03252763               -0.06228736
               3.00183347                5.99394828               14.01899177                0.01000001               -0.02878138               -0.06555335                0.15385935                0.01409597                0.09058789               -0.07407028
               4.00154169                5.99369910               14.02026977                0.01000000               -0.02959775               -0.06786762                0.16403887                0.03843890                0.15132814               -0.04316243
               5.00124151                5.99386775               14.02184192                0.01550274               -0.03346216               -0.04566352                0.13272487                0.05763288                0.12825688               -0.01064453
               6.00087245                5.99423167               14.02278362                0.01403631               -0.04306487               -0.03339343                0.11382419                0.05017278                0.08621291               -0.02560415
               7.00038021                5.99449660               14.02351587                0.01000000               -0.06897274                0.00410401                0.13370327                0.03373605                0.09514600                0.03110907
               7.99949300                5.99498992               14.02474986                0.01000000               -0.12704337                0.10217454                0.17762469                0.03218254                0.14537104                0.17165307
               8.99783935                5.99631775               14.02667271                0.01076163               -0.16568643                0.17316772                0.19823942                0.02274988                0.10990464                0.19935758
               9.99617927                5.99728264               14.02742823                0.36330698               -0.16600770                0.17620378                0.21007696               -0.00742096                0.04391454                0.19468719
               0.00366779                6.99583121               14.01933868                0.99395400               -0.04218743               -0.04068906                0.14014803               -0.00010309               -0.00147660                0.01417897
               1.00324591                6.99489392               14.01908217                0.31497309               -0.04258143               -0.04408470                0.14115447               -0.00299047               -0.01271484               -0.00918199
               2.00281616                6.99392294               14.01860050                0.01000001               -0.04310673               -0.04969175                0.14104996                0.00507366                0.04072447               -0.05037670
               3.00238378                6.99335527               14.01941244                0.01000000               -0.04320154               -0.06156466                0.16216661                0.01561670                0.12951765               -0.05717408
               4.00195213                6.99303678               14.02055677                0.01468049               -0.04785455               -0.06252958                0.14586278                0.04400885                0.13693140               -0.05859917
               5.00142669                6.99339217               14.02177327                0.01359905               -0.05179910               -0.05143596                0.14192933                0.06601574                0.12516559               -0.06302532
               6.00091615                6.99389386               14.02291870                0.01000000               -0.06752193               -0.02688726                0.13476854                0.06152858                0.14531963               -0.01862872
               7.00007625                6.99473841               14.02457451                0.01000000               -0.12902377                0.06405254                0.16853307                0.06952357                0.22628013                0.12951550
               7.99833567                6.99650861               14.02750020                0.01163991               -0.17155728                0.13771488                0.19591557                0.03858527                0.19696576                0.18801170
               8.99664510                6.99796151               14.02881343                0.01000000               -0.17784255                0.17349665                0.20989189               -0.08046182                0.07938168                0.24159338
               9.99477882                6.99874802               14.02953430                0.48258136               -0.18662836                0.08363274                0.21208555               -0.06601512                0.04197916                0.21412617
               0.00462168                7.99541446               14.02001435                0.99999999               -0.04322226               -0.04233047                0.14346895                0.00035308               -0.00287241                0.01593462
               1.00418945                7.99445495               14.01963043                0.89230092               -0.04321140               -0.04393368                0.14400444               -0.00070326               -0.00735782               -0.00605184
               2.00375745                7.99349254               14.01915573                0.01087301               -0.05787456               -0.04338624                0.14396128                0.00794914                0.03019452               -0.01667251
               3.00303196                7.99271699               14.01952358                0.01452361               -0.06862390               -0.06188025                0.16581240                0.04217585                0.10410043               -0.09208008
               4.00238497                7.99244850               14.02040483                0.01256949               -0.06636119               -0.05494376                0.14453437                0.07690478                0.13550232               -0.09477399
               5.00170474                7.99283903               14.02161107                0.01000000               -0.08140950               -0.04693282                0.15312668                0.08781557                0.17290726               -0.05073981
               6.00075678                7.99369393               14.02347996                0.01000000               -0.12744030                0.00257029                0.17701988                0.10150267                0.26849732                0.05019064
               6.99915593                7.99577766               14.02688977                0.01169317               -0.18575887                0.06865889                0.19517297                0.09918898                0.26461976                0.12756553
               7.99704160                7.99774422               14.02883681                0.01000002               -0.25826130                0.16911938                0.21033779                0.05930583                0.22182256                0.18610320
               8.99399071                7.99978768               14.03160458                0.43283712               -0.18778227                0.05619067                0.23638489               -0.03114645                0.12287460                0.15777487
               9.99328596                7.99895529               14.03187566                0.95975141               -0.07047492               -0.02423688                0.23323041               -0.11618226               -0.00177170                0.12561642
               0.00559386                8.99498460               14.02071837                0.99994471               -0.04400902               -0.04363360                0.14650958                0.00058855               -0.00014769                0.01455042
               1.00515377                8.99401525               14.02024842                0.99999999               -0.04403775               -0.04429959                0.14698187                0.00012427               -0.00018285               -0.00107803
               2.00471311                8.99305522               14.01977698                0.09796841               -0.04412225               -0.04427948                0.14748813                0.00069920               -0.00660321               -0.01208912
               3.00427133                8.99211767               14.01918043                0.01558660               -0.06724633               -0.05255188                0.14975289                0.05288127                0.06262646               -0.06250813
               4.00336818                8.99193790               14.02009707                0.01000000               -0.11668749               -0.03457675                0.14652870                0.09322917                0.17994702               -0.07957781
               5.00193758                8.99245352               14.02198266                0.01000000               -0.16803022               -0.00731242                0.16675751                0.07223482                0.25320787               -0.00359765
               6.00000758                8.99394527               14.02490219                0.01089624               -0.19639206                0.01889703                0.19210599                0.07622093                0.27857898                0.05907113
               6.99800974                8.99611159               14.02763196                0.01000002               -0.22479059                0.02978291                0.20380654                0.17416121                0.30657805                0.03765186
               7.99551176                8.99989100               14.03120386                0.45532402               -0.15993166                0.07245308                0.23488364                0.11186210                0.16422624                0.13735565
               8.99481110                8.99908533               14.03137494                0.99999998               -0.06959069               -0.06954921                0.23172249                0.00009297               -0.00430472                0.00484632
               9.99411995                8.99826328               14.03157495                0.98906858               -0.06911524               -0.06851583                0.22858401                0.00072403               -0.00281706               -0.00478666
               0.00657215                9.99454179               14.02136417                1.00000000               -0.04508252               -0.04428125                0.14987736                0.00054598                0.01135780                0.01175373
               1.00612132                9.99356896               14.02089502                0.99890924               -0.04515647               -0.04462888                0.15040216                0.00001302                0.01140973                0.00034595
               2.00566902                9.99260695               14.02042654                0.69984774               -0.04572096               -0.04482712                0.15097586                0.00044059                0.01456283               -0.01082452
               3.00520690                9.99166595               14.02002265                0.21621898               -0.08776567               -0.04517148                0.15385971                0.05105883                0.05314877               -0.00249492
               4.00391370                9.99175697               14.02033052                0.24962596               -0.20324170               -0.01809332                0.14677845                0.10589411                0.17818587               -0.05538966
               5.00114207                9.99269278               14.02283559                0.29639527               -0.26452908                0.02392684                0.16812416                0.03619412                0.25515975                0.02841345
               5.99862312                9.99407187               14.02550616                0.36333941               -0.22243222                0.01265976                0.20190573                0.04558126                0.22725264                0.02206151
               6.99669342                9.99637331               14.02798544                0.48483803               -0.11590058                0.02617221                0.20183588                0.12443961                0.24123692                0.02246344
               7.99630511                9.99919328               14.03086324                0.98467932               -0.05365670               -0.06977215                0.23017412                0.18050382                0.13939535                0.00201014
               8.99562029                9.99839669               14.03110536                0.98906947               -0.06802890               -0.06886311                0.22706104                0.00050353                0.00550573                0.00283812
               9.99494453                9.99758497               14.03130636                0.99769614               -0.06757575               -0.06783041                0.22392410                0.00128631                0.00335752               -0.00322180
              -0.00099706               -0.00228152               15.01635434                0.91427228               -0.03331513               -0.03350655                0.10990886                0.00100806               -0.00435760                0.00421156
               0.99866979               -0.00273301               15.01678637                0.64210009               -0.03373561               -0.03445204                0.11275446                0.00054564               -0.00547505               -0.00338098
               1.99832823               -0.00316999               15.01719503                0.39637668               -0.03534606               -0.03531661                0.11584360                0.00072162               -0.00387363               -0.00143501
               2.99796287               -0.00359014               15.01765307                0.36297479               -0.03840784               -0.03631535                0.12062100                0.00084127                0.00168942               -0.00074491
               3.99756007               -0.00401276               15.01815023                0.43382367               -0.04064814               -0.03764086                0.12526319                0.00150082                0.00479425               -0.00004596
               4.99714990               -0.00445735               15.01864496                0.56277168               -0.04079123               -0.03898881                0.12848568                0.00135582                0.00437238                0.00018899
               5.99674425               -0.00491642               15.01912269                0.76415020               -0.04048118               -0.04004800                0.13112310                0.00095828                0.00258050                0.00033557
               6.99634028               -0.00537503               15.01957899                0.99934413               -0.04057842               -0.04094431                0.13371957                0.00064948                0.00029192                0.00031331
               7.99593268               -0.00582284               15.02001121                0.99999999               -0.04109077               -0.04177794                0.13636898                0.00043883               -0.00161878                0.00098617
               8.99551847               -0.00625567               15.02043032                1.00000000               -0.04173006               -0.04260280                0.13891209                0.00041073               -0.00217086                0.00016083
               9.99509808               -0.00667011               15.02085294                1.00000000               -0.04203890               -0.04344266                0.14154549               -0.00056333               -0.00210156               -0.00281050
              -0.00053550                0.99738341               15.01699232                0.64383767               -0.03450275               -0.03401191                0.11358667                0.00047405                0.00314274                0.00490759
               0.99911948                0.99692247               15.01742389                0.01000000               -0.03502473               -0.03532149                0.11639981                0.00015290                0.00660206               -0.00765071
               1.99876401                0.99647685               15.01792470                0.01000000               -0.03634036               -0.03475852                0.11991024                0.00852634                0.01115591               -0.00884774
               2.99839267                0.99604671               15.01845037                0.01000001               -0.03776623               -0.03580322                0.12522153                0.01529457                0.01293374               -0.00820882
               3.99800869                0.99561083               15.01899769                0.01000000               -0.03886885               -0.03660758                0.13038220                0.01902971                0.01253487               -0.00690920
               4.99761529                0.99515276               15.01952568                0.01000000               -0.03980079               -0.03517873                0.13397753                0.01955800                0.01022805               -0.00444051
               5.99721267                0.99468310               15.02003128                0.01000000               -0.04076551               -0.02606490                0.13687585                0.01307802                0.00783224               -0.00010340
               6.99679998                0.99421553               15.02051298                0.28794006               -0.04176416               -0.04178346                0.13966043                0.00058440                0.00577086                0.00256242
               7.99637739                0.99375938               15.02097782                0.85575307               -0.04268860               -0.04268515                0.14246788                0.00019190                0.00353636                0.00246951
               8.99594621                0.99331830               15.02141501                1.00000000               -0.04352497               -0.04354492                0.14515461                0.00002649                0.00126021                0.00015514
               9.99550689                0.99289546               15.02183477                0.99965762               -0.04393236               -0.04438013                0.14783434               -0.00098244                0.00034108               -0.00289235
              -0.00006570                1.99703824               15.01764291                0.39919905               -0.03548874               -0.03412885                0.11786164                0.00098208                0.00121557                0.00051547
               0.99957941                1.99656056               15.01797622                0.01000000               -0.02798896               -0.03951003                0.12021281                0.00269435                0.01105687               -0.01778341
               1.99937452                1.99613484               15.01850527                0.01000001               -0.02223152               -0.04117459                0.12836498                0.01805348                0.02483607               -0.01800856
               2.99913478                1.99569380               15.01909840                0.01000000               -0.02699537               -0.04349642                0.13449206                0.02889570                0.02944744               -0.01505087
               3.99883461                1.99525508               15.01970778                0.01000000               -0.03329923               -0.03955742                0.14110068                0.04295680                0.02985775               -0.00703068
               4.99846880                1.99483908               15.02031380                0.01000001               -0.04457848               -0.03262820                0.14605594                0.05472041                0.02850195               -0.00821972
               5.99794304                1.99456228               15.02093150                0.01194761               -0.05965570               -0.01702665                0.14869831                0.03309420                0.02151148               -0.00210278
               6.99727568                1.99378930               15.02149264                0.01693239               -0.05546506               -0.01964943                0.14607695                0.01024165                0.01319878                0.03283174
               7.99683374                1.99332346               15.02197507                0.01038132               -0.04463821               -0.01202553                0.14869850                0.01198083                0.00648848                0.02745761
               8.99638292                1.99287343               15.02240098                0.09685660               -0.04548145               -0.04500814                0.15142879                0.00061382                0.00319291               -0.00130692
               9.99592411                1.99244228               15.02281683                0.70450105               -0.04588057               -0.04617045                0.15414364               -0.00117788                0.00270351               -0.00667146
               0.00043950                2.99670084               15.01818592                0.36627063               -0.03627372               -0.03270184                0.12358633                0.00051291               -0.00006331               -0.00434868
               1.00007676                2.99613227               15.01841422                0.01000001               -0.02238257               -0.04671335                0.12568826                0.00383180                0.01987895               -0.02536538
               1.99999185                2.99565336               15.01904119                0.01000000               -0.01132077               -0.05377644                0.13434577                0.01641263                0.04403649               -0.02257328
               2.99985034                2.99517678               15.01973115                0.01000000               -0.01346510               -0.05490379                0.14285140                0.03171772                0.05277918               -0.01573242
               3.99972254                2.99481968               15.02051083                0.01273144               -0.02239184               -0.04762626                0.13692305                0.04404979                0.04768082               -0.00927548
               4.99940251                2.99450020               15.02106115                0.01000000               -0.03991074               -0.03525377                0.13752014                0.06005282                0.04322859               -0.00163142
               5.99892433                2.99434256               15.02178402                0.01000000               -0.05794366               -0.02152632                0.15619585                0.06211743                0.06921451                0.01678008
               6.99824363                2.99382254               15.02303151                0.01000000               -0.06957282                0.02160748                0.15948348                0.06347360                0.04525059                0.01411416
               7.99753287                2.99351887               15.02344120                0.01402098               -0.07019862                0.02034231                0.15593444                0.02260051               -0.01680772               -0.00296554
               8.99683966                2.99241814               15.02335659                0.01503318               -0.05936238               -0.00690214                0.16080866               -0.00880842               -0.02207868                0.00368722
               9.99634562                2.99197205               15.02372371                0.21592196               -0.04940370               -0.01368985                0.16329438               -0.00812716                0.00070262                0.00050115
               0.00108168                3.99638420               15.01871598                0.43873373               -0.03781555               -0.03267059                0.12880152               -0.00228270               -0.00124820                0.00090667
               1.00070353                3.99562630               15.01882447                0.01000000               -0.02117086               -0.04996054                0.13070960                0.00565058                0.02863812               -0.02221188
               2.00065826                3.99505932               15.01953050                0.01000000               -0.00503563               -0.06309676                0.14090464                0.01694100                0.06424760               -0.03201496
               3.00060281                3.99459572               15.02034762                0.01273244               -0.01330374               -0.05878400                0.13688954                0.03123082                0.06602799               -0.02139371
               4.00039219                3.99430256               15.02107318                0.01000000               -0.02279225               -0.05488538                0.12984509                0.04303600                0.06411693               -0.02480605
               5.00014697                3.99413400               15.02187388                0.01000001               -0.02645693               -0.04034688                0.14127367                0.06674403                0.07718669                0.00280249
               5.99986305                3.99413175               15.02283421                0.01000000               -0.03890617               -0.01574886                0.15717319                0.08942244                0.08160872                0.03318887
               6.99936884                3.99422145               15.02363066                0.01395029               -0.05864504                0.01548614                0.15684197                0.07463531                0.04892386                0.00082113
               7.99869015                3.99373031               15.02401516                0.01197675               -0.08076375                0.01903016                0.16498626                0.01850697                0.02109711                0.00318669
               8.99775357                3.99273539               15.02444041                0.01000000               -0.10182024                0.07892155                0.17045133               -0.00769518                0.01188820                0.05364456
               9.99665375                3.99216849               15.02484913                0.24920494               -0.10998245                0.13549406                0.17330789               -0.05165450               -0.00032184                0.08369725
               0.00190965                4.99604742               15.01934188                0.57155813               -0.03949951               -0.03526143                0.13266654               -0.00202095               -0.00148089                0.00912337
               1.00151466                4.99513306               15.01933208                0.01000000               -0.02742070               -0.04772365                0.13440327                0.00510540                0.02689160               -0.01444174
               2.00136124                4.99439142               15.01988903                0.01000001               -0.01414709               -0.06533967                0.14546874                0.02060634                0.07074893               -0.04534926
               3.00123172                4.99400110               15.02079630                0.01000000               -0.01581275               -0.07333961                0.14257990                0.03288441                0.07848163               -0.06477478
               4.00104499                4.99372197               15.02150886                0.01000001               -0.01617609               -0.06509634                0.14238492                0.05238843                0.09148633               -0.03409918
               5.00090820                4.99369326               15.02262952                0.01000000               -0.02098289               -0.04386928                0.15589902                0.08013414                0.12148057                0.00025077
               6.00062533                4.99402759               15.02377187                0.01459769               -0.03852045               -0.02264853                0.14427898                0.07844049                0.09256786                0.00628436
               7.00013779                4.99413226               15.02434207                0.01277986               -0.06181270               -0.01215376                0.15451263                0.04271211                0.05823745                0.01191999
               7.99938907                4.99389948               15.02497504                0.01000000               -0.09451051                0.04592762                0.17287276                0.02436619                0.07658061                0.07002940
               8.99824758                4.99399657               15.02612299                0.01000000               -0.14713675                0.16652019                0.18646459                0.02880114                0.08042990                0.15945136
               9.99644634                4.99468193               15.02709280                0.29633652               -0.18012375                0.24626802                0.18565356                0.02774137                0.05497814                0.17527324
               0.00286998                5.99567897               15.02002907                0.78170036               -0.04083490               -0.03821213                0.13608607               -0.00104188               -0.00170251                0.01339612
               1.00246164                5.99467182               15.01989940                0.01000000               -0.03338162               -0.04512223                0.13761358                0.00211780                0.01605605               -0.01003687
               2.00220235                5.99375252               15.02012480                0.01195249               -0.02658421               -0.06206707                0.14540492                0.00755691                0.04030089               -0.07033906
               3.00192995                5.99312893               15.02052350                0.01000000               -0.02272775               -0.08221344                0.15662333                0.04248103                0.10094447               -0.07055046
               4.00174780                5.99300063               15.02187519                0.01000000               -0.02429578               -0.06991780                0.15606488                0.06667633                0.15489449               -0.04697732
               5.00144404                5.99325662               15.02321933                0.01459946               -0.03774686               -0.04895884                0.14595086                0.07279416                0.13305822               -0.03480008
               6.00099286                5.99367878               15.02411483                0.01313037               -0.05464197               -0.03667650                0.14656982                0.05637599                0.10224892               -0.02748311
               7.00035120                5.99397838               15.02498642                0.01000000               -0.08398478                0.00988317                0.16041940                0.04249362                0.12299609                0.04703962
               7.99931316                5.99464886               15.02656930                0.01000000               -0.14020310                0.12355335                0.18826560                0.04518433                0.16725723                0.19240229
               8.99754713                5.99606579               15.02864686                0.01106478               -0.17376580                0.19600528                0.19770739                0.03016732                0.11649906                0.21292049
               9.99583785                5.99709385               15.02946156                0.36358047               -0.17092862                0.19824793                0.20144315                0.00318748                0.04652081                0.20460093
               0.00390312                6.99528318               15.02074091                0.99999999               -0.04196487               -0.04050411                0.13945333               -0.00013628               -0.00162208                0.01449945
               1.00348347                6.99423062               15.02049610                0.31296101               -0.04239221               -0.04387204                0.14072142               -0.00263503               -0.01337588               -0.00949206
               2.00305527                6.99315008               15.02001194                0.01693953               -0.03251199               -0.05166356                0.14137284                0.00170392                0.05148390               -0.05564843
               3.00283323                6.99235683               15.02106120                0.01000000               -0.04022226               -0.06292321                0.13049303                0.04050751                0.13088906               -0.05406259
               4.00225083                6.99232361               15.02206908                0.01395549               -0.05736491               -0.06637001                0.15564053                0.06863019                0.14001127               -0.07629453
               5.00168593                6.99271408               15.02326302                0.01278633               -0.06098701               -0.05547687                0.15535821                0.07361496                0.14350982               -0.07049878
               6.00103109                6.99329406               15.02439887                0.01000000               -0.08341739               -0.02653812                0.16057060                0.07433197                0.16841684               -0.00250160
               7.00001758                6.99432993               15.02632040                0.01000000               -0.14128719                0.07858553                0.18362855                0.09396887                0.25355517                0.15515528
               7.99820534                6.99637054               15.02949305                0.01165244               -0.18058247                0.15606877                0.20144107                0.05936180                0.21686313                0.20567004
               8.99640593                6.99791668               15.03087164                0.01000000               -0.18756822                0.20210879                0.20612011               -0.07774576                0.08239051                0.26356010
               9.99445398                6.99864689               15.03157898                0.48318480               -0.19519538                0.10603305                0.20355193               -0.06822857                0.03739823                0.22950708
               0.00497239                7.99486889               15.02144874                0.99999999               -0.04303494               -0.04213980                0.14268830                0.00039381               -0.00323456                0.01576974
               1.00454204                7.99379438               15.02107159                0.89259216               -0.04310845               -0.04375392                0.14367141               -0.00064519               -0.00786783               -0.00674558
               2.00411022                7.99271925               15.02059674                0.01039142               -0.04877347               -0.04346917                0.14433919                0.00998147                0.04545086               -0.01714727
               3.00356657                7.99187047               15.02128553                0.01402975               -0.06735340               -0.05635356                0.14820666                0.04277568                0.10399048               -0.10164852
               4.00276315                7.99167323               15.02189649                0.01198876               -0.08103361               -0.05988740                0.15566671                0.09098679                0.13536953               -0.10500716
               5.00194589                7.99214708               15.02324908                0.01000000               -0.09497449               -0.04666433                0.16822122                0.09470305                0.19630819               -0.05072221
               6.00086366                7.99314802               15.02528932                0.01000000               -0.13959036                0.01011851                0.18643818                0.11736544                0.29441112                0.06608802
               6.99915409                7.99555009               15.02886991                0.01170386               -0.19750048                0.08080773                0.20011834                0.12694221                0.28489314                0.14397532
               7.99691365                7.99777023               15.03093708                0.01000002               -0.27191084                0.19522330                0.21122808                0.08253400                0.24408714                0.20746849
               8.99371587                8.00010797               15.03396515                0.43296019               -0.19504013                0.07450224                0.23576504               -0.01817590                0.13744408                0.17514478
               9.99301285                7.99921451               15.03420531                0.95973207               -0.07030237               -0.00617897                0.23272348               -0.11667310               -0.00178705                0.14211674
               0.00606001                8.99444038               15.02218097                1.00000000               -0.04398041               -0.04354867                0.14618630                0.00060115               -0.00011321                0.01457923
               1.00562021                8.99335554               15.02171810                0.99999999               -0.04405953               -0.04428140                0.14702084                0.00006676               -0.00010170               -0.00134940
               2.00517882                8.99228070               15.02125436                0.09834262               -0.04427225               -0.04441645                0.14792575                0.00067279               -0.00594814               -0.01226550
               3.00473476                8.99122976               15.02067607                0.01511431               -0.06924340               -0.05485127                0.14996526                0.05316900                0.06555974               -0.07734200
               4.00379395                8.99112587               15.02164703                0.01000000               -0.13147781               -0.03489727                0.15783114                0.10243200                0.19430190               -0.08440637
               5.00210520                8.99178080               15.02372582                0.01000000               -0.19092818               -0.00275245                0.17884599                0.07846747                0.27689234               -0.00433862
               5.99997539                8.99349643               15.02683008                0.01120133               -0.20854965                0.02649159                0.19356188                0.08054144                0.29588164                0.06378645
               6.99793421                8.99594608               15.02964550                0.01000002               -0.23386233                0.03428409                0.20232983                0.20164398                0.33015209                0.03923288
               7.99529814                9.00027501               15.03355111                0.45487023               -0.16680362                0.09036502                0.23459661                0.13509680                0.18244900                0.15196876
               8.99459814                8.99940672               15.03369128                0.99999998               -0.06953521               -0.06949751                0.23155187                0.00009630               -0.00431159                0.00487191
               9.99390744                8.99852331               15.03386039                0.98872253               -0.06907022               -0.06849291                0.22850212                0.00065933               -0.00282205               -0.00477694
               0.00715410                9.99399792               15.02286107                1.00000000               -0.04510401               -0.04424663                0.14983798                0.00049277                0.01178433                0.01196508
               1.00670306                9.99290876               15.02239956                0.99962407               -0.04523244               -0.04467837                0.15067499               -0.00006438                0.01174556                0.00031963
               2.00624945                9.99183092               15.02193918                0.70123036               -0.04591417               -0.04497751                0.15155631                0.00029752                0.01568931               -0.01104680
               3.00578478                9.99077344               15.02155925                0.21601822               -0.09943497               -0.04563198                0.15411268                0.06221989                0.05676629               -0.00286072
               4.00426075                9.99097529               15.02192404                0.24941852               -0.23200456               -0.01505808                0.16310298                0.11260953                0.18618445               -0.05328301
               5.00114469                9.99209203               15.02458288                0.29636350               -0.29757730                0.03112313                0.17860000                0.03907636                0.28044478                0.02299788
               5.99830921                9.99367785               15.02749621                0.36360546               -0.23681506                0.01814244                0.19861745                0.04056885                0.24114033                0.02540824
               6.99640838                9.99623577               15.02995981                0.48537914               -0.10771309                0.02896886                0.19795898                0.14240153                0.25507014                0.01872043
               7.99615494                9.99957753               15.03316554                0.98407633               -0.04694457               -0.06974749                0.23030855                0.20979288                0.15738058                0.00200583
               8.99546949                9.99871802               15.03337714                0.98872337               -0.06810462               -0.06887025                0.22729695                0.00049133                0.00553357                0.00284875
               9.99479285                9.99784465               15.03354723                0.99781990               -0.06766413               -0.06786613                0.22424650                0.00120477                0.00336868               -0.00322506
              -0.00148762               -0.00289412               16.01745330                0.91449014               -0.03326019               -0.03343765                0.10985198                0.00101703               -0.00451725                0.00450606
               0.99817978               -0.00342292               16.01791365                0.64273538               -0.03356704               -0.03446349                0.11269576                0.00062921               -0.00552300               -0.00346910
               1.99784104               -0.00393452               16.01835273                0.39662695               -0.03465919               -0.03528704                0.11572120                0.00107475               -0.00303179               -0.00148831
               2.99748659               -0.00441783               16.01885757                0.36235303               -0.03722106               -0.03632673                0.12031695                0.00099155                0.00327339               -0.00074718
               3.99709662               -0.00488615               16.01940181                0.43255522               -0.03970633               -0.03763991                0.12504833                0.00134826                0.00571548               -0.00002749
               4.99669246               -0.00536359               16.01992988                0.56120632               -0.04040459               -0.03898620                0.12847209                0.00127015                0.00437956                0.00019741
               5.99628852               -0.00585041               16.02043461                0.76282974               -0.04039080               -0.04006440                0.13124255                0.00093284                0.00230848                0.00034427
               6.99588465               -0.00633556               16.02091715                0.99925695               -0.04059365               -0.04097738                0.13390739                0.00064746                0.00004553                0.00032681
               7.99547665               -0.00680999               16.02137610                0.99999999               -0.04114655               -0.04183156                0.13662105                0.00044832               -0.00186500                0.00101176
               8.99506172               -0.00726976               16.02182114                1.00000000               -0.04183177               -0.04268946                0.13928692                0.00042132               -0.00241300                0.00019819
               9.99464001               -0.00771170               16.02227063                0.99999999               -0.04217029               -0.04356428                0.14204342               -0.00051202               -0.00232405               -0.00286244
              -0.00094865                0.99677150               16.01812767                0.64437214               -0.03450788               -0.03381097                0.11348095                0.00057055                0.00332539                0.00548022
               0.99870627                0.99623245               16.01858729                0.01000000               -0.03510559               -0.03540554                0.11630153                0.00043737                0.00710406               -0.00766905
               1.99834924                0.99571261               16.01912259                0.01000000               -0.03669738               -0.03412922                0.11972107                0.01012205                0.01284742               -0.00681878
               2.99797232                0.99521891               16.01970023                0.01000001               -0.03831275               -0.03452787                0.12480962                0.01817399                0.01549086               -0.00587859
               3.99758298                0.99473745               16.02029973                0.01000000               -0.03925142               -0.03382101                0.13002963                0.02249097                0.01429454               -0.00513075
               4.99718729                0.99424655               16.02086473                0.01000000               -0.03995722               -0.03181232                0.13380846                0.02211650                0.01082938               -0.00244304
               5.99678384                0.99374895               16.02139991                0.01000001               -0.04081885               -0.02532508                0.13682512                0.01308196                0.00797566                0.00207422
               6.99637092                0.99325466               16.02190968                0.28652116               -0.04178015               -0.04178786                0.13966439                0.00054934                0.00584334                0.00280067
               7.99594823                0.99277169               16.02240277                0.85609140               -0.04270652               -0.04270604                0.14252240                0.00017713                0.00356425                0.00254949
               8.99551679                0.99230334               16.02286723                1.00000000               -0.04356998               -0.04359315                0.14530760                0.00001497                0.00122745                0.00018821
               9.99507683                0.99185265               16.02331422                0.99999998               -0.04399516               -0.04446018                0.14808616               -0.00094956                0.00028905               -0.00296395
              -0.00039809                1.99642966               16.01882011                0.39927401               -0.03544859               -0.03340755                0.11761264                0.00138389                0.00130343                0.00203323
               0.99924742                1.99586897               16.01917714                0.01000000               -0.02724458               -0.03981789                0.12002083                0.00422757                0.01389521               -0.01691179
               1.99905701                1.99538289               16.01978540                0.01000001               -0.02110954               -0.04039904                0.12746948                0.02230504                0.03058150               -0.01382325
               2.99882523                1.99489162               16.02044062                0.01000000               -0.02691092               -0.04040693                0.13319012                0.03710428                0.03391944               -0.01093229
               3.99851880                1.99443743               16.02109561                0.01000000               -0.03509680               -0.03364896                0.13766199                0.05316545                0.03309426               -0.00459350
               4.99812329                1.99400016               16.02174668                0.01000001               -0.04883759               -0.02601393                0.14227026                0.05987546                0.03038467               -0.00598186
               5.99754204                1.99364309               16.02240006                0.01174932               -0.06252001               -0.00960803                0.14535649                0.03191894                0.02128541                0.00742956
               6.99687289                1.99282868               16.02295231                0.01668779               -0.05552650               -0.02277769                0.14584687                0.00858433                0.01144303                0.01385392
               7.99643151                1.99233589               16.02346130                0.01000001               -0.04459195               -0.01916990                0.14853866                0.01258591                0.00656463                0.01036751
               8.99598105                1.99185837               16.02391487                0.09649152               -0.04545575               -0.04494788                0.15134529                0.00054517                0.00331967                0.00025430
               9.99552240                1.99139909               16.02435822                0.70441612               -0.04586548               -0.04617208                0.15413738               -0.00104695                0.00282182               -0.00537454
               0.00020041                2.99610335               16.01941925                0.36546310               -0.03628204               -0.03158727                0.12311794                0.00073056                0.00000001               -0.00237023
               0.99983759                2.99543609               16.01966899                0.01000001               -0.02138609               -0.04709045                0.12530548                0.00633914                0.02321457               -0.02376580
               1.99977269                2.99490463               16.02038344                0.01000000               -0.00888586               -0.05389260                0.13332144                0.02365949                0.05009686               -0.01950207
               2.99965987                2.99441077               16.02111570                0.01000000               -0.01174710               -0.05255383                0.13772802                0.04362347                0.05573012               -0.01392782
               3.99953775                2.99406447               16.02188890                0.01248928               -0.02403675               -0.04542944                0.13942750                0.05598841                0.04926890               -0.01075827
               4.99917914                2.99372627               16.02247920                0.01000000               -0.04720249               -0.03118669                0.14430145                0.07095570                0.05326550               -0.00203898
               5.99859370                2.99355679               16.02338967                0.01000000               -0.06646647               -0.01023435                0.15503355                0.06502588                0.05750468                0.01580197
               6.99784981                2.99279911               16.02416541                0.01000000               -0.07117189                0.03515711                0.12755669                0.05998175                0.02978333                0.01750837
               7.99717026                2.99238829               16.02464409                0.01365119               -0.06926632                0.03088411                0.13347407                0.03198359                0.00188931                0.00813644
               8.99646448                2.99140438               16.02496249                0.01465724               -0.05979015               -0.00012563                0.15969453               -0.00042123               -0.00334500                0.00781983
               9.99597446                2.99092921               16.02535442                0.21572675               -0.04900260               -0.00476602                0.16226238               -0.01233538                0.00081004                0.00475258
               0.00095105                3.99579792               16.02000230                0.43726244               -0.03781184               -0.03190237                0.12843271               -0.00231634               -0.00126178                0.00207172
               1.00057293                3.99492716               16.02013053                0.01000000               -0.01977633               -0.05013360                0.13045326                0.00852404                0.03185305               -0.02134422
               2.00055552                3.99430504               16.02092109                0.01000000               -0.00175375               -0.06382555                0.13802357                0.02528128                0.06954727               -0.02965628
               3.00053786                3.99384054               16.02173619                0.01249027               -0.01162281               -0.06079034                0.14021462                0.04141576                0.06953374               -0.02225516
               4.00032307                3.99352884               16.02244886                0.01000000               -0.02438840               -0.05771633                0.14169640                0.05487323                0.07208236               -0.02572236
               5.00005009                3.99337643               16.02330976                0.01000000               -0.02766736               -0.03806309                0.14690058                0.08518152                0.08691970                0.00467260
               5.99976972                3.99343840               16.02435262                0.01000000               -0.04045323               -0.00749929                0.15340365                0.11210289                0.08843552                0.02282064
               6.99924102                3.99353182               16.02525948                0.01339506               -0.06519037                0.03699296                0.16227372                0.08933582                0.05471244                0.01617424
               7.99846591                3.99295357               16.02572180                0.01151905               -0.09046564                0.04616390                0.16873386                0.02088135                0.02233702                0.02291773
               8.99743171                3.99185586               16.02615929                0.01000000               -0.11199380                0.10381740                0.17185447               -0.00703121                0.01107512                0.06208242
               9.99622604                3.99130377               16.02659998                0.24902916               -0.12056747                0.15938792                0.17516152               -0.05308345                0.00037927                0.09106572
               0.00189560                4.99546531               16.02066760                0.56967724               -0.03946484               -0.03503930                0.13246588               -0.00201826               -0.00151946                0.00955268
               1.00150095                4.99443342               16.02067601                0.01000000               -0.02653308               -0.04776331                0.13433054                0.00781305                0.03066431               -0.01436665
               2.00136493                4.99362811               16.02132783                0.01000001               -0.01182781               -0.06741791                0.14262831                0.02526292                0.07790333               -0.04585243
               3.00126439                4.99319496               16.02223102                0.01000000               -0.01328043               -0.07840818                0.14470302                0.04230700                0.08519773               -0.06219134
               4.00109933                4.99291014               16.02296128                0.01000000               -0.01455944               -0.06647570                0.14765184                0.06953641                0.10087046               -0.03496195
               5.00097320                4.99296501               16.02413020                0.01000000               -0.02094825               -0.04190848                0.15259923                0.10548028                0.12428772               -0.00280498
               6.00068036                4.99340680               16.02530593                0.01389174               -0.04259201               -0.01916957                0.15908490                0.09772927                0.09808389                0.00207472
               7.00012136                4.99353897               16.02598168                0.01212946               -0.07082560               -0.00363787                0.17004675                0.05247025                0.07147497                0.01054076
               7.99926385                4.99331157               16.02675423                0.01000000               -0.10738540                0.06831942                0.18228130                0.03267771                0.08981649                0.07837559
               8.99797365                4.99348073               16.02801433                0.01000000               -0.16234422                0.19858232                0.19029221                0.03253784                0.08359247                0.17010473
               9.99601696                4.99411697               16.02896062                0.29628056               -0.19566900                0.27923515                0.18698676                0.02633602                0.05204106                0.18436315
               0.00297447                5.99509713               16.02139029                0.77974032               -0.04080819               -0.03818886                0.13593523               -0.00105476               -0.00177114                0.01333515
               1.00256638                5.99397189               16.02127693                0.01000000               -0.03376155               -0.04507635                0.13761085                0.00329874                0.01820647               -0.01055315
               2.00229923                5.99295668               16.02156259                0.01175415               -0.02322074               -0.06450366                0.14296068                0.01081434                0.05300783               -0.07520427
               3.00210197                5.99227238               16.02212424                0.01000000               -0.01777412               -0.08414863                0.15352307                0.04613327                0.10721792               -0.09358947
               4.00194375                5.99219932               16.02339106                0.01000000               -0.02194676               -0.07102784                0.15244949                0.08585451                0.15078079               -0.04710901
               5.00166303                5.99253826               16.02476094                0.01389344               -0.03967053               -0.05062771                0.15897430                0.09247930                0.13724757               -0.03738042
               6.00115034                5.99305501               16.02571502                0.01240224               -0.06386868               -0.03687319                0.16777989                0.07337741                0.11443770               -0.02361435
               7.00038566                5.99345906               16.02672426                0.01000000               -0.09863190                0.02095291                0.18170776                0.05983769                0.14533650                0.06007357
               7.99917770                5.99431996               16.02851518                0.01000000               -0.15542958                0.14713323                0.19896292                0.06131425                0.18451736                0.20534377
               8.99727707                5.99582751               16.03062686                0.01121435               -0.18487118                0.22168465                0.19899459                0.04009233                0.12250103                0.22155117
               9.99548028                5.99688848               16.03145710                0.36374190               -0.17967884                0.22387219                0.19921332                0.01085388                0.04838758                0.21033655
               0.00412497                6.99470153               16.02212774                0.99999999               -0.04176020               -0.04036665                0.13887949               -0.00012307               -0.00162907                0.01429111
               1.00370737                6.99353189               16.02189660                0.31115360               -0.04221173               -0.04369291                0.14027639               -0.00228851               -0.01347986               -0.01013526
               2.00328074                6.99233804               16.02142796                0.01669480               -0.03814778               -0.05247561                0.14150710                0.00666961                0.02780850               -0.05927133
               3.00294441                6.99151199               16.02202230                0.01000000               -0.03651010               -0.06016139                0.11491184                0.04307958                0.12951803               -0.06765617
               4.00255054                6.99148959               16.02366958                0.01340025               -0.04886578               -0.07144551                0.15847894                0.08127612                0.16974257               -0.08002150
               5.00196710                6.99195245               16.02488044                0.01213540               -0.06617171               -0.05882367                0.16671669                0.08773955                0.15059825               -0.06786275
               6.00122710                6.99266934               16.02613011                0.01000000               -0.09569632               -0.02352689                0.18028430                0.09397009                0.18873619                0.01148427
               7.00005317                6.99395803               16.02824708                0.01000000               -0.15527051                0.09364995                0.19937006                0.12026362                0.27618695                0.17183681
               7.99812169                6.99625424               16.03152902                0.01163123               -0.19230956                0.17577844                0.20588151                0.08034027                0.22931190                0.21610895
               8.99620698                6.99791442               16.03293583                0.01000000               -0.20047933                0.23217112                0.20790571               -0.07327613                0.08619578                0.28567267
               9.99411210                6.99859441               16.03360534                0.48360128               -0.20948767                0.13138705                0.20432362               -0.06751989                0.03371152                0.25005799
               0.00531129                7.99428980               16.02286811                0.99999998               -0.04271840               -0.04188364                0.14184645                0.00044167               -0.00303845                0.01612084
               1.00488410                7.99309804               16.02250386                0.89295181               -0.04293798               -0.04357987                0.14319877               -0.00058243               -0.00792031               -0.00685499
               2.00445253                7.99190717               16.02204251                0.01000704               -0.05360421               -0.04352858                0.14470599                0.01632791                0.03248788               -0.01795874
               3.00381202                7.99106915               16.02248771                0.01365979               -0.06618562               -0.06074393                0.13099838                0.05543392                0.10194113               -0.08141678
               4.00312881                7.99077041               16.02351816                0.01153068               -0.07869727               -0.06336783                0.16028042                0.09732820                0.15723059               -0.11356488
               5.00223807                7.99136178               16.02497549                0.01000000               -0.10523230               -0.04597567                0.17629034                0.10696687                0.21306035               -0.04688812
               6.00102417                7.99258448               16.02720872                0.01000000               -0.15160181                0.01723864                0.19584411                0.13743552                0.31303234                0.07587593
               6.99920604                7.99533206               16.03089214                0.01168050               -0.20980281                0.09241647                0.20443981                0.15448115                0.30022736                0.15052073
               7.99682811                7.99783552               16.03306137                0.01000002               -0.28673340                0.22238447                0.21398851                0.10660645                0.26489997                0.22623588
               8.99347137                8.00047093               16.03631988                0.43304496               -0.20291035                0.09281731                0.23520523               -0.00553485                0.15045933                0.19174178
               9.99276990                7.99951622               16.03653012                0.95969969               -0.07014632                0.01157010                0.23225139               -0.11481148               -0.00180183                0.15907929
               0.00651733                8.99386386               16.02364210                1.00000000               -0.04389788               -0.04344536                0.14594058                0.00062163               -0.00002493                0.01498977
               1.00607835                8.99266029               16.02318884                0.99999999               -0.04405727               -0.04427986                0.14708044               -0.00011800               -0.00012033               -0.00131116
               2.00563618                8.99146747               16.02273550                0.09928161               -0.04442497               -0.04453963                0.14833339                0.00037077               -0.00533810               -0.01266584
               3.00518985                8.99029711               16.02217974                0.01474294               -0.07158586               -0.06133855                0.14975514                0.06500528                0.07090760               -0.06466218
               4.00420446                8.99022223               16.02325369                0.01000000               -0.14487372               -0.03165612                0.16144368                0.11103838                0.20841326               -0.09048308
               5.00229237                8.99103294               16.02555958                0.01000000               -0.20994664                0.00384138                0.18492450                0.08663019                0.29503404               -0.00543670
               6.00000553                8.99301411               16.02877343                0.01135007               -0.22003146                0.03316462                0.19554775                0.09091288                0.31096036                0.06447827
               6.99789175                8.99580636               16.03167856                0.01000002               -0.24452887                0.03935175                0.20511256                0.23036398                0.35358829                0.03951484
               7.99511495                9.00070192               16.03589580                0.45438600               -0.17380763                0.10845098                0.23436366                0.15858453                0.19953879                0.16503735
               8.99441559                8.99977077               16.03600597                0.99999998               -0.06948269               -0.06944880                0.23139533                0.00008967               -0.00431192                0.00491094
               9.99372530                8.99882582               16.03614500                0.98851295               -0.06902922               -0.06847130                0.22842130                0.00059589               -0.00283019               -0.00476697
               0.00773085                9.99342089               16.02436093                0.99999999               -0.04527204               -0.04429664                0.15033304                0.00050700                0.01198427                0.01211642
               1.00727813                9.99221244               16.02390852                0.99999998               -0.04538635               -0.04478522                0.15118383               -0.00024770                0.01192968                0.00029602
               2.00682312                9.99101638               16.02345766                0.70241156               -0.04603819               -0.04510925                0.15204130                0.00019091                0.01678526               -0.01132704
               3.00635736                9.98984238               16.02310491                0.21587136               -0.11046833               -0.04547325                0.15405446                0.07279719                0.06359393               -0.00271730
               4.00461375                9.99013729               16.02359258                0.24925058               -0.25892856               -0.00849373                0.16786631                0.12074064                0.20038331               -0.05272312
               5.00117879                9.99143861               16.02640759                0.29630483               -0.32723743                0.04056743                0.18380383                0.04416562                0.29849770                0.01695905
               5.99806901                9.99324777               16.02947851                0.36375627               -0.25266456                0.02336562                0.19843814                0.04037174                0.25483061                0.02660142
               6.99612550                9.99611910               16.03194462                0.48572341               -0.10168093                0.03127422                0.20100507                0.16121446                0.27194177                0.01626696
               7.99603539               10.00000454               16.03546941                0.98346571               -0.03881159               -0.06973802                0.23047847                0.24018600                0.17487101                0.00200209
               8.99534927                9.99908195               16.03565130                0.98851369               -0.06818275               -0.06888179                0.22753695                0.00047996                0.00556249                0.00285905
               9.99467173                9.99814679               16.03579129                0.99797522               -0.06775374               -0.06790256                0.22456128                0.00112687                0.00337860               -0.00323181
              -0.00200811               -0.00354015               17.01855138                0.91456037               -0.03319881               -0.03336431                0.10974079                0.00103669               -0.00467380                0.00476303
               0.99765990               -0.00414967               17.01904029                0.64317448               -0.03341052               -0.03447295                0.11262272                0.00070731               -0.00559677               -0.00355787
               1.99732367               -0.00473948               17.01950946                0.39689579               -0.03403190               -0.03527202                0.11563813                0.00139717               -0.00230442               -0.00154086
               2.99697926               -0.00529041               17.02005940                0.36193772               -0.03607997               -0.03634999                0.12008029                0.00112597                0.00479198               -0.00075545
               3.99660208               -0.00580915               17.02065119                0.43155154               -0.03872827               -0.03764374                0.12483289                0.00116460                0.00672571               -0.00001343
               4.99620469               -0.00632312               17.02121441                0.55986592               -0.03994659               -0.03897858                0.12841816                0.00115069                0.00449470                0.00020561
               5.99580314               -0.00684014               17.02174754                0.76163175               -0.04024948               -0.04007309                0.13132849                0.00088714                0.00207790                0.00035413
               6.99539970               -0.00735356               17.02225714                0.99915212               -0.04058792               -0.04100619                0.13408660                0.00063887               -0.00019907                0.00034093
               7.99499139               -0.00785594               17.02274363                0.99999999               -0.04120145               -0.04188850                0.13689061                0.00045794               -0.00208774                0.00103639
               8.99457568               -0.00834388               17.02321606                1.00000000               -0.04193787               -0.04277800                0.13968679                0.00043373               -0.00260214                0.00021112
               9.99415263               -0.00881454               17.02369381                0.99999999               -0.04230477               -0.04368692                0.14256476               -0.00045949               -0.00246523               -0.00295530
              -0.00138823                0.99612621               17.01926194                0.64472100               -0.03451348               -0.03362640                0.11336962                0.00066002                0.00348430                0.00597060
               0.99826664                0.99550561               17.01974992                0.01000000               -0.03518769               -0.03548504                0.11623483                0.00068565                0.00754066               -0.00771131
               1.99790802                0.99490780               17.02031912                0.01000000               -0.03706402               -0.03314967                0.11961718                0.01197447                0.01435629               -0.00523586
               2.99752536                0.99434609               17.02094656                0.01000001               -0.03889705               -0.03249558                0.12450249                0.02151571                0.01789923               -0.00435722
               3.99713008                0.99381441               17.02159829                0.01000000               -0.03968299               -0.03084033                0.12969529                0.02646807                0.01607815               -0.00423627
               4.99673170                0.99328710               17.02220185                0.01000000               -0.04014202               -0.02859557                0.13360175                0.02560290                0.01149284               -0.00128930
               5.99632724                0.99275913               17.02276778                0.01000001               -0.04088511               -0.02193731                0.13673412                0.01546301                0.00812517                0.00287888
               6.99591399                0.99223638               17.02330627                0.28527325               -0.04180555               -0.04178984                0.13964820                0.00048242                0.00588820                0.00302264
               7.99549112                0.99172517               17.02382827                0.85644109               -0.04273414               -0.04272864                0.14258135                0.00015267                0.00358361                0.00262727
               8.99505931                0.99122834               17.02432116                1.00000000               -0.04362151               -0.04364316                0.14547350                0.00000680                0.00121144                0.00020830
               9.99461869                0.99074859               17.02479649                1.00000000               -0.04406164               -0.04454385                0.14835709               -0.00091399                0.00026939               -0.00305060
              -0.00075370                1.99578733               17.01999516                0.39938550               -0.03542766               -0.03274871                0.11742083                0.00174352                0.00137763                0.00337982
               0.99889202                1.99514063               17.02037664                0.01000000               -0.02618100               -0.04010172                0.11991089                0.00602118                0.01621976               -0.01615428
               1.99872268                1.99459753               17.02105466                0.01000001               -0.01945276               -0.03900883                0.12648310                0.02790482                0.03476285               -0.01099661
               2.99850296                1.99405968               17.02176220                0.01000000               -0.02661219               -0.03717204                0.13168479                0.04553260                0.03701325               -0.00846963
               3.99819043                1.99357404               17.02246102                0.01000000               -0.03654642               -0.02815778                0.13625157                0.06298202                0.03604179               -0.00388493
               4.99777204                1.99310497               17.02315921                0.01000001               -0.05136553               -0.01953815                0.14066945                0.06912113                0.03308581               -0.00496413
               5.99716312                1.99272111               17.02383863                0.01161545               -0.06643638               -0.00265442                0.14352595                0.03833226                0.02346031                0.01109059
               6.99644331                1.99181065               17.02440958                0.01651436               -0.05803223               -0.01854210                0.14560342                0.01196279                0.01100861                0.00924268
               7.99600248                1.99128949               17.02494584                0.01000000               -0.04454580               -0.01520354                0.14837284                0.01275380                0.00661450                0.00664912
               8.99555239                1.99078326               17.02542788                0.09622890               -0.04543136               -0.04491170                0.15126472                0.00041084                0.00342233                0.00107234
               9.99509385                1.99029458               17.02589958                0.70431087               -0.04585423               -0.04616257                0.15414663               -0.00090478                0.00291408               -0.00475936
              -0.00005998                2.99547124               17.02064828                0.36487410               -0.03631673               -0.03050170                0.12271690                0.00091825                0.00005051               -0.00048153
               0.99957686                2.99470357               17.02092032                0.01000001               -0.01964795               -0.04741202                0.12499088                0.00930823                0.02577222               -0.02223751
               1.99954707                2.99412763               17.02170762                0.01000000               -0.00586814               -0.05378618                0.13192346                0.03099787                0.05466217               -0.01778441
               2.99945949                2.99360265               17.02248571                0.01000000               -0.01013198               -0.05121878                0.13700061                0.05431910                0.05854972               -0.01358290
               3.99934443                2.99325126               17.02329938                0.01232203               -0.02462230               -0.04291555                0.14189564                0.06817551                0.05309750               -0.01174056
               4.99896705                2.99289634               17.02394718                0.01000000               -0.04781090               -0.02642587                0.14701895                0.08321755                0.05806249               -0.00325826
               5.99838821                2.99270604               17.02488469                0.01000000               -0.06910855               -0.00246082                0.14951473                0.07440653                0.05919895                0.01570802
               6.99758488                2.99186554               17.02558265                0.01000000               -0.08073103                0.04590122                0.14657008                0.06828386                0.03213233                0.02710937
               7.99677359                2.99142110               17.02611069                0.01337170               -0.07612244                0.03945161                0.15097400                0.03495830                0.00926402                0.02168148
               8.99606243                2.99033011               17.02655048                0.01435457               -0.05978186                0.00709660                0.15832683               -0.00256316                0.00146518                0.01218382
               9.99557795                2.98982534               17.02696896                0.21557774               -0.04844783                0.00445098                0.16102623               -0.01617117                0.00076920                0.00931160
               0.00079999                3.99517729               17.02128463                0.43606132               -0.03781963               -0.03103752                0.12803045               -0.00236873               -0.00127212                0.00333269
               1.00042179                3.99419239               17.02143353                0.01000000               -0.01782202               -0.05021212                0.13012888                0.01176843                0.03413797               -0.02038254
               2.00044355                3.99352180               17.02229097                0.01000000                0.00219601               -0.06473753                0.13657683                0.03300718                0.07371718               -0.02849618
               3.00046572                3.99303531               17.02315192                0.01232302               -0.00916458               -0.06167146                0.14213772                0.05183278                0.07259822               -0.02221855
               4.00026026                3.99271573               17.02390711                0.01000000               -0.02420562               -0.05853609                0.14713274                0.06799688                0.07609087               -0.02547712
               4.99998160                3.99257646               17.02481189                0.01000000               -0.02891054               -0.03551757                0.15197832                0.10192050                0.09268771                0.00407602
               5.99968205                3.99267190               17.02590229                0.01000000               -0.04438401                0.00003225                0.15690894                0.12497650                0.09456252                0.02374633
               6.99909392                3.99272867               17.02687613                0.01297475               -0.07224878                0.05063760                0.16411856                0.09703655                0.06022837                0.02606761
               7.99823707                3.99207852               17.02738984                0.01115855               -0.09985165                0.06262522                0.16897442                0.02878427                0.02733640                0.03717136
               8.99709689                3.99092519               17.02787750                0.01000000               -0.12285555                0.13004966                0.17236447               -0.00221521                0.01477223                0.07387027
               9.99577996                3.99038360               17.02835236                0.24888961               -0.13169274                0.18433677                0.17476689               -0.05332729                0.00246291                0.09803902
               0.00186244                4.99485049               17.02199120                0.56803074               -0.03947329               -0.03458804                0.13218545               -0.00205087               -0.00156154                0.00995528
               1.00146771                4.99369933               17.02201869                0.01000000               -0.02490747               -0.04761138                0.13411148                0.01070300                0.03321400               -0.01432109
               2.00136430                4.99283287               17.02274160                0.01000001               -0.00827444               -0.06867480                0.14064834                0.03207732                0.08259538               -0.04671665
               3.00130222                4.99236922               17.02369036                0.01000000               -0.01005409               -0.07847257                0.14588868                0.05138910                0.08888049               -0.06204546
               4.00116321                4.99208053               17.02446189                0.01000000               -0.01264653               -0.06827914                0.15151306                0.08416050                0.10525202               -0.03401637
               5.00104929                4.99218598               17.02568151                0.01000000               -0.02138457               -0.04088436                0.15779497                0.12547895                0.13178891               -0.00091184
               6.00073552                4.99270668               17.02695357                0.01335053               -0.04651530               -0.01447900                0.16837616                0.11642757                0.10870030                0.00559772
               7.00011899                4.99287829               17.02774300                0.01161556               -0.07913858                0.00928894                0.17888210                0.06653851                0.08360859                0.01840355
               7.99915275                4.99267361               17.02862066                0.01000000               -0.12029750                0.09512151                0.18809518                0.04583274                0.09932252                0.09217666
               8.99771304                4.99293110               17.02992883                0.01000000               -0.17790857                0.23250610                0.19197246                0.03984073                0.08585039                0.18072799
               9.99559458                4.99351208               17.03083253                0.29621429               -0.21184572                0.31361295                0.18756569                0.02635526                0.04926916                0.19177718
               0.00306129                5.99448553               17.02274778                0.77792486               -0.04078221               -0.03796525                0.13569446               -0.00101784               -0.00180941                0.01345839
               1.00265347                5.99324017               17.02265161                0.01000000               -0.03230435               -0.04491748                0.13739994                0.00543612                0.01961945               -0.01089796
               2.00241520                5.99214831               17.02298402                0.01162021               -0.02038143               -0.06740699                0.14212655                0.01735670                0.05790987               -0.07822684
               3.00224584                5.99146586               17.02359396                0.01000000               -0.01442463               -0.08644961                0.14729536                0.05407900                0.11093819               -0.10146671
               4.00212671                5.99135015               17.02492418                0.01000000               -0.01904034               -0.07422255                0.15484533                0.09586222                0.15763820               -0.04794037
               5.00186503                5.99175877               17.02639882                0.01335220               -0.04042079               -0.05218531                0.16702070                0.11101192                0.14692541               -0.03421301
               6.00131829                5.99238232               17.02747043                0.01182416               -0.07036302               -0.03383217                0.17946145                0.09296632                0.12806705               -0.01669215
               7.00045777                5.99291445               17.02862058                0.01000000               -0.11086882                0.03602477                0.19378515                0.08110288                0.16246519                0.07265576
               7.99910092                5.99398095               17.03054856                0.01000000               -0.17012682                0.17364596                0.20559318                0.08054688                0.19497476                0.21481530
               8.99705523                5.99557531               17.03262675                0.01126597               -0.19778989                0.25030034                0.20092865                0.05077041                0.12513703                0.22869652
               9.99514512                5.99665586               17.03344583                0.36383281               -0.19101150                0.25314737                0.19944633                0.01778605                0.04992334                0.21679917
               0.00433282                6.99409118               17.02351850                0.99999999               -0.04191611               -0.04042882                0.13908955               -0.00007859               -0.00169555                0.01410386
               1.00391366                6.99280098               17.02330163                0.30942995               -0.04235384               -0.04375612                0.14054078               -0.00253389               -0.01392750               -0.01078236
               2.00348574                6.99148473               17.02284208                0.01652129               -0.03658461               -0.05478864                0.14154484                0.01000877                0.02264654               -0.06204063
               3.00318196                6.99064023               17.02335944                0.01000000               -0.03490977               -0.06905803                0.13985137                0.04976220                0.14234309               -0.07558525
               4.00278755                6.99059608               17.02523866                0.01297985               -0.04723005               -0.07661631                0.15910225                0.08976596                0.18614615               -0.08229448
               5.00223736                6.99114228               17.02659735                0.01162096               -0.06741885               -0.06142996                0.17396033                0.10427371                0.16466122               -0.06390331
               6.00143917                6.99203004               17.02800455                0.01000000               -0.10474749               -0.01800486                0.19129233                0.11729380                0.20726418                0.02221762
               7.00014241                6.99359879               17.03030780                0.01000000               -0.16681721                0.11072869                0.20913756                0.14823482                0.29122444                0.18103876
               7.99810282                6.99614653               17.03361068                0.01158735               -0.20444421                0.19736128                0.20976406                0.10106567                0.23683275                0.22260015
               8.99605353                6.99793711               17.03502975                0.01000002               -0.21568109                0.26486752                0.21094636               -0.06852157                0.08966401                0.30515961
               9.99378920                6.99857502               17.03566545                0.48388415               -0.22643269                0.16002865                0.20803955               -0.06564872                0.03248281                0.26949258
               0.00564012                7.99367695               17.02428567                0.99015129               -0.04308857               -0.04219080                0.14279529                0.00046919               -0.00276152                0.01608444
               1.00520923                7.99236504               17.02393557                0.89312916               -0.04319983               -0.04381602                0.14393471               -0.00068375               -0.00783610               -0.00728344
               2.00477612                7.99105254               17.02349086                0.01000000               -0.05397506               -0.04362549                0.14479596                0.01575350                0.03023800               -0.01860348
               3.00412973                7.99008469               17.02390550                0.01338015               -0.06780711               -0.06604548                0.14553260                0.06090187                0.11170378               -0.08298133
               4.00341998                7.98981782               17.02510210                0.01116985               -0.08065933               -0.06771484                0.16013186                0.11201509                0.17328569               -0.11565048
               5.00251655                7.99053017               17.02677489                0.01000000               -0.11061604               -0.04511544                0.18108210                0.12265908                0.23260102               -0.04287933
               6.00120766                7.99202222               17.02920621                0.01000000               -0.16052824                0.02430799                0.20178183                0.16176532                0.32844360                0.08044359
               6.99930598                7.99512902               17.03295871                0.01163435               -0.22118766                0.10425523                0.20824338                0.18235750                0.31243281                0.15199157
               7.99678391                7.99792817               17.03521685                0.01000002               -0.30248389                0.25105942                0.21693652                0.13011571                0.28302617                0.24168467
               8.99325630                8.00087266               17.03866925                0.43310190               -0.21137962                0.11182054                0.23468315                0.00687173                0.16160674                0.20639111
               9.99255632                7.99985644               17.03885033                0.95967250               -0.06999890                0.02958930                0.23179548               -0.11244352               -0.00181369                0.17392268
               0.00696602                8.99324736               17.02509978                1.00000000               -0.04416227               -0.04371859                0.14686513                0.00065362                0.00040247                0.01573464
               1.00652440                8.99192466               17.02465971                0.99999999               -0.04424313               -0.04448620                0.14769541                0.00002720                0.00020762               -0.00109691
               2.00608116                8.99061222               17.02422103                0.10011618               -0.04448420               -0.04462458                0.14856960                0.00036544               -0.00539060               -0.01315971
               3.00563472                8.98931932               17.02367117                0.01444514               -0.07493936               -0.06079686                0.14907490                0.07107812                0.07678567               -0.06313034
               4.00458237                8.98924179               17.02487590                0.01000000               -0.15742839               -0.02873910                0.16287647                0.12332025                0.22539221               -0.09098177
               5.00248615                8.99023997               17.02742431                0.01000000               -0.22533758                0.01025166                0.18699710                0.09932908                0.31300991               -0.00625624
               6.00007562                8.99251620               17.03074103                0.01139919               -0.23012691                0.03887494                0.19775460                0.10525216                0.32458370                0.06267916
               6.99788361                8.99568389               17.03374775                0.01000002               -0.25570618                0.04499760                0.20868128                0.26009236                0.37554225                0.03951480
               7.99496150                9.00116771               17.03823838                0.45388214               -0.18104545                0.12710846                0.23416711                0.18257046                0.21468047                0.17624331
               8.99426270                9.00017352               17.03831919                0.99999998               -0.06943544               -0.06940554                0.23125539                0.00008299               -0.00431657                0.00494919
               9.99357279                8.99916681               17.03842881                0.98841734               -0.06899121               -0.06845023                0.22834378                0.00053535               -0.00283896               -0.00476259
               0.00829861                9.99280258               17.02586773                0.99465347               -0.04536866               -0.04447821                0.15062186                0.00053204                0.01200895                0.01319124
               1.00784492                9.99147532               17.02542324                1.00000000               -0.04549183               -0.04493386                0.15152873               -0.00007499                0.01198968                0.00071405
               2.00738877                9.99016004               17.02498000                0.70344095               -0.04615919               -0.04521803                0.15241397                0.00043281                0.01712336               -0.01182025
               3.00692173                9.98886876               17.02464033                0.21576410               -0.12115146               -0.04505648                0.15342619                0.08285174                0.07120596               -0.00279138
               4.00496574                9.98924304               17.02528137                0.24911942               -0.28465105                0.00012542                0.16867315                0.13165896                0.21547616               -0.05097764
               5.00122871                9.99073520               17.02825896                0.29623478               -0.35484786                0.04952330                0.18562691                0.05209051                0.31450054                0.01159781
               5.99786878                9.99279972               17.03146497                0.36383262               -0.26861988                0.02835172                0.19919475                0.04400480                0.26737538                0.02709899
               6.99585632                9.99602898               17.03397991                0.48592599               -0.09615470                0.03450840                0.20598176                0.18080190                0.28915474                0.01535238
               7.99594569               10.00047034               17.03777511                0.98286543               -0.02987239               -0.06973718                0.23066703                0.27119804                0.18989055                0.00200155
               8.99525887                9.99948455               17.03792788                0.98841796               -0.06826228               -0.06889663                0.22778236                0.00047127                0.00558796                0.00287066
               9.99458044                9.99848743               17.03803846                0.99815325               -0.06784258               -0.06793782                0.22486897                0.00105323                0.00338918               -0.00323954
              -0.00255891               -0.00421999               18.01964812                0.91452660               -0.03313255               -0.03328772                0.10959015                0.00106258               -0.00482490                0.00498845
               0.99710976               -0.00491335               18.02016611                0.64344754               -0.03326302               -0.03447873                0.11253484                0.00077989               -0.00568740               -0.00364678
               1.99677583               -0.00558467               18.02066549                0.39714352               -0.03345357               -0.03526427                0.11557709                0.00169390               -0.00168209               -0.00159213
               2.99644069               -0.00620725               18.02125918                0.36166203               -0.03498504               -0.03637771                0.11989850                0.00124803                0.00621189               -0.00076827
               3.99607613               -0.00678061               18.02189846                0.43075974               -0.03773381               -0.03764986                0.12463026                0.00095783                0.00776691               -0.00000271
               4.99568602               -0.00733436               18.02249824                0.55872911               -0.03943910               -0.03896807                0.12834131                0.00100422                0.00469136                0.00021432
               5.99528735               -0.00788381               18.02306118                0.76056125               -0.04007213               -0.04007619                0.13138998                0.00082530                0.00189255                0.00036517
               6.99488457               -0.00842700               18.02359888                0.99903567               -0.04056857               -0.04103205                0.13425616                0.00062505               -0.00042760                0.00035554
               7.99447597               -0.00895854               18.02411391                0.99999999               -0.04125381               -0.04194351                0.13715924                0.00046770               -0.00228810                0.00105873
               8.99405950               -0.00947573               18.02461488                1.00000000               -0.04203784               -0.04285782                0.14006285                0.00044835               -0.00276046                0.00021951
               9.99363522               -0.00997617               18.02512192                0.99499499               -0.04242794               -0.04379574                0.14303811               -0.00040922               -0.00257570               -0.00304066
              -0.00185492                0.99544714               18.02039506                0.64491339               -0.03451730               -0.03345456                0.11325067                0.00074300                0.00362405                0.00639148
               0.99779991                0.99474186               18.02091199                0.01000000               -0.03526793               -0.03555852                0.11618307                0.00090512                0.00792270               -0.00777627
               1.99743972                0.99406269               18.02151494                0.01000000               -0.03743824               -0.03204353                0.11956531                0.01389966                0.01568854               -0.00405157
               2.99705114                0.99342897               18.02219028                0.01000001               -0.03952292               -0.03048346                0.12427690                0.02493239                0.02010734               -0.00314986
               3.99664926                0.99284289               18.02289363                0.01000000               -0.04017409               -0.02803791                0.12939161                0.03067398                0.01780303               -0.00341719
               4.99624766                0.99227596               18.02353677                0.01000000               -0.04036716               -0.02550435                0.13338216                0.02969596                0.01217549               -0.00053616
               5.99584192                0.99171543               18.02413459                0.01000001               -0.04097341               -0.01841011                0.13662472                0.01801288                0.00827713                0.00349234
               6.99542819                0.99116268               18.02470265                0.28418284               -0.04184502               -0.04179223                0.13962766                0.00039378                0.00591652                0.00322930
               7.99500502                0.99062202               18.02525439                0.85680551               -0.04276978               -0.04275039                0.14264393                0.00012690                0.00359498                0.00269925
               8.99457279                0.99009569               18.02577670                1.00000000               -0.04367280               -0.04368827                0.14562919                0.00000598                0.00119913                0.00022487
               9.99413156                0.98958587               18.02628136                1.00000000               -0.04412332               -0.04461970                0.14860726               -0.00087792                0.00025663               -0.00312784
              -0.00113350                1.99511092               18.02116852                0.39949184               -0.03541791               -0.03214437                0.11726626                0.00206831                0.00144008                0.00455352
               0.99851232                1.99437548               18.02157536                0.01000000               -0.02498902               -0.04037084                0.11985238                0.00786605                0.01809100               -0.01553671
               1.99836672                1.99377446               18.02231506                0.01000001               -0.01765925               -0.03750298                0.12581674                0.03342120                0.03810390               -0.00895684
               2.99815913                1.99318308               18.02307431                0.01000000               -0.02620472               -0.03397882                0.13103170                0.05360731                0.03963130               -0.00659162
               3.99784262                1.99265863               18.02382064                0.01000000               -0.03758661               -0.02296640                0.13585963                0.07307218                0.03826981               -0.00232692
               4.99740740                1.99215555               18.02456007                0.01000001               -0.05408697               -0.01337699                0.14002631                0.07983867                0.03468532               -0.00340858
               5.99676088                1.99174799               18.02527058                0.01152638               -0.07107720                0.00459324                0.14336861                0.04409446                0.02346071                0.01221742
               6.99598586                1.99073715               18.02586438                0.01639215               -0.06076895               -0.01439677                0.14536539                0.01383660                0.01071576                0.00968128
               7.99554550                1.99018645               18.02642875                0.01000000               -0.04450439               -0.01220495                0.14821576                0.01480203                0.00664075                0.00742684
               8.99509577                1.98965050               18.02694016                0.09604547               -0.04541061               -0.04486216                0.15119683                0.00038522                0.00350469                0.00156708
               9.99463729                1.98913144               18.02744115                0.70422838               -0.04584773               -0.04616051                0.15417168               -0.00084060                0.00298895               -0.00445123
              -0.00034267                2.99480425               18.02187359                0.36443698               -0.03636384               -0.02946355                0.12237694                0.00108546                0.00008743                0.00124882
               0.99929369                2.99393445               18.02216880                0.01000001               -0.01783915               -0.04771702                0.12473849                0.01227074                0.02793374               -0.02089255
               1.99930055                2.99331263               18.02302191                0.01000000               -0.00272903               -0.05366575                0.13121371                0.03798576                0.05853841               -0.01664017
               2.99923911                2.99274939               18.02385572                0.01000000               -0.00811567               -0.04957807                0.13698309                0.06427430                0.06204593               -0.01232541
               3.99913823                2.99238357               18.02472681                0.01220712               -0.02420165               -0.04009263                0.14296772                0.08006538                0.05657026               -0.01069846
               4.99875508                2.99200842               18.02541958                0.01000000               -0.04980147               -0.02159683                0.14761815                0.09624995                0.06029510               -0.00197814
               5.99814220                2.99180730               18.02637996                0.01000001               -0.07443077                0.00482317                0.15041086                0.08510883                0.05777857                0.01843972
               6.99726646                2.99087474               18.02709682                0.01000000               -0.08772457                0.05778339                0.15268543                0.07714055                0.03099025                0.03217283
               7.99638771                2.99037792               18.02766357                0.01315896               -0.08154737                0.05002837                0.15644711                0.03947383                0.01201041                0.02684884
               8.99563551                2.98919845               18.02812902                0.01410842               -0.06174163                0.01522032                0.15757204               -0.00231955                0.00150519                0.01739130
               9.99515288                2.98866266               18.02857495                0.21547094               -0.04826350                0.01347693                0.16037080               -0.01916418                0.00067429                0.01361765
               0.00062781                3.99452165               18.02256291                0.43507793               -0.03784559               -0.03014903                0.12763739               -0.00244914               -0.00128817                0.00451398
               1.00024935                3.99342114               18.02273311                0.01000000               -0.01581633               -0.05027677                0.12979649                0.01503143                0.03615587               -0.01955229
               2.00031148                3.99270114               18.02365263                0.01000000                0.00621617               -0.06559468                0.13599609                0.04075012                0.07799033               -0.02815689
               3.00037368                3.99219152               18.02457894                0.01220810               -0.00632889               -0.06186947                0.14284214                0.06191166                0.07666567               -0.02189328
               4.00018491                3.99185678               18.02539152                0.01000000               -0.02325040               -0.05854094                0.14891711                0.08035427                0.07999207               -0.02498498
               4.99990867                3.99172361               18.02634933                0.01000000               -0.02940869               -0.03242874                0.15462119                0.11749494                0.09682223                0.00556026
               5.99959673                3.99184445               18.02749080                0.01000000               -0.04753163                0.00716594                0.16030417                0.14099403                0.10039836                0.02951995
               6.99895804                3.99189282               18.02854185                0.01265906               -0.07927274                0.06439257                0.16807141                0.11012722                0.06658019                0.03737831
               7.99801128                3.99118702               18.02910128                0.01087530               -0.10966990                0.08092282                0.17204013                0.03694190                0.03065033                0.05133675
               8.99676464                3.98995491               18.02960658                0.01000000               -0.13428527                0.15737950                0.17315844                0.00286155                0.01643347                0.08691556
               9.99532557                3.98940098               18.03009532                0.24878205               -0.14390671                0.20981899                0.17416910               -0.05328986                0.00316623                0.10558748
               0.00180937                4.99420127               18.02331131                0.56659318               -0.03945421               -0.03413296                0.13188531               -0.00209616               -0.00160501                0.01030089
               1.00141483                4.99292891               18.02335824                0.01000000               -0.02320991               -0.04750687                0.13383849                0.01363203                0.03518927               -0.01440581
               2.00134517                4.99200073               18.02414080                0.01000001               -0.00465619               -0.07047408                0.13982805                0.03933462                0.08659472               -0.04782508
               3.00132170                4.99151200               18.02514879                0.01000000               -0.00659754               -0.08087722                0.14630088                0.06094544                0.09345764               -0.06349505
               4.00121322                4.99121275               18.02599154                0.01000000               -0.01021997               -0.06965173                0.15376949                0.09772957                0.11093387               -0.03412652
               5.00111730                4.99135984               18.02728610                0.01000000               -0.02101728               -0.03927286                0.16207808                0.14422453                0.14031966                0.00280807
               6.00079288                4.99195061               18.02867346                0.01294146               -0.04954319               -0.00871342                0.17376285                0.13479731                0.11938111                0.01295443
               7.00012644                4.99216259               18.02955932                0.01121193               -0.08642054                0.02272796                0.18302721                0.08222799                0.09335082                0.02957425
               7.99906446                4.99199638               18.03051614                0.01000000               -0.13238261                0.12196139                0.19051960                0.06215942                0.10668615                0.10729179
               8.99747879                4.99234604               18.03185378                0.01000000               -0.19347587                0.26728052                0.19275536                0.04902831                0.08738945                0.19159644
               9.99519495                4.99285904               18.03271194                0.29614810               -0.22838417                0.34952832                0.18840296                0.02705183                0.04675072                0.19974665
               0.00313060                5.99383899               18.02410418                0.77625196               -0.04080710               -0.03777782                0.13560208               -0.00102690               -0.00187164                0.01337868
               1.00272253                5.99247100               18.02402493                0.01000000               -0.03077594               -0.04483112                0.13729603                0.00715420                0.02110000               -0.01148105
               2.00251508                5.99129166               18.02440512                0.01153104               -0.01709795               -0.07051715                0.14237393                0.02168291                0.06122976               -0.08208735
               3.00238057                5.99057397               18.02507014                0.01000001               -0.01117116               -0.09116276                0.14850468                0.06225385                0.11666891               -0.10827738
               4.00229166                5.99046375               18.02648797                0.01000000               -0.01626390               -0.07734868                0.15776688                0.10932538                0.16747157               -0.04777313
               5.00205529                5.99093816               18.02810135                0.01294315               -0.04008671               -0.05307614                0.17192660                0.12917820                0.15946125               -0.03005465
               6.00148993                5.99167019               18.02930425                0.01137018               -0.07492321               -0.02863508                0.18506251                0.11391431                0.14228369               -0.00867602
               7.00055683                5.99234738               18.03059996                0.01000000               -0.12094504                0.05390370                0.19945939                0.10505790                0.17704411                0.08578458
               7.99907102                5.99362625               18.03262704                0.01000000               -0.18371428                0.20207825                0.20840770                0.10125318                0.20117594                0.22400943
               8.99688254                5.99530052               18.03464543                0.01125794               -0.21152153                0.28145395                0.20249215                0.06159969                0.12563109                0.23634638
               9.99484059                5.99639154               18.03544602                0.36388182               -0.20419498                0.28603587                0.20085460                0.02387326                0.05088164                0.22467371
               0.00452481                6.99344571               18.02490953                0.99999999               -0.04195694               -0.04043928                0.13928399               -0.00005929               -0.00171100                0.01446860
               1.00410524                6.99203229               18.02470742                0.30781907               -0.04244760               -0.04383609                0.14072408               -0.00278302               -0.01408313               -0.01109865
               2.00367586                6.99059039               18.02425885                0.01639904               -0.03552739               -0.05677539                0.14178408                0.01143656                0.02395897               -0.06486034
               3.00339469                6.98968875               18.02481933                0.01000000               -0.03201580               -0.07380916                0.14745449                0.05648305                0.15041790               -0.08096599
               4.00303554                6.98966577               18.02685163                0.01266400               -0.04501317               -0.08217933                0.16281969                0.10215252                0.20148506               -0.08317299
               5.00249443                6.99029832               18.02835964                0.01121680               -0.06868037               -0.06304594                0.17761067                0.12214159                0.18100332               -0.06085859
               6.00166194                6.99137791               18.02995596                0.01000000               -0.11114469               -0.01066595                0.19660383                0.14308192                0.22639245                0.03101545
               7.00027154                6.99324067               18.03242983                0.01000000               -0.17627725                0.12922827                0.21311429                0.17736240                0.30303152                0.18665613
               7.99813639                6.99603795               18.03572430                0.01152997               -0.21630252                0.22076323                0.21215948                0.12207563                0.24171406                0.22751963
               8.99594549                6.99797511               18.03715476                0.01000002               -0.23230132                0.30043978                0.21364805               -0.06353535                0.09316048                0.32268560
               9.99349036                6.99857976               18.03776613                0.48407591               -0.24551221                0.19198825                0.21184371               -0.06299158                0.03235404                0.28733795
               0.00595626                7.99303021               18.02572402                0.99039252               -0.04340698               -0.04246118                0.14374834                0.00044243               -0.00316941                0.01688858
               1.00552219                7.99159428               18.02538256                0.89318851               -0.04344544               -0.04408044                0.14468600               -0.00090197               -0.00839741               -0.00733564
               2.00508735                7.99015615               18.02493843                0.01000000               -0.05436719               -0.04376293                0.14500491                0.01722814                0.03156603               -0.01924230
               3.00443485                7.98909779               18.02539836                0.01316722               -0.06811067               -0.06945404                0.15053448                0.06699988                0.11918039               -0.08350800
               4.00372514                7.98882016               18.02672080                0.01088614               -0.08244310               -0.07212230                0.16301138                0.12515370                0.19037857               -0.11812062
               5.00278599                7.98967724               18.02859713                0.01000000               -0.11579629               -0.04372907                0.18316059                0.14148581                0.25358876               -0.03928039
               6.00140921                7.99145687               18.03124436                0.01000000               -0.16709716                0.03155068                0.20439298                0.18832708                0.34419222                0.08169100
               6.99944404                7.99493195               18.03505700                0.01157478               -0.23155615                0.11673930                0.21066989                0.21091741                0.32324825                0.15133266
               7.99677809                7.99804151               18.03740010                0.01000002               -0.31870101                0.28152960                0.21923604                0.15390476                0.29894125                0.25481290
               8.99307002                8.00130931               18.04101354                0.43313641               -0.22033100                0.13180064                0.23418198                0.01915700                0.17108131                0.21903757
               9.99237147                8.00023131               18.04116603                0.95965880               -0.06985520                0.04813412                0.23134793               -0.10985521               -0.00182374                0.18631795
               0.00740551                8.99259649               18.02657940                1.00000000               -0.04442565               -0.04406950                0.14780874                0.00060651               -0.00019479                0.01573379
               1.00696126                8.99115068               18.02614275                0.99999999               -0.04442992               -0.04473059                0.14834470                0.00010505               -0.00024658               -0.00141141
               2.00651691                8.98971513               18.02570689                0.10083594               -0.04452857               -0.04470655                0.14880772                0.00050641               -0.00579643               -0.01335782
               3.00607068                8.98829967               18.02516124                0.01420407               -0.07788726               -0.06247842                0.14923094                0.07767331                0.08341432               -0.06540070
               4.00495917                8.98822333               18.02651122                0.01000000               -0.16916209               -0.02566732                0.16403659                0.13517905                0.24450820               -0.09097593
               5.00268744                8.98942374               18.02929952                0.01000000               -0.23927000                0.01620139                0.18777558                0.11424032                0.33163938               -0.00641924
               6.00017377                8.99200893               18.03272852                0.01138760               -0.23911011                0.04425004                0.19940208                0.12190341                0.33861864                0.05963716
               6.99790524                8.99557545               18.03585218                0.01000002               -0.26683246                0.05149376                0.21174886                0.29070164                0.39607212                0.03991922
               7.99483712                9.00166854               18.04057914                0.45336416               -0.18832046                0.14648094                0.23399280                0.20714033                0.22793404                0.18578031
               8.99413883                9.00061113               18.04063108                0.99999998               -0.06939224               -0.06936644                0.23112812                0.00007805               -0.00432554                0.00498571
               9.99344927                8.99954244               18.04071187                0.98841357               -0.06895565               -0.06842946                0.22826869                0.00047638               -0.00284847               -0.00476183
               0.00886001                9.99214882               18.02737337                0.99499878               -0.04543590               -0.04476719                0.15087777                0.00053491                0.01253325                0.01253423
               1.00840565                9.99069967               18.02693909                1.00000000               -0.04557583               -0.04510113                0.15180792                0.00009975                0.01248910                0.00028433
               2.00794849                9.98926202               18.02650594                0.70437265               -0.04627662               -0.04531086                0.15272529                0.00058549                0.01748037               -0.01192300
               3.00748012                9.98784822               18.02617343                0.21569448               -0.13219206               -0.04514479                0.15356608                0.09318296                0.07862672               -0.00305086
               4.00530465                9.98830681               18.02696605                0.24901989               -0.30974616                0.00834868                0.16841370                0.14220054                0.23080301               -0.04981323
               5.00128520                9.99000127               18.03012012                0.29616260               -0.38045431                0.05775279                0.18642147                0.06152782                0.33064181                0.00745112
               5.99769557                9.99234187               18.03346240                0.36386274               -0.28433656                0.03329406                0.20040926                0.05020749                0.28089356                0.02710418
               6.99559846                9.99596182               18.03606426                0.48603086               -0.09051701                0.03863675                0.21044417                0.20078547                0.30582697                0.01531990
               7.99588523               10.00097113               18.04008275                0.98228361               -0.02003917               -0.06974088                0.23086787                0.30281871                0.20252436                0.00200338
               8.99519768                9.99992198               18.04020694                0.98841418               -0.06834285               -0.06891422                0.22803228                0.00046429                0.00561205                0.00288311
               9.99451837                9.99886272               18.04028867                0.99834543               -0.06793120               -0.06797251                0.22517114                0.00098259                0.00340002               -0.00324843
              -0.00314060               -0.00493428               19.02074318                0.91441719               -0.03306294               -0.03320909                0.10941323                0.00109158               -0.00496867                0.00518717
               0.99652877               -0.00571436               19.02129098                0.64357946               -0.03312179               -0.03448084                0.11243443                0.00084796               -0.00578730               -0.00373487
               1.99619696               -0.00647021               19.02182100                0.39734761               -0.03291225               -0.03525912                0.11552727                0.00197177               -0.00115058               -0.00164160
               2.99587053               -0.00716798               19.02245737                0.36147625               -0.03393068               -0.03640520                0.11975946                0.00136184                0.00751910               -0.00078437
               3.99551835               -0.00779954               19.02314380                0.43013248               -0.03673593               -0.03765681                0.12444819                0.00073495                0.00879941                0.00000511
               4.99513581               -0.00839589               19.02378123                0.55777031               -0.03889988               -0.03895662                0.12825525                0.00083735                0.00494821                0.00022322
               5.99474035               -0.00897967               19.02437534                0.75961827               -0.03986922               -0.04007613                0.13143435                0.00075062                0.00175608                0.00037666
               6.99433842               -0.00955397               19.02494226                0.99892099               -0.04053633               -0.04105556                0.13441257                0.00060652               -0.00062976                0.00036948
               7.99392963               -0.01011574               19.02548682                0.99999999               -0.04129848               -0.04199499                0.13741230                0.00047687               -0.00246579                0.00107810
               8.99351245               -0.01066313               19.02601732                1.00000000               -0.04212997               -0.04293157                0.14041221                0.00046345               -0.00289606                0.00022736
               9.99308703               -0.01119422               19.02655457                0.99526325               -0.04254260               -0.04389694                0.14347585               -0.00036128               -0.00266897               -0.00311166
              -0.00234960                0.99473363               19.02152696                0.64497284               -0.03451852               -0.03329260                0.11312430                0.00082079                0.00374812                0.00675398
               0.99730522                0.99394083               19.02207358                0.01000000               -0.03534544               -0.03562765                0.11613619                0.00110466                0.00825913               -0.00786027
               1.99694349                0.99317720               19.02271043                0.01000000               -0.03782040               -0.03091877                0.11954233                0.01579859                0.01685872               -0.00307948
               2.99654881                0.99246796               19.02343210                0.01000001               -0.04019210               -0.02847990                0.12411294                0.02830915                0.02209628               -0.00201023
               3.99613965                0.99182389               19.02418612                0.01000000               -0.04072823               -0.02530683                0.12912613                0.03491514                0.01942043               -0.00251289
               4.99573424                0.99121455               19.02486949                0.01000000               -0.04063745               -0.02250607                0.13316904                0.03378365                0.01284976                0.00033391
               5.99532690                0.99061957               19.02550027                0.01000001               -0.04108603               -0.01501210                0.13651284                0.02042991                0.00843307                0.00441735
               6.99491252                0.99003547               19.02609882                0.28324862               -0.04189654               -0.04179629                0.13960867                0.00028839                0.00593830                0.00342260
               7.99448897                0.98946431               19.02668115                0.85718914               -0.04280968               -0.04277093                0.14270526                0.00009847                0.00360034                0.00276249
               8.99405633                0.98890756               19.02723374                0.99999999               -0.04372308               -0.04372986                0.14577500                0.00000665                0.00118695                0.00023896
               9.99361451                0.98836681               19.02776863                1.00000000               -0.04418201               -0.04469052                0.14884107               -0.00084363                0.00024461               -0.00319390
              -0.00153858                1.99439987               19.02234048                0.39956876               -0.03541259               -0.03159036                0.11713533                0.00236821                0.00149269                0.00556940
               0.99810730                1.99357308               19.02277369                0.01000000               -0.02378105               -0.04064276                0.11982544                0.00967666                0.01970301               -0.01505570
               1.99798580                1.99291142               19.02357099                0.01000001               -0.01586412               -0.03599714                0.12550546                0.03883805                0.04104871               -0.00725380
               2.99779001                1.99226242               19.02438283                0.01000000               -0.02578661               -0.03082240                0.13078580                0.06148084                0.04210984               -0.00457466
               3.99747007                1.99169432               19.02517821                0.01000000               -0.03871073               -0.01787439                0.13575504                0.08319455                0.04020765               -0.00012259
               4.99701580                1.99115399               19.02595974                0.01000001               -0.05710215               -0.00735173                0.14006304                0.09056612                0.03579726               -0.00112148
               5.99632803                1.99072009               19.02670600                0.01146837               -0.07581751                0.01175191                0.14369884                0.04978744                0.02311332                0.01429733
               6.99549945                1.98961010               19.02731689                0.01630726               -0.06342591               -0.01019725                0.14514307                0.01586505                0.01006807                0.01158109
               7.99505951                1.98902884               19.02791016                0.01000000               -0.04446800               -0.00893826                0.14807165                0.01723965                0.00664539                0.00952919
               8.99461009                1.98846228               19.02845182                0.09592080               -0.04539278               -0.04480228                0.15113855                0.00039736                0.00357163                0.00191379
               9.99415165                1.98791197               19.02898301                0.70417390               -0.04584372               -0.04616411                0.15420229               -0.00077719                0.00305133               -0.00426855
              -0.00064866                2.99410183               19.02309582                0.36410110               -0.03641341               -0.02850087                0.12209828                0.00123546                0.00011199                0.00279885
               0.99898721                2.99312797               19.02341509                0.01000001               -0.01602095               -0.04805839                0.12455365                0.01516633                0.02994266               -0.01976654
               1.99903092                2.99245726               19.02433190                0.01000000                0.00041549               -0.05358152                0.13091900                0.04476305                0.06234479               -0.01558753
               2.99899552                2.99185152               19.02522537                0.01000000               -0.00594768               -0.04790251                0.13695702                0.07396357                0.06577138               -0.01067214
               3.99891197                2.99146641               19.02615873                0.01212861               -0.02378587               -0.03715109                0.14333580                0.09178193                0.05987530               -0.00864095
               4.99851980                2.99106751               19.02689954                0.01000000               -0.05227131               -0.01664241                0.14823995                0.10955846                0.06194948                0.00072675
               5.99786654                2.99085461               19.02789291                0.01000001               -0.07993632                0.01243532                0.15171899                0.09667427                0.05798785                0.02244488
               6.99692107                2.98983153               19.02863636                0.01000000               -0.09424766                0.07018154                0.15427412                0.08732661                0.03147803                0.03919240
               7.99598159                2.98928555               19.02923963                0.01299626               -0.08699594                0.06119206                0.15782666                0.04529109                0.01148938                0.03422846
               8.99518115                2.98801151               19.02970192                0.01390887               -0.06410024                0.02382341                0.15708373               -0.00102922               -0.00004316                0.02308122
               9.99469958                2.98744353               19.03017637                0.21539496               -0.04815698                0.02231995                0.15999607               -0.02109017                0.00064721                0.01800772
               0.00043384                3.99382985               19.02383738                0.43426376               -0.03786431               -0.02932967                0.12729569               -0.00253659               -0.00130847                0.00562490
               1.00005519                3.99261192               19.02402946                0.01000000               -0.01381570               -0.05042918                0.12952216                0.01823655                0.03814043               -0.01885863
               2.00015752                3.99183979               19.02501089                0.01000000                0.01024725               -0.06666884                0.13581134                0.04835820                0.08246963               -0.02792038
               3.00026014                3.99130437               19.02600876                0.01212953               -0.00339053               -0.06216974                0.14312158                0.07183176                0.08130638               -0.02136181
               4.00008971                3.99095130               19.02688545                0.01000000               -0.02206869               -0.05824260                0.14959574                0.09246969                0.08418961               -0.02385080
               4.99981876                3.99082114               19.02790432                0.01000001               -0.02961066               -0.02886955                0.15590031                0.13357320                0.10115082                0.00868846
               5.99949750                3.99096880               19.02910837                0.01000000               -0.05018592                0.01488580                0.16247631                0.15879832                0.10595213                0.03708837
               6.99881505                3.99101373               19.03023756                0.01242296               -0.08560771                0.07900663                0.17004702                0.12530691                0.07132198                0.04848912
               7.99778534                3.99025269               19.03083064                0.01065603               -0.11917593                0.10040692                0.17302148                0.04677196                0.03209906                0.06407179
               8.99643153                3.98893875               19.03134066                0.01000000               -0.14597614                0.18563358                0.17330080                0.00947775                0.01641686                0.10013053
               9.99486582                3.98835837               19.03183574                0.24870294               -0.15657056                0.23563871                0.17402385               -0.05235275                0.00296238                0.11401640
               0.00173648                4.99351523               19.02462890                0.56533577               -0.03944769               -0.03374892                0.13166224               -0.00215784               -0.00164147                0.01063928
               1.00134201                4.99211939               19.02469546                0.01000000               -0.02154243               -0.04752764                0.13365577                0.01639902                0.03717577               -0.01455083
               2.00130564                4.99112388               19.02553816                0.01000001               -0.00106867               -0.07256401                0.13983036                0.04628944                0.09106535               -0.04880883
               3.00132063                4.99060812               19.02661638                0.01000000               -0.00305250               -0.08372993                0.14711435                0.07069520                0.09886089               -0.06478253
               4.00124459                4.99030155               19.02753728                0.01000001               -0.00734333               -0.07083521                0.15499026                0.11186092                0.11760118               -0.03354254
               5.00117377                4.99049012               19.02892307                0.01000000               -0.01973327               -0.03685066                0.16444219                0.16349935                0.14962270                0.00770228
               6.00084992                4.99115233               19.03042883                0.01263507               -0.05152215               -0.00212517                0.17612205                0.15446982                0.12952804                0.02161051
               7.00014332                4.99141166               19.03140354                0.01090187               -0.09289527                0.03729512                0.18464934                0.10010878                0.10188282                0.04185603
               7.99899201                4.99129369               19.03243105                0.01000000               -0.14391483                0.15001436                0.19146100                0.08030758                0.11214000                0.12244056
               8.99726503                4.99172418               19.03378394                0.01000000               -0.20893647                0.30312582                0.19289161                0.05899796                0.08763206                0.20260417
               9.99481329                4.99215630               19.03460059                0.29609062               -0.24517421                0.38683888                0.18925688                0.02799880                0.04390205                0.20864878
               0.00318236                5.99315488               19.02545982                0.77472056               -0.04078372               -0.03772592                0.13556450               -0.00103382               -0.00191734                0.01345481
               1.00277453                5.99166136               19.02539753                0.01000000               -0.02938910               -0.04490068                0.13729060                0.00871480                0.02290484               -0.01196293
               2.00259458                5.99038850               19.02583150                0.01147299               -0.01390787               -0.07348296                0.14280654                0.02578880                0.06536780               -0.08546582
               3.00249637                5.98962977               19.02656406                0.01000001               -0.00748257               -0.09577149                0.14975604                0.07115051                0.12319736               -0.11200670
               4.00244493                5.98953460               19.02807952                0.01000000               -0.01291954               -0.08008816                0.15991354                0.12433553                0.17844421               -0.04696195
               5.00223798                5.99008413               19.02983735                0.01263672               -0.03897861               -0.05303967                0.17422537                0.14855134                0.17265543               -0.02566471
               6.00166536                5.99092630               19.03117168                0.01102175               -0.07810576               -0.02210426                0.18705103                0.13612074                0.15631069               -0.00041202
               7.00067586                5.99175963               19.03260977                0.01000000               -0.12931932                0.07316056                0.20101001                0.13090278                0.18987642                0.09847340
               7.99907897                5.99325297               19.03471672                0.01000000               -0.19634953                0.23150845                0.20865457                0.12308928                0.20545685                0.23273470
               8.99674887                5.99500126               19.03667659                0.01121576               -0.22587034                0.31492632                0.20341951                0.07260274                0.12524000                0.24476224
               9.99456156                5.99609514               19.03746292                0.36390839               -0.21873078                0.32227355                0.20237747                0.02940148                0.05150994                0.23383549
               0.00470283                6.99276071               19.02630418                0.99999999               -0.04201570               -0.04050080                0.13948270               -0.00006888               -0.00174527                0.01470420
               1.00428267                6.99122138               19.02611611                0.30637944               -0.04249121               -0.04391828                0.14092638               -0.00270704               -0.01428888               -0.01148620
               2.00385301                6.98965422               19.02567776                0.01631395               -0.03425623               -0.05844246                0.14198616                0.01341848                0.02663007               -0.06774929
               3.00359755                6.98869269               19.02630853                0.01000000               -0.02880364               -0.07785700                0.14940025                0.06400847                0.16051393               -0.08414895
               4.00327693                6.98869979               19.02849506                0.01242780               -0.04222264               -0.08693926                0.16498655                0.11602462                0.21589387               -0.08409032
               5.00275310                6.98942933               19.03014956                0.01090684               -0.06900517               -0.06397252                0.17943050                0.14186216                0.19795688               -0.05816133
               6.00189683                6.99071024               19.03193663                0.01000000               -0.11591975               -0.00214097                0.19819575                0.17059102                0.24511196                0.03839936
               7.00043470                6.99287487               19.03457008                0.01000000               -0.18423291                0.14868452                0.21365195                0.20764763                0.31356682                0.19077771
               7.99821217                6.99592386               19.03785387                0.01146488               -0.22798958                0.24583097                0.21313096                0.14375332                0.24587920                0.23238441
               8.99587491                6.99802271               19.03930271                0.01000002               -0.24993119                0.33879169                0.21547272               -0.05794780                0.09681327                0.33883586
               9.99321355                6.99860177               19.03990233                0.48420778               -0.26613616                0.22709537                0.21492121               -0.05942939                0.03309111                0.30345900
               0.00625966                7.99234486               19.02716064                0.99059443               -0.04327814               -0.04240102                0.14355901                0.00044362               -0.00335009                0.01725587
               1.00582688                7.99078300               19.02682929                0.89332600               -0.04340114               -0.04407422                0.14464524               -0.00079496               -0.00863081               -0.00755198
               2.00539164                7.98921966               19.02639096                0.01000000               -0.05479548               -0.04383337                0.14538424                0.01916835                0.03417508               -0.01976935
               3.00473097                7.98807263               19.02691619                0.01300439               -0.06814259               -0.07282244                0.15227253                0.07386383                0.12769017               -0.08713641
               4.00402878                7.98779581               19.02836233                0.01066729               -0.08330998               -0.07613841                0.16464090                0.13946832                0.20628246               -0.12088177
               5.00306477                7.98880468               19.03043810                0.01000000               -0.11985748               -0.04203668                0.18435753                0.16181006                0.27472050               -0.03680297
               6.00163163                7.99088348               19.03329407                0.01000000               -0.17247835                0.03903264                0.20481674                0.21635753                0.36000669                0.08148452
               6.99961520                7.99473332               19.03717211                0.01150758               -0.24127192                0.13000764                0.21176461                0.24029244                0.33396705                0.15037727
               7.99680620                7.99816959               19.03960158                0.01000002               -0.33516014                0.31384065                0.22061602                0.17864376                0.31336848                0.26651398
               8.99291200                8.00177710               19.04335289                0.43315157               -0.22956719                0.15285596                0.23369460                0.03180032                0.17937322                0.23010030
               9.99221485                8.00063705               19.04347729                0.95966042               -0.06971459                0.06735842                0.23090661               -0.10696981               -0.00183310                0.19652505
               0.00783543                8.99191269               19.02805596                1.00000000               -0.04434471               -0.04397634                0.14756136                0.00062776               -0.00036129                0.01601176
               1.00739198                8.99033989               19.02762661                0.99999999               -0.04443413               -0.04473404                0.14840043                0.00000532               -0.00033189               -0.00153526
               2.00694674                8.98877755               19.02719718                0.10157740               -0.04466557               -0.04480908                0.14919541                0.00043762               -0.00600561               -0.01365207
               3.00649867                8.98723624               19.02665579                0.01401009               -0.08062475               -0.06446383                0.14966440                0.08513331                0.09035823               -0.06879249
               4.00533425                8.98717702               19.02815664                0.01000000               -0.17985163               -0.02293446                0.16480400                0.14793373                0.26355788               -0.09185631
               5.00290164                8.98858859               19.03117982                0.01000000               -0.25194561                0.02191726                0.18802411                0.12971487                0.35058966               -0.00715741
               6.00029534                8.99149090               19.03472908                0.01134154               -0.24736006                0.04952794                0.20042705                0.13986575                0.35333902                0.05630671
               6.99795443                8.99547502               19.03798272                0.01000002               -0.27770300                0.05889487                0.21387492                0.32235393                0.41569863                0.04085446
               7.99474128                9.00220067               19.04291824                0.45283499               -0.19554887                0.16667937                0.23383480                0.23260490                0.23977039                0.19413830
               8.99404346                9.00107983               19.04294175                0.99999998               -0.06935188               -0.06933023                0.23100993                0.00007350               -0.00433803                0.00502110
               9.99335424                8.99994894               19.04299419                0.98848118               -0.06892177               -0.06840898                0.22819522                0.00041833               -0.00285857               -0.00476372
               0.00941782                9.99146533               19.02888529                0.99526704               -0.04556917               -0.04473600                0.15127995                0.00053735                0.01287122                0.01274416
               1.00896212                9.98988832               19.02845940                1.00000000               -0.04568883               -0.04515749                0.15217623               -0.00007853                0.01283191                0.00019603
               2.00850404                9.98832347               19.02803451                0.70524462               -0.04639793               -0.04540796                0.15305410                0.00048122                0.01788846               -0.01219429
               3.00803417                9.98678335               19.02771166                0.21565313               -0.14344661               -0.04528903                0.15404914                0.10423226                0.08586663               -0.00308993
               4.00563511                9.98733712               19.02864964                0.24894794               -0.33444863                0.01601024                0.16849626                0.15306946                0.24654226               -0.04945792
               5.00134519                9.98924303               19.03198739                0.29609615               -0.40462930                0.06544310                0.18701605                0.07120123                0.34732125                0.00358943
               5.99754252                9.99187403               19.03547316                0.36386545               -0.29963431                0.03831397                0.20165064                0.05812824                0.29555329                0.02684001
               6.99535251                9.99591122               19.03818879                0.48607064               -0.08445166                0.04361988                0.21394828                0.22126447                0.32195596                0.01594499
               7.99585349               10.00150318               19.04239246                0.98172310               -0.00936551               -0.06974887                0.23108003                0.33518453                0.21322731                0.00200668
               8.99516520               10.00039049               19.04248853                0.98848186               -0.06842449               -0.06893390                0.22828630                0.00045857                0.00563568                0.00289641
               9.99448500                9.99926887               19.04254188                0.99854423               -0.06801984               -0.06800681                0.22546994                0.00091402                0.00341127               -0.00325822
              -0.00375388               -0.00568379               20.02183638                0.91425022               -0.03299136               -0.03312944                0.10922102                0.00112156               -0.00510372                0.00536315
               0.99591620               -0.00655325               20.02241480                0.64359043               -0.03298458               -0.03448004                0.11232503                0.00091289               -0.00589047               -0.00382080
               1.99558642               -0.00739636               20.02297604                0.39749748               -0.03239654               -0.03525370                0.11548244                0.00223768               -0.00069480               -0.00168880
               2.99526827               -0.00817239               20.02365437                0.36134531               -0.03290831               -0.03642968                0.11965261                0.00147115                0.00871179               -0.00080274
               3.99492826               -0.00886514               20.02438743                0.42963118               -0.03574144               -0.03766346                0.12428932                0.00050132                0.00979814                0.00001012
               4.99455344               -0.00950641               20.02506335                0.55696393               -0.03834116               -0.03894537                0.12816844                0.00065553                0.00524784                0.00023150
               5.99416144               -0.01012615               20.02568987                0.75879984               -0.03964720               -0.04007439                0.13146546                0.00066550                0.00166809                0.00038740
               6.99376050               -0.01073273               20.02628713                0.99882136               -0.04049157               -0.04107634                0.13455215                0.00058356               -0.00080089                0.00038189
               7.99335160               -0.01132564               20.02686215                0.99999999               -0.04133391               -0.04204271                0.13764469                0.00048497               -0.00262085                0.00109412
               8.99293382               -0.01190403               20.02742312                1.00000000               -0.04221342               -0.04299991                0.14073597                0.00047831               -0.00301264                0.00023433
               9.99250734               -0.01246653               20.02799144                0.99546693               -0.04264855               -0.04399159                0.14388343               -0.00031621               -0.00274703               -0.00316934
              -0.00287321                0.99398491               20.02265755                0.64491836               -0.03451711               -0.03313794                0.11299177                0.00089501                0.00385904                0.00706831
               0.99678162                0.99310195               20.02323471                0.01000000               -0.03542068               -0.03569487                0.11608848                0.00129257                0.00855701               -0.00795701
               1.99641837                0.99225110               20.02390578                0.01000000               -0.03821217               -0.02978625                0.11953288                0.01767392                0.01788513               -0.00220030
               2.99601737                0.99146331               20.02467254                0.01000001               -0.04090467               -0.02646455                0.12399390                0.03164783                0.02386882               -0.00085949
               3.99560028                0.99075822               20.02547615                0.01000000               -0.04134369               -0.02256445                0.12890022                0.03912178                0.02090675               -0.00145284
               4.99519050                0.99010413               20.02620015                0.01000000               -0.04095172               -0.01952565                0.13297306                0.03784993                0.01349783                0.00146123
               5.99478125                0.98947311               20.02686485                0.01000001               -0.04122089               -0.01162760                0.13640583                0.02284691                0.00859170                0.00562593
               6.99436608                0.98885651               20.02749482                0.28246635               -0.04195708               -0.04180150                0.13959046                0.00016931                0.00595683                0.00359930
               7.99394211                0.98825393               20.02810850                0.85759489               -0.04285175               -0.04279017                0.14276248                0.00006679                0.00359951                0.00281550
               8.99350905                0.98766597               20.02869220                0.99999999               -0.04377175               -0.04376834                0.14591173                0.00000758                0.00117336                0.00025141
               9.99306667                0.98709356               20.02925818                1.00000000               -0.04423768               -0.04475726                0.14906155               -0.00081159                0.00023317               -0.00324717
              -0.00197006                1.99365345               20.02351123                0.39960352               -0.03540735               -0.03107920                0.11701850                0.00265180                0.00153742                0.00645073
               0.99767587                1.99273285               20.02397187                0.01000000               -0.02256976               -0.04093043                0.11981668                0.01146548                0.02117724               -0.01468828
               1.99757855                1.99200791               20.02482517                0.01000001               -0.01408805               -0.03450611                0.12539546                0.04421240                0.04381823               -0.00565551
               2.99739411                1.99129831               20.02569003                0.01000000               -0.02543379               -0.02766418                0.13070862                0.06929905                0.04456270               -0.00243167
               3.99706987                1.99068357               20.02653574                0.01000000               -0.03992763               -0.01273572                0.13576854                0.09330250                0.04213804                0.00255284
               4.99659555                1.99010307               20.02736133                0.01000001               -0.06019369               -0.00128814                0.14021357                0.10135631                0.03697747                0.00178018
               5.99586600                1.98964130               20.02814456                0.01143192               -0.08062454                0.01903597                0.14389567                0.05560320                0.02261131                0.01721928
               6.99498306                1.98843124               20.02876724                0.01624953               -0.06612588               -0.00592959                0.14493238                0.01802373                0.00909437                0.01397619
               7.99454348                1.98781855               20.02939019                0.01000000               -0.04443577               -0.00559608                0.14793917                0.01995964                0.00663104                0.01200302
               8.99409435                1.98722060               20.02996293                0.09584301               -0.04537738               -0.04473733                0.15108761                0.00043146                0.00362435                0.00217774
               9.99363593                1.98663833               20.03052519                0.70414300               -0.04584167               -0.04617336                0.15423610               -0.00071550                0.00310131               -0.00413843
              -0.00097899                2.99336333               20.02431555                0.36383012               -0.03645505               -0.02761928                0.12187346                0.00137818                0.00012758                0.00419653
               0.99865646                2.99228334               20.02465988                0.01000001               -0.01419258               -0.04846285                0.12443314                0.01802162                0.03189536               -0.01882117
               1.99873716                2.99156098               20.02564029                0.01000000                0.00356177               -0.05357185                0.13083070                0.05148577                0.06613489               -0.01447969
               2.99872770                2.99091002               20.02659486                0.01000000               -0.00377953               -0.04625214                0.13697912                0.08368319                0.06964785               -0.00870271
               3.99866157                2.99050351               20.02759353                0.01207526               -0.02339036               -0.03411746                0.14355114                0.10358059                0.06324015               -0.00605456
               4.99825989                2.99007837               20.02838438                0.01000000               -0.05482156               -0.01146111                0.14854407                0.12317691                0.06384106                0.00416541
               5.99756514                2.98985383               20.02941434                0.01000001               -0.08552946                0.02045014                0.15224561                0.10880414                0.05850797                0.02749122
               6.99654930                2.98873792               20.03018230                0.01000001               -0.10066014                0.08320875                0.15453952                0.09836601                0.03179441                0.04701036
               7.99555194                2.98814201               20.03082010                0.01287180               -0.09256990                0.07292368                0.15792987                0.05199903                0.01011482                0.04177623
               8.99469791                2.98677122               20.03127070                0.01374961               -0.06675136                0.03274462                0.15671383                0.00108051               -0.00209898                0.02887639
               9.99421691                2.98617009               20.03177487                0.21534403               -0.04809935                0.03093783                0.15974304               -0.02217655                0.00062645                0.02257323
               0.00021748                3.99310106               20.02510882                0.43358064               -0.03788270               -0.02858563                0.12701873               -0.00262651               -0.00132855                0.00670197
               0.99983865                3.99176360               20.02532355                0.01000000               -0.01179498               -0.05067607                0.12933535                0.02140179                0.04018528               -0.01823879
               1.99998158                3.99093648               20.02636886                0.01000000                0.01432945               -0.06785137                0.13582770                0.05590356                0.08718140               -0.02753481
               3.00012524                3.99037327               20.02744137                0.01207619               -0.00042209               -0.06244852                0.14334934                0.08184195                0.08619343               -0.02037959
               3.99997314                3.99000122               20.02838343                0.01000000               -0.02082350               -0.05778365                0.14985178                0.10487809                0.08860537               -0.02220514
               4.99970877                3.98987385               20.02946734                0.01000001               -0.02953031               -0.02487581                0.15637841                0.15037044                0.10586604                0.01273420
               5.99938253                3.99005030               20.03074033                0.01000001               -0.05232843                0.02328434                0.16334102                0.17796936                0.11145848                0.04527655
               6.99866220                3.99009542               20.03194279                0.01224693               -0.09161888                0.09447968                0.17040840                0.14196452                0.07509546                0.05980579
               7.99755015                3.98927703               20.03256171                0.01048390               -0.12871617                0.12085546                0.17276108                0.05775026                0.03222779                0.07660435
               8.99608788                3.98787549               20.03307260                0.01000000               -0.15777422                0.21454830                0.17288557                0.01720195                0.01547174                0.11333693
               9.99439467                3.98725708               20.03357579                0.24865063               -0.16932097                0.26173745                0.17389996               -0.05070253                0.00234014                0.12312461
               0.00164342                4.99279162               20.02594455                0.56423724               -0.03943290               -0.03341274                0.13147835               -0.00221249               -0.00167244                0.01108650
               1.00124909                4.99126982               20.02603135                0.01000000               -0.01989287               -0.04762491                0.13355416                0.01913144                0.03930214               -0.01460262
               2.00124556                4.99020395               20.02693740                0.01000001                0.00253534               -0.07468672                0.13999997                0.05327847                0.09596651               -0.04945412
               3.00129980                4.98966105               20.02809108                0.01000000                0.00064973               -0.08657882                0.14763993                0.08075704                0.10468722               -0.06554629
               4.00125856                4.98934783               20.02909134                0.01000001               -0.00407901               -0.07172409                0.15552255                0.12669546                0.12477527               -0.03222485
               5.00121822                4.98958085               20.03057494                0.01000001               -0.01777966               -0.03377404                0.16536264                0.18395753                0.15909018                0.01316458
               6.00090296                4.99031952               20.03219590                0.01240698               -0.05281732                0.00519182                0.17658550                0.17539260                0.13887190                0.03039302
               7.00016187                4.99062751               20.03325231                0.01066321               -0.09880475                0.05274462                0.18439074                0.11933600                0.10918673                0.05385613
               7.99892687                4.99055912               20.03434536                0.01000000               -0.15499898                0.17905495                0.19080967                0.09989281                0.11643489                0.13678470
               8.99706189                4.99106219               20.03571161                0.01000000               -0.22435918                0.34007479                0.19236781                0.06994898                0.08730202                0.21382390
               9.99443968                4.99140484               20.03649707                0.29604622               -0.26222059                0.42547183                0.18981488                0.02943845                0.04107755                0.21834264
               0.00321682                5.99243281               20.02681547                0.77333711               -0.04078732               -0.03763202                0.13551902               -0.00103922               -0.00195160                0.01365823
               1.00280895                5.99081110               20.02677074                0.01000000               -0.02804525               -0.04495043                0.13733295                0.01033640                0.02481344               -0.01229127
               2.00265592                5.98944274               20.02726125                0.01143645               -0.01062248               -0.07640024                0.14303959                0.03005398                0.06999463               -0.08860947
               3.00259650                5.98864169               20.02806526                0.01000001               -0.00343338               -0.10037077                0.15021907                0.08059394                0.13052038               -0.11505985
               4.00258725                5.98856674               20.02968624                0.01000001               -0.00901287               -0.08233390                0.16091282                0.14052512                0.18975714               -0.04563569
               5.00241624                5.98919837               20.03158586                0.01240850               -0.03717613               -0.05232530                0.17482172                0.16905912                0.18557672               -0.02145534
               6.00184373                5.99015414               20.03304527                0.01075467               -0.08034608               -0.01480015                0.18690234                0.15963161                0.16961573                0.00759066
               7.00080932                5.99115031               20.03462016                0.01000000               -0.13651971                0.09331844                0.20023042                0.15838775                0.20154395                0.11035371
               7.99911333                5.99285813               20.03680013                0.01000000               -0.20840896                0.26208287                0.20750329                0.14605792                0.20896013                0.24134369
               8.99664114                5.99467699               20.03871382                0.01115642               -0.24075950                0.35066719                0.20369135                0.08398981                0.12463361                0.25391695
               9.99429814                5.99576652               20.03949357                0.36392466               -0.23429984                0.36148652                0.20344718                0.03461700                0.05194911                0.24388241
               0.00486605                6.99203898               20.02769919                0.99999999               -0.04201680               -0.04046298                0.13944541               -0.00005939               -0.00179815                0.01496619
               1.00444589                6.99037081               20.02752594                0.30511677               -0.04250045               -0.04391788                0.14099799               -0.00263607               -0.01450068               -0.01179762
               2.00401604                6.98867595               20.02709858                0.01625616               -0.03291031               -0.06006968                0.14215413                0.01554315                0.02958116               -0.07071006
               3.00378768                6.98765364               20.02780734                0.01000001               -0.02518309               -0.08169486                0.15000321                0.07229953                0.17098256               -0.08706411
               4.00351238                6.98770116               20.03015136                0.01225176               -0.03878426               -0.09128956                0.16575535                0.13111696                0.23024759               -0.08520041
               5.00301199                6.98853435               20.03194825                0.01066814               -0.06843642               -0.06437245                0.17968566                0.16273871                0.21428887               -0.05597335
               6.00214365                6.99002351               20.03391987                0.01000000               -0.11931784                0.00699850                0.19768253                0.19955718                0.26287642                0.04492344
               7.00062564                6.99249388               20.03670287                0.01000000               -0.19111546                0.16882717                0.21231156                0.23919096                0.32355710                0.19450239
               7.99832135                6.99580078               20.03998692                0.01139623               -0.23961718                0.27246448                0.21306392                0.16664985                0.25028008                0.23772478
               8.99583329                6.99807553               20.04146422                0.01000002               -0.26841902                0.37976454                0.21642455               -0.05127888                0.10079891                0.35403611
               9.99295296                6.99863457               20.04206455                0.48430257               -0.28803288                0.26517128                0.21701167               -0.05470297                0.03450465                0.31802804
               0.00655196                7.99162355               20.02859520                0.99076179               -0.04327035               -0.04234511                0.14339728                0.00046574               -0.00340931                0.01759294
               1.00611926                7.98993274               20.02827546                0.89349123               -0.04340041               -0.04404746                0.14463091               -0.00073471               -0.00888302               -0.00776834
               2.00568395                7.98824135               20.02784611                0.01000000               -0.05509896               -0.04387037                0.14559871                0.02133164                0.03696980               -0.02035665
               3.00501728                7.98700780               20.02844382                0.01287983               -0.06775366               -0.07626441                0.15292243                0.08151562                0.13641496               -0.09120824
               4.00432888                7.98674095               20.03001362                0.01049491               -0.08343097               -0.08011329                0.16525279                0.15485167                0.22173483               -0.12438997
               5.00334866                7.98791092               20.03228428                0.01000000               -0.12267715               -0.04015248                0.18439542                0.18339836                0.29493035               -0.03512786
               6.00187534                7.99029411               20.03534069                0.01000000               -0.17663923                0.04662272                0.20405857                0.24549623                0.37569295                0.08079816
               6.99981587                7.99452685               20.03929230                0.01143721               -0.25053306                0.14409905                0.21186977                0.27088592                0.34496203                0.15003395
               7.99686468                7.99830742               20.04181242                0.01000002               -0.35170520                0.34798198                0.22120297                0.20487904                0.32696684                0.27749158
               8.99278177                8.00227228               20.04568743                0.43315262               -0.23893319                0.17501915                0.23321515                0.04526786                0.18693349                0.24005643
               9.99208601                8.00106994               20.04578417                0.95967787               -0.06957587                0.08740073                0.23046858               -0.10352012               -0.00184144                0.20502233
               0.00825698                8.99119207               20.02953063                1.00000000               -0.04435903               -0.04392544                0.14743208                0.00064138               -0.00036183                0.01626005
               1.00781339                8.98948986               20.02911076                0.99999999               -0.04446814               -0.04473661                0.14846189                0.00001369               -0.00037967               -0.00164118
               2.00736762                8.98779854               20.02869080                0.10233645               -0.04474999               -0.04489313                0.14949045                0.00042688               -0.00625571               -0.01399013
               3.00691839                8.98612835               20.02815452                0.01385660               -0.08306640               -0.06665559                0.15000491                0.09326957                0.09728586               -0.07250902
               4.00570629                8.98609889               20.02980730                0.01000000               -0.18957990               -0.02046483                0.16513898                0.16169148                0.28227200               -0.09355483
               5.00312680                8.98773130               20.03306001                0.01000000               -0.26343234                0.02734980                0.18781594                0.14582586                0.36946777               -0.00838764
               6.00043765                8.99095597               20.03673706                0.01127775               -0.25483735                0.05481947                0.20089882                0.15872277                0.36861297                0.05307254
               6.99803005                8.99537586               20.04012968                0.01000002               -0.28820743                0.06708663                0.21512149                0.35534262                0.43476177                0.04236759
               7.99467350                9.00276042               20.04525583                0.45230033               -0.20269631                0.18776989                0.23368762                0.25927078                0.25068440                0.20176831
               8.99397612                9.00157592               20.04525128                0.99999998               -0.06931320               -0.06929578                0.23089734                0.00006881               -0.00435456                0.00505494
               9.99328723                9.00038258               20.04527578                0.98860254               -0.06888888               -0.06838861                0.22812250                0.00036066               -0.00286927               -0.00476881
               0.00996921                9.99074504               20.03039897                0.99547055               -0.04561428               -0.04470338                0.15137633                0.00051953                0.01309994                0.01292892
               1.00951307                9.98903801               20.02998262                1.00000000               -0.04576035               -0.04518542                0.15241377               -0.00011040                0.01310063                0.00015637
               2.00905400                9.98734348               20.02956703                0.70607181               -0.04653751               -0.04550536                0.15343452                0.00047203                0.01820047               -0.01250446
               3.00858232                9.98567469               20.02925441                0.21563478               -0.15471203               -0.04536650                0.15444175                0.11580057                0.09287581               -0.00312530
               4.00595976                9.98633165               20.03033597                0.24890140               -0.35871088                0.02327581                0.16873494                0.16450850                0.26252381               -0.04972680
               5.00140810                9.98845792               20.03386044                0.29603948               -0.42772669                0.07266193                0.18749746                0.08107298                0.36435376               -0.00010350
               5.99740523                9.99139050               20.03749542                0.36385342               -0.31449110                0.04345329                0.20261398                0.06729171                0.31101112                0.02634854
               6.99511828                9.99586859               20.04034322                0.48606900               -0.07775965                0.04927251                0.21646210                0.24243868                0.33757486                0.01706796
               7.99585004               10.00206281               20.04470435                0.98118520                0.00213510               -0.06976008                0.23130138                0.36854280                0.22252204                0.00201184
               8.99516098               10.00088637               20.04477267                0.98860313               -0.06850720               -0.06895505                0.22854398                0.00045366                0.00565811                0.00291049
               9.99447989                9.99970217               20.04479807                0.99874312               -0.06810882               -0.06804094                0.22576753                0.00084658                0.00342278               -0.00326898
              -0.00439951               -0.00646935               21.02292760                0.91403725               -0.03291886               -0.03304953                0.10902184                0.00115117               -0.00522917                0.00551971
               0.99527130               -0.00743061               21.02353748                0.64349631               -0.03284958               -0.03447719                0.11221007                0.00097602               -0.00599240               -0.00390302
               1.99494350               -0.00836348               21.02413065                0.39759036               -0.03189653               -0.03524648                0.11543914                0.00249763               -0.00030079               -0.00173331
               2.99463337               -0.00922039               21.02485043                0.36124618               -0.03190820               -0.03644950                0.11956884                0.00157886                0.00979490               -0.00082249
               3.99430533               -0.00997679               21.02562959                0.42922623               -0.03475224               -0.03766878                0.12415230                0.00026064                0.01074822                0.00001236
               4.99393833               -0.01066487               21.02634460                0.55628758               -0.03777040               -0.03893464                0.12808469                0.00046290                0.00557530                0.00023830
               5.99354993               -0.01132189               21.02700465                0.75810065               -0.03941055               -0.04007146                0.13148514                0.00057207                0.00162426                0.00039645
               6.99315012               -0.01196171               21.02763331                0.99874680               -0.04043536               -0.04109420                0.13467362                0.00055668               -0.00093990                0.00039235
               7.99274122               -0.01258654               21.02823971                0.99999999               -0.04136000               -0.04208660                0.13785548                0.00049203               -0.00275208                0.00110645
               8.99232292               -0.01319659               21.02883204                1.00000000               -0.04228829               -0.04306319                0.14103530                0.00049286               -0.00311003                0.00024046
               9.99189545               -0.01379109               21.02943224                0.99561612               -0.04274619               -0.04408025                0.14426322               -0.00027375               -0.00281016               -0.00321309
              -0.00342674                0.99320015               21.02378679                0.64476516               -0.03451346               -0.03298814                0.11285462                0.00096694                0.00395863                0.00734319
               0.99622812                0.99222462               21.02439535                0.01000000               -0.03549457               -0.03576178                0.11603692                0.00147524                0.00882175               -0.00805942
               1.99586337                0.99128406               21.02510108                0.01000000               -0.03861538               -0.02863641                0.11952725                0.01955020                0.01878667               -0.00135580
               2.99545582                0.99041511               21.02591198                0.01000001               -0.04165937               -0.02440693                0.12390592                0.03498986                0.02543986                0.00033394
               3.99503018                0.98964653               21.02676412                0.01000000               -0.04201552               -0.01976019                0.12871013                0.04334332                0.02225444               -0.00024565
               4.99461551                0.98894579               21.02752895                0.01000000               -0.04130556               -0.01648832                0.13279741                0.04195400                0.01410732                0.00278415
               5.99420407                0.98827740               21.02822839                0.01000001               -0.04137469               -0.00815642                0.13630545                0.02529905                0.00874800                0.00698926
               6.99378801                0.98762735               21.02889063                0.28182556               -0.04202428               -0.04180743                0.13957156                0.00003921                0.00597104                0.00375478
               7.99336358                0.98699259               21.02953640                0.85802412               -0.04289470               -0.04280791                0.14281424                0.00003217                0.00359180                0.00285730
               8.99293012                0.98637278               21.03015198                0.99999999               -0.04381845               -0.04380385                0.14603942                0.00000857                0.00115794                0.00026235
               9.99248721                0.98576811               21.03074986                1.00000000               -0.04429041               -0.04482027                0.14926980               -0.00078171                0.00022208               -0.00328680
              -0.00242911                1.99287088               21.02468085                0.39959137               -0.03539954               -0.03059938                0.11690870                0.00292657                0.00157596                0.00722230
               0.99721690                1.99185415               21.02517002                0.01000000               -0.02134426               -0.04123738                0.11981585                0.01325822                0.02257118               -0.01440373
               1.99714401                1.99106380               21.02607890                0.01000001               -0.01230976               -0.03300392                0.12537971                0.04962945                0.04649058               -0.00407136
               2.99697070                1.99029147               21.02699700                0.01000000               -0.02512401               -0.02444988                0.13070483                0.07718196                0.04699363               -0.00014516
               3.99664153                1.98962801               21.02789359                0.01000000               -0.04120851               -0.00744529                0.13578180                0.10354841                0.04409470                0.00554837
               4.99614653                1.98900537               21.02876401                0.01000001               -0.06335921                0.00495137                0.14025554                0.11236385                0.03815894                0.00505347
               5.99537434                1.98851499               21.02958392                0.01141003               -0.08554118                0.02656317                0.14388704                0.06157453                0.02189537                0.02056974
               6.99443571                1.98720214               21.03021553                0.01621185               -0.06889533               -0.00155831                0.14473313                0.02027499                0.00791931                0.01647343
               7.99399644                1.98655730               21.03086894                0.01000000               -0.04440698               -0.00215232                0.14781641                0.02285459                0.00659923                0.01449516
               8.99354757                1.98592733               21.03147357                0.09580424               -0.04536413               -0.04467020                0.15104295                0.00047490                0.00366213                0.00238932
               9.99308915                1.98531251               21.03206773                0.70413327               -0.04584147               -0.04618587                0.15427312               -0.00065476                0.00313820               -0.00402964
              -0.00133475                2.99258816               21.02553329                0.36360063               -0.03648711               -0.02679923                0.12168811                0.00151686                0.00013767                0.00546608
               0.99830037                2.99139987               21.02590376                0.01000001               -0.01233025               -0.04892434                0.12436188                0.02088931                0.03382471               -0.01800921
               1.99841864                2.99062398               21.02694851                0.01000000                0.00674335               -0.05359081                0.13083764                0.05827815                0.06993390               -0.01329173
               2.99843524                2.98992612               21.02796496                0.01000000               -0.00156952               -0.04454575                0.13703414                0.09361820                0.07357735               -0.00651679
               3.99838725                2.98949762               21.02902976                0.01203926               -0.02297179               -0.03093136                0.14361352                0.11565129                0.06665433               -0.00319628
               4.99797581                2.98904481               21.02987042                0.01000000               -0.05742346               -0.00600509                0.14853258                0.13718508                0.06579681                0.00794063
               5.99723878                2.98880866               21.03093782                0.01000001               -0.09123036                0.02888928                0.15225137                0.12141216                0.05894190                0.03295058
               6.99615120                2.98759618               21.03172715                0.01000001               -0.10716471                0.09688468                0.15427637                0.11003718                0.03183321                0.05501848
               7.99509549                2.98694955               21.03239822                0.01277693               -0.09833952                0.08511098                0.15757908                0.05934202                0.00835614                0.04923111
               8.99418441                2.98547937               21.03283619                0.01362625               -0.06958593                0.04186179                0.15640917                0.00370804               -0.00427156                0.03456127
               9.99370377                2.98484439               21.03337123                0.21531587               -0.04806398                0.03930743                0.15955105               -0.02264394                0.00061055                0.02721168
              -0.00002219                3.99233490               21.02637776                0.43300156               -0.03789483               -0.02789239                0.12678121               -0.00271364               -0.00134971                0.00775818
               0.99959887                3.99087567               21.02661617                0.01000000               -0.00972441               -0.05098616                0.12921178                0.02459521                0.04228388               -0.01764938
               1.99978333                3.98999198               21.02772745                0.01000000                0.01852808               -0.06907899                0.13588392                0.06357429                0.09201392               -0.02699433
               2.99996943                3.98940055               21.02887574                0.01204021                0.00262646               -0.06264063                0.14345099                0.09212995                0.09113364               -0.01906247
               3.99983585                3.98900938               21.02988249                0.01000000               -0.01951186               -0.05716845                0.14983875                0.11768444                0.09307118               -0.02026921
               4.99957919                3.98888527               21.03103189                0.01000001               -0.02923194               -0.02049636                0.15632423                0.16793001                0.11071800                0.01718663
               5.99925122                3.98909277               21.03237519                0.01000001               -0.05418098                0.03232921                0.16329323                0.19828913                0.11670252                0.05354198
               6.99849557                3.98913984               21.03364573                0.01211589               -0.09755637                0.11076099                0.16987069                0.15965747                0.07803950                0.07086814
               7.99730009                3.98825952               21.03428586                0.01034870               -0.13843441                0.14207088                0.17186913                0.06953256                0.03167360                0.08865119
               8.99572688                3.98676457               21.03479838                0.01000000               -0.16969261                0.24400339                0.17215999                0.02570404                0.01419867                0.12627500
               9.99390624                3.98609866               21.03531374                0.24862426               -0.18206457                0.28804903                0.17357486               -0.04858376                0.00163306                0.13262287
               0.00152943                4.99203031               21.02725847                0.56328156               -0.03942361               -0.03307473                0.13129499               -0.00226773               -0.00170135                0.01160299
               1.00113520                4.99038015               21.02736655                0.01000000               -0.01820969               -0.04773610                0.13348732                0.02191166                0.04148677               -0.01457313
               2.00116524                4.98924240               21.02833816                0.01000001                0.00626202               -0.07684188                0.14010216                0.06048890                0.10107273               -0.04996027
               3.00126044                4.98867330               21.02956918                0.01000000                0.00454945               -0.08941201                0.14784348                0.09121052                0.11063755               -0.06610733
               4.00125623                4.98835425               21.03064773                0.01000001               -0.00047108               -0.07237551                0.15555876                0.14226015                0.13203720               -0.03050504
               5.00125102                4.98863489               21.03223032                0.01000001               -0.01531190               -0.03017766                0.16536506                0.20561448                0.16833701                0.01874384
               6.00094999                4.98945525               21.03396054                0.01223755               -0.05367077                0.01306809                0.17596967                0.19743349                0.14738201                0.03879679
               7.00017760                4.98981140               21.03509136                0.01047831               -0.10442912                0.06881555                0.18308243                0.13960120                0.11559884                0.06525021
               7.99886141                4.98979096               21.03624725                0.01000000               -0.16591243                0.20893825                0.18927486                0.12062329                0.12016156                0.15047801
               8.99685935                4.99035944               21.03763130                0.01000000               -0.23987456                0.37812151                0.19137716                0.08178146                0.08690235                0.22526880
               9.99406392                4.99060537               21.03839689                0.29601719               -0.27954351                0.46533286                0.18990527                0.03133336                0.03849116                0.22859875
               0.00323279                5.99167340               21.02817020                0.77210436               -0.04077812               -0.03750030                0.13539603               -0.00104968               -0.00199564                0.01390904
               1.00282501                5.98992095               21.02814419                0.01000001               -0.02664228               -0.04497224                0.13733726                0.01199069                0.02672282               -0.01254415
               2.00269995                5.98845514               21.02869229                0.01141453               -0.00716125               -0.07936211                0.14309979                0.03446847                0.07473363               -0.09170852
               3.00268179                5.98761231               21.02956844                0.01000001                0.00097629               -0.10502227                0.15026524                0.09053569                0.13806787               -0.11798759
               4.00271947                5.98756187               21.03129777                0.01000001               -0.00456525               -0.08429243                0.16108450                0.15770692                0.20098814               -0.04419334
               5.00259048                5.98828171               21.03333379                0.01223923               -0.03480527               -0.05117241                0.17440211                0.19058019                0.19780881               -0.01756825
               6.00202337                5.98935413               21.03490973                0.01054877               -0.08193017               -0.00709792                0.18561967                0.18420955                0.18197177                0.01507013
               7.00095188                5.99051615               21.03661437                0.01000000               -0.14294253                0.11406912                0.19822786                0.18726741                0.21235768                0.12146856
               7.99916452                5.99243828               21.03886678                0.01000000               -0.22018890                0.29375480                0.20558807                0.17029338                0.21240646                0.25008037
               8.99654810                5.99432700               21.04075042                0.01109009               -0.25617392                0.38851896                0.20337061                0.09604664                0.12427039                0.26368445
               9.99404104                5.99540531               21.04153186                0.36393879               -0.25070616                0.40331831                0.20389248                0.03978408                0.05238551                0.25450734
               0.00501335                6.99128031               21.02909309                0.99999999               -0.04200828               -0.04040617                0.13932642               -0.00005276               -0.00184043                0.01517532
               1.00459327                6.98948070               21.02893607                0.30400681               -0.04250574               -0.04390637                0.14101850               -0.00259295               -0.01473994               -0.01213097
               2.00416324                6.98765516               21.02852084                0.01621831               -0.03144255               -0.06174196                0.14229030                0.01774424                0.03247892               -0.07369639
               3.00396442                6.98657286               21.02930859                0.01000001               -0.02111354               -0.08555201                0.15010619                0.08116080                0.18141259               -0.08986757
               4.00374097                6.98666840               21.03181016                0.01212060               -0.03470316               -0.09549015                0.16572049                0.14710599                0.24423002               -0.08658708
               5.00327036                6.98761144               21.03374328                0.01048312               -0.06706126               -0.06456715                0.17899553                0.18453546                0.22976370               -0.05419379
               6.00239974                6.98931329               21.03589028                0.01000000               -0.12157798                0.01640582                0.19602429                0.22977307                0.27960835                0.05089565
               7.00083880                6.99209279               21.03881632                0.01000000               -0.19716588                0.18955215                0.21013091                0.27218004                0.33343724                0.19847832
               7.99845643                6.99566606               21.04211515                0.01132708               -0.25127714                0.30061121                0.21231973                0.19114563                0.25527014                0.24377587
               8.99581326                6.99812982               21.04363121                0.01000002               -0.28767291                0.42320806                0.21665322               -0.04317482                0.10517122                0.36867259
               9.99270297                6.99867174               21.04424256                0.48437683               -0.31102874                0.30604811                0.21814961               -0.04863230                0.03644338                0.33139511
               0.00683095                7.99086528               21.03002858                0.99089855               -0.04326467               -0.04230899                0.14329339                0.00048246               -0.00350631                0.01786972
               1.00639830                7.98904282               21.02972190                0.89362798               -0.04341361               -0.04403956                0.14466954               -0.00070160               -0.00911728               -0.00801638
               2.00596268                7.98722030               21.02930293                0.01000000               -0.05532717               -0.04391600                0.14577541                0.02365400                0.03976882               -0.02095443
               3.00529176                7.98590127               21.02997464                0.01278488               -0.06698328               -0.07986972                0.15310617                0.08976127                0.14501627               -0.09543362
               4.00462301                7.98565207               21.03166738                0.01035958               -0.08277277               -0.08424146                0.16528080                0.17111667                0.23660405               -0.12829489
               5.00363630                7.98699037               21.03412601                0.01000000               -0.12427653               -0.03833793                0.18366574                0.20605271                0.31426668               -0.03400032
               6.00213748                7.98968225               21.03737524                0.01000000               -0.17967972                0.05421649                0.20262427                0.27575014                0.39119524                0.08027063
               7.00004271                7.99430719               21.04140950                0.01136604               -0.25935424                0.15893308                0.21132461                0.30301788                0.35636869                0.15062406
               7.99695040                7.99845051               21.04402564                0.01000002               -0.36818930                0.38390219                0.22119855                0.23304525                0.34019700                0.28822544
               8.99267892                8.00279116               21.04801720                0.43314479               -0.24829209                0.19829351                0.23273614                0.05994682                0.19411618                0.24931119
               9.99198456                8.00152628               21.04808666                0.95970934               -0.06943691                0.10839627                0.23002894               -0.09924367               -0.00184862                0.21232278
               0.00866793                8.99043413               21.03100460                1.00000000               -0.04437105               -0.04390228                0.14737595                0.00065620               -0.00038661                0.01653203
               1.00822422                8.98859991               21.03059585                0.99999999               -0.04450319               -0.04475467                0.14855970                0.00002416               -0.00040374               -0.00172584
               2.00777786                8.98677684               21.03018699                0.10304818               -0.04481684               -0.04496882                0.14974211                0.00045635               -0.00657640               -0.01431438
               3.00732788                8.98497546               21.02965589                0.01373934               -0.08518280               -0.06901033                0.15030328                0.10188543                0.10397356               -0.07627516
               4.00607421                8.98498357               21.03145942                0.01000000               -0.19833247               -0.01834111                0.16512626                0.17628784                0.30052361               -0.09575612
               5.00336123                8.98684468               21.03493614                0.01000000               -0.27381421                0.03248545                0.18724967                0.16252822                0.38819856               -0.00987810
               6.00059792                8.99039762               21.03874705                0.01120679               -0.26151666                0.06010225                0.20088635                0.17846262                0.38426162                0.05022897
               6.99813090                8.99527145               21.04228515                0.01000002               -0.29822798                0.07591514                0.21567542                0.38994202                0.45353533                0.04445866
               7.99463336                9.00334410               21.04759199                0.45176524               -0.20972363                0.20979346                0.23354414                0.28741627                0.26107613                0.20902425
               8.99393642                9.00209569               21.04755970                0.99999998               -0.06927506               -0.06926193                0.23078662                0.00006425               -0.00437495                0.00508715
               9.99324786                9.00083967               21.04755664                0.98876260               -0.06885621               -0.06836810                0.22804955                0.00030282               -0.00288051               -0.00477713
               0.01051251                9.98998723               21.03191281                0.99561985               -0.04564320               -0.04468945                0.15138661                0.00050720                0.01333996                0.01315255
               1.01005608                9.98814772               21.03150767                1.00000000               -0.04581276               -0.04521868                0.15258037               -0.00012938                0.01334684                0.00013508
               2.00959625                9.98632093               21.03110320                0.70684930               -0.04666712               -0.04559122                0.15376744                0.00050614                0.01839830               -0.01278888
               3.00912273                9.98452107               21.03080049                0.21563705               -0.16583508               -0.04543955                0.15480209                0.12770148                0.09963725               -0.00319662
               4.00627955                9.98528525               21.03202434                0.24887901               -0.38249556                0.03016737                0.16881066                0.17648496                0.27863478               -0.05043062
               5.00147282                9.98764008               21.03573734                0.29599457               -0.44997930                0.07953974                0.18772288                0.09111169                0.38156985               -0.00358220
               5.99727997                9.99088430               21.03952544                0.36383383               -0.32888781                0.04866761                0.20317618                0.07747512                0.32694751                0.02577385
               6.99489507                9.99582550               21.04251803                0.48604295               -0.07027428                0.05540463                0.21809747                0.26452109                0.35283203                0.01859771
               7.99587448               10.00264638               21.04701849                0.98066878                0.01447901               -0.06977253                0.23152797                0.40313297                0.23088925                0.00201892
               8.99518465               10.00140592               21.04705941                0.98876308               -0.06859089               -0.06897698                0.22880483                0.00044904                0.00567931                0.00292533
               9.99450266               10.00015891               21.04705723                0.99893763               -0.06819845               -0.06807517                0.22606618                0.00077927                0.00343454               -0.00328069
              -0.00507823               -0.00729178               22.02401682                0.91378577               -0.03284616               -0.03296983                0.10882139                0.00117957               -0.00534449                0.00565957
               0.99459331               -0.00834705               22.02465900                0.64331142               -0.03271540               -0.03447288                0.11209205                0.00103834               -0.00608982               -0.00398027
               1.99426747               -0.00937191               22.02528482                0.39762748               -0.03140407               -0.03523665                0.11539506                0.00275637                0.00004322               -0.00177484
               2.99396523               -0.01031195               22.02604574                0.36116400               -0.03092082               -0.03646391                0.11950064                0.00168694                0.01077638               -0.00084280
               3.99364905               -0.01113397               22.02687047                0.42889521               -0.03376704               -0.03767197                0.12403363                0.00001509                0.01164141                0.00001196
               4.99328989               -0.01187035               22.02762504                0.55572237               -0.03719172               -0.03892411                0.12800465                0.00026244                0.00591774                0.00024303
               5.99290521               -0.01256570               22.02831957                0.75751302               -0.03916257               -0.04006735                0.13149442                0.00047220                0.00161825                0.00040328
               6.99250664               -0.01323953               22.02898061                0.99870279               -0.04036915               -0.04110919                0.13477748                0.00052663               -0.00104734                0.00040068
               7.99209783               -0.01389689               22.02961926                0.99999999               -0.04137737               -0.04212678                0.13804532                0.00049819               -0.00285807                0.00111486
               8.99167909               -0.01453910               22.03024383                1.00000000               -0.04235501               -0.04312167                0.14131147                0.00050711               -0.00318715                0.00024562
               9.99125073               -0.01516604               22.03087670                0.99572006               -0.04283596               -0.04416325                0.14461689               -0.00023380               -0.00285772               -0.00324212
              -0.00401116                0.99237853               22.02491464                0.64452594               -0.03450806               -0.03284117                0.11271429                0.00103741                0.00404828                0.00758573
               0.99564376                0.99130822               22.02555545                0.01000000               -0.03556800               -0.03582888                0.11597998                0.00165671                0.00905779               -0.00816135
               1.99527748                0.99027573               22.02629633                0.01000000               -0.03903138               -0.02745178                0.11951954                0.02145485                0.01958082               -0.00051702
               2.99486313                0.98932341               22.02715066                0.01000001               -0.04245409               -0.02228067                0.12383811                0.03838239                0.02682926                0.00157277
               3.99442840                0.98848931               22.02805036                0.01000000               -0.04273759               -0.01685640                0.12854964                0.04763566                0.02346522                0.00106699
               4.99400838                0.98774041               22.02885610                0.01000000               -0.04169361               -0.01334883                0.13264071                0.04614119                0.01466956                0.00421785
               5.99359453                0.98703362               22.02959096                0.01000001               -0.04154424               -0.00455154                0.13621122                0.02780655                0.00889566                0.00840547
               6.99317750                0.98634938               22.03028625                0.28131712               -0.04209648               -0.04181371                0.13955125               -0.00009944                0.00597849                0.00388736
               7.99275260                0.98568184               22.03096478                0.85847559               -0.04293787               -0.04282413                0.14286025               -0.00000480                0.00357660                0.00288704
               8.99231874                0.98502969               22.03161299                0.99999999               -0.04386307               -0.04383656                0.14615840                0.00000958                0.00114062                0.00027167
               9.99187534                0.98439233               22.03224357                1.00000000               -0.04434026               -0.04487975                0.14946650               -0.00075387                0.00021135               -0.00331190
              -0.00291687                1.99205140               22.02584940                0.39953262               -0.03538819               -0.03013876                0.11680105                0.00319674                0.00160960                0.00790324
               0.99672924                1.99093638               22.02636819                0.01000000               -0.02008749               -0.04156057                0.11981500                0.01508160                0.02391282               -0.01417656
               1.99668138                1.99007906               22.02733277                0.01000001               -0.01049737               -0.03145635                0.12541099                0.05516117                0.04908336               -0.00247544
               2.99651930                1.98924244               22.02830412                0.01000000               -0.02483069               -0.02112307                0.13072684                0.08523552                0.04935503                0.00225025
               3.99618476                1.98852890               22.02925138                0.01000000               -0.04254481               -0.00193163                0.13575511                0.11405172                0.04598239                0.00872457
               4.99566840                1.98786267               22.03016644                0.01000001               -0.06661926                0.01144465                0.14017947                0.12368744                0.03924505                0.00848841
               5.99485238                1.98734326               22.03102230                0.01139816               -0.09059870                0.03439734                0.14373288                0.06771236                0.02101462                0.02404893
               6.99385643                1.98592420               22.03166190                0.01618876               -0.07174745                0.00293571                0.14454529                0.02257165                0.00663938                0.01890232
               7.99341743                1.98524663               22.03234651                0.01000000               -0.04438130                0.00139320                0.14770242                0.02586965                0.00654850                0.01687706
               8.99296880                1.98458417               22.03298379                0.09579835               -0.04535285               -0.04460215                0.15100402                0.00052303                0.00368408                0.00256168
               9.99251037                1.98393636               22.03361066                0.70414297               -0.04584295               -0.04620054                0.15431316               -0.00059531                0.00316130               -0.00392899
              -0.00171717                2.99177575               22.02674932                0.36339759               -0.03650929               -0.02601782                0.12152626                0.00165285                0.00014379                0.00662009
               0.99791773                2.99047701               22.02714712                0.01000001               -0.01040919               -0.04942775                0.12431854                0.02381232                0.03573237               -0.01729899
               1.99807464                2.98964660               22.02825705                0.01000000                0.01001330               -0.05360578                0.13087951                0.06524210                0.07370700               -0.01206340
               2.99811800                2.98890095               22.02933554                0.01000000                0.00072757               -0.04273195                0.13706766                0.10388241                0.07744425               -0.00423975
               3.99808919                2.98845068               22.03046580                0.01201516               -0.02251175               -0.02755217                0.14352710                0.12810061                0.06996232               -0.00025053
               4.99766777                2.98796930               22.03135503                0.01000000               -0.06009713               -0.00024972                0.14830377                0.15164619                0.06765415                0.01179281
               5.99688725                2.98772157               22.03245937                0.01000001               -0.09711010                0.03775820                0.15194838                0.13445762                0.05919022                0.03846443
               6.99572556                2.98640809               22.03326783                0.01000001               -0.11386186                0.11121863                0.15379852                0.12220159                0.03161174                0.06285714
               7.99461002                2.98570971               22.03397169                0.01270540               -0.10430493                0.09772001                0.15707344                0.06715503                0.00646525                0.05634980
               8.99363946                2.98413764               22.03439888                0.01353581               -0.07254862                0.05108599                0.15614415                0.00668927               -0.00641275                0.04001057
               9.99315904                2.98346832               22.03496589                0.21530969               -0.04804221                0.04737594                0.15939462               -0.02262088                0.00059520                0.03179106
              -0.00028634                3.99153104               22.02764445                0.43250636               -0.03790193               -0.02722582                0.12656284               -0.00280199               -0.00137257                0.00876880
               0.99933464                3.98994782               22.02790778                0.01000000               -0.00756888               -0.05133393                0.12911959                0.02786511                0.04439395               -0.01709765
               1.99956228                3.98900694               22.02908653                0.01000000                0.02291143               -0.07033495                0.13591582                0.07148576                0.09684741               -0.02640835
               2.99979287                3.98838780               22.03031039                0.01201606                0.00580692               -0.06273672                0.14341439                0.10279419                0.09597303               -0.01762340
               3.99967842                3.98797786               22.03138021                0.01000000               -0.01812184               -0.05641131                0.14961801                0.13094223                0.09741313               -0.01824997
               4.99943043                3.98785768               22.03259382                0.01000001               -0.02878403               -0.01577366                0.15594017                0.18624799                0.11545176                0.02171636
               5.99910274                3.98809843               22.03400619                0.01000001               -0.05590571                0.04196735                0.16273381                0.21966015                0.12156199                0.06158432
               6.99831232                3.98814857               22.03534020                0.01201820               -0.10358806                0.12778887                0.16888922                0.17820865                0.08037555                0.08144402
               7.99703098                3.98720103               22.03599910                0.01024221               -0.14841696                0.16390260                0.17070973                0.08187337                0.03076972                0.10010304
               8.99534398                3.98560589               22.03651580                0.01000000               -0.18171862                0.27389384                0.17126784                0.03468402                0.01286849                0.13876218
               9.99339661                3.98488388               22.03704729                0.24862263               -0.19473728                0.31451856                0.17303497               -0.04623687                0.00100085                0.14217607
               0.00139324                4.99123123               22.02857045                0.56245244               -0.03940987               -0.03273373                0.13109509               -0.00232717               -0.00173428                0.01213388
               1.00099914                4.98945033               22.02870110                0.01000000               -0.01644273               -0.04785623                0.13341860                0.02476703                0.04366653               -0.01451889
               2.00106438                4.98823990               22.02973945                0.01000001                0.01019159               -0.07905300                0.14011108                0.06799712                0.10619332               -0.05045651
               3.00120297                4.98764621               22.03104795                0.01000000                0.00868872               -0.09226312                0.14781371                0.10210253                0.11648879               -0.06664780
               4.00123816                4.98732245               22.03220252                0.01000001                0.00345922               -0.07287083                0.15527880                0.15854291                0.13911412               -0.02867200
               5.00127215                4.98765383               22.03388224                0.01000001               -0.01242949               -0.02618140                0.16483022                0.22842495                0.17714468                0.02417876
               6.00098957                4.98856092               22.03571529                0.01211201               -0.05425096                0.02136846                0.17480575                0.22049375                0.15509244                0.04665878
               7.00018713                4.98896387               22.03691396                0.01033399               -0.10997033                0.08530781                0.18133053                0.16069713                0.12129651                0.07592998
               7.99879016                4.98898776               22.03813085                0.01000000               -0.17684213                0.23954031                0.18736294                0.14230419                0.12367308                0.16354901
               8.99665029                4.98961552               22.03953916                0.01000000               -0.25559200                0.41724405                0.19008710                0.09442069                0.08676120                0.23680486
               9.99367832                4.98975869               22.04029518                0.29600400               -0.29719722                0.50635577                0.18955292                0.03363489                0.03628952                0.23920181
               0.00322892                5.99087637               22.02952339                0.77101279               -0.04076039               -0.03735676                0.13523490               -0.00106482               -0.00203946                0.01415711
               1.00282131                5.98899070               22.02951748                0.01000001               -0.02512868               -0.04499256                0.13731130                0.01368541                0.02856371               -0.01279096
               2.00272634                5.98742588               22.03012325                0.01140255               -0.00344714               -0.08242622                0.14305075                0.03902794                0.07937163               -0.09477680
               3.00275237                5.98654253               22.03107057                0.01000001                0.00576597               -0.10980626                0.15008240                0.10091008                0.14553200               -0.12091909
               4.00284166                5.98652044               22.03290793                0.01000001                0.00040475               -0.08613232                0.16078012                0.17578286                0.21186099               -0.04281794
               5.00276047                5.98733405               22.03507390                0.01211348               -0.03195445               -0.04977890                0.17344892                0.21301762                0.20923500               -0.01405150
               6.00220257                5.98852580               22.03675766                0.01038830               -0.08305251                0.00074987                0.18385145                0.20969443                0.19337140                0.02198720
               7.00109942                5.98985472               22.03858472                0.01000000               -0.14885807                0.13522229                0.19574387                0.21742106                0.22257716                0.13199967
               7.99922541                5.99199184               22.04091189                0.01000000               -0.23189745                0.32648401                0.20335654                0.19588727                0.21616687                0.25906963
               8.99646147                5.99395077               22.04278123                0.01102285               -0.27212224                0.42833453                0.20261430                0.10890871                0.12435578                0.27395442
               9.99378297                5.99501100               22.04357142                0.36395552               -0.26784986                0.44744915                0.20376681                0.04506296                0.05291362                0.26551295
               0.00514329                6.99048410               22.03048572                0.99999999               -0.04199560               -0.04034667                0.13920058               -0.00004801               -0.00188259                0.01536127
               1.00472333                6.98855048               22.03034631                0.30303041               -0.04250935               -0.04390292                0.14102801               -0.00257351               -0.01499576               -0.01248425
               2.00429310                6.98659138               22.02994438                0.01619503               -0.02983599               -0.06348850                0.14241556                0.01999299                0.03520800               -0.07663226
               3.00412661                6.98545009               22.03080946                0.01000001               -0.01654030               -0.08953529                0.15000929                0.09046025                0.19150370               -0.09263410
               4.00396230                6.98559980               22.03346577                0.01202289               -0.02997318               -0.09973236                0.16525682                0.16380455                0.25766718               -0.08816632
               5.00352715                6.98665825               22.03552816                0.01033873               -0.06497568               -0.06480004                0.17784816                0.20708918                0.24428729               -0.05274256
               6.00266278                6.98857591               22.03784036                0.01000000               -0.12288160                0.02584766                0.19388417                0.26116169                0.29543556                0.05655666
               7.00106952                6.99166832               22.04090549                0.01000000               -0.20254621                0.21078859                0.20764727                0.30674816                0.34344057                0.20296340
               7.99861186                6.99551744               22.04423331                0.01125905               -0.26301067                0.33016209                0.21117863                0.21747023                0.26095456                0.25058745
               8.99580930                6.99818221               22.04579728                0.01000002               -0.30763665                0.46896191                0.21634228               -0.03340861                0.10993007                0.38304219
               9.99245913                6.99870767               22.04642754                0.48444159               -0.33501790                0.34956615                0.21850742               -0.04109709                0.03880418                0.34394598
               0.00709519                7.99006944               22.03146107                0.99100823               -0.04326254               -0.04228069                0.14321004                0.00049345               -0.00360339                0.01813503
               1.00666257                7.98811264               22.03116885                0.89374331               -0.04342967               -0.04404519                0.14472192               -0.00068646               -0.00935196               -0.00827113
               2.00622660                7.98615611               22.03076162                0.01000000               -0.05547081               -0.04396972                0.14596323                0.02610711                0.04244070               -0.02153060
               3.00555315                7.98475183               22.03150594                0.01271325               -0.06585027               -0.08365477                0.15310248                0.09842535                0.15331381               -0.09959077
               4.00490959                7.98452579               22.03331924                0.01025283               -0.08135045               -0.08864951                0.16497281                0.18802191                0.25080598               -0.13242420
               5.00392614                7.98603805               22.03595760                0.01000000               -0.12469239               -0.03679246                0.18252989                0.22964690                0.33272576               -0.03315484
               6.00241574                7.98904275               22.03939318                0.01000000               -0.18166446                0.06172155                0.20086666                0.30717642                0.40659522                0.08020458
               7.00029285                7.99407050               22.04351879                0.01129627               -0.26774104                0.17440942                0.21039833                0.33693125                0.36821853                0.15222871
               7.99706092                7.99859508               22.04623639                0.01000002               -0.38448927                0.42153011                0.22079457                0.26340647                0.35336270                0.29903851
               8.99260307                8.00333001               22.05034216                0.43313287               -0.25754089                0.22266195                0.23225044                0.07609586                0.20116102                0.25818187
               9.99191011                8.00200232               22.05038475                0.95975526               -0.06929601                0.13044025                0.22958323               -0.09393770               -0.00185466                0.21886305
               0.00906676                8.98963849               22.03247815                1.00000000               -0.04438297               -0.04388867                0.14733869                0.00066424               -0.00040973                0.01681343
               1.00862293                8.98766958               22.03208195                0.99999999               -0.04453521               -0.04477905                0.14865970                0.00002762               -0.00042698               -0.00180158
               2.00817605                8.98571198               22.03168564                0.10370787               -0.04487440               -0.04504105                0.14997914                0.00049846               -0.00691953               -0.01461996
               3.00772544                8.98377699               22.03116059                0.01365545               -0.08697704               -0.07151424                0.15065390                0.11078016                0.11029941               -0.07992560
               4.00643651                8.98382681               22.03310983                0.01000000               -0.20611545               -0.01663020                0.16485123                0.19157137                0.31813658               -0.09825994
               5.00360313                8.98592240               22.03680500                0.01000000               -0.28313232                0.03729116                0.18641058                0.17978936                0.40674644               -0.01137798
               6.00077387                8.98981034               22.04075479                0.01113511               -0.26736575                0.06532261                0.20051031                0.19909212                0.40018764                0.04791978
               6.99825582                8.99515650               22.04444319                0.01000002               -0.30766956                0.08521415                0.21571993                0.42633570                0.47222587                0.04709311
               7.99462047                9.00394804               22.04992672                0.45123432               -0.21659186                0.23275579                0.23339804                0.31722350                0.27124449                0.21614574
               8.99392398                9.00263545               22.04986701                0.99999998               -0.06923631               -0.06922758                0.23067410                0.00005981               -0.00439898                0.00511789
               9.99323575                9.00131647               22.04983677                0.98894957               -0.06882303               -0.06834718                0.22797539                0.00024434               -0.00289223               -0.00478851
               0.01104629                9.98919166               22.03342670                0.99572369               -0.04566689               -0.04468223                0.15139171                0.00049248                0.01358956                0.01339297
               1.01058962                9.98721706               22.03303423                1.00000000               -0.04585686               -0.04525226                0.15272303               -0.00014929                0.01359774                0.00012377
               2.01012915                9.98525529               22.03264237                0.70757069               -0.04678492               -0.04566910                0.15405083                0.00053426                0.01856390               -0.01305895
               3.00965392                9.98332154               22.03235046                0.21565959               -0.17667705               -0.04554498                0.15519595                0.13974311                0.10607706               -0.00327046
               4.00659561                9.98419319               22.03371219                0.24887933               -0.40577624                0.03663760                0.16863762                0.18902639                0.29470431               -0.05144307
               5.00153840                9.98678387               22.03761490                0.29596171               -0.47160629                0.08614719                0.18763336                0.10132730                0.39889992               -0.00676166
               5.99716348                9.99034920               22.04155894                0.36381166               -0.34282655                0.05388589                0.20333622                0.08850717                0.34317797                0.02522878
               6.99468187                9.99577478               22.04470517                0.48600352               -0.06185182                0.06182753                0.21901697                0.28765458                0.36793518                0.02045932
               7.99592645               10.00325019               22.04933491                0.98017468                0.02769821               -0.06978493                0.23175667                0.43913136                0.23873396                0.00202783
               8.99523583               10.00194546               22.04934877                0.98894993               -0.06867545               -0.06899905                0.22906844                0.00044437                0.00569935                0.00294089
               9.99455294               10.00063538               22.04931939                0.99912397               -0.06828907               -0.06810972                0.22636817                0.00071112                0.00344654               -0.00329330
              -0.00579076               -0.00815182               23.02510403                0.91350112               -0.03277361               -0.03289060                0.10862302                0.00120635               -0.00544974                0.00578498
               0.99388150               -0.00930312               23.02577932                0.64304677               -0.03258090               -0.03446742                0.11197238                0.00110055               -0.00618077               -0.00405177
               1.99355762               -0.01042199               23.02643855                0.39761290               -0.03091273               -0.03522390                0.11534846                0.00301733                0.00034694               -0.00181323
               2.99326325               -0.01144708               23.02724044                0.36109019               -0.02993756               -0.03647282                0.11944191                0.00179662                0.01166537               -0.00086308
               3.99295887               -0.01233631               23.02811026                0.42862234               -0.03278290               -0.03767247                0.12392883               -0.00023418                0.01247361                0.00000907
               4.99260759               -0.01312212               23.02890469                0.55525133               -0.03660711               -0.03891333                0.12792767                0.00005620                0.00626437                0.00024547
               5.99222673               -0.01385660               23.02963453                0.75702693               -0.03890571               -0.04006204                0.13149438                0.00036746                0.00164335                0.00040763
               6.99182947               -0.01456498               23.03032886                0.99869219               -0.04029450               -0.04112156                0.13486512                0.00049412               -0.00112456                0.00040663
               7.99142084               -0.01525528               23.03100062                0.99999999               -0.04138698               -0.04216348                0.13821554                0.00050360               -0.00293777                0.00111911
               8.99100173               -0.01592999               23.03165827                1.00000000               -0.04241423               -0.04317569                0.14156582                0.00052097               -0.00324281                0.00024976
               9.99057255               -0.01658967               23.03232458                0.99578570               -0.04291835               -0.04424092                0.14494607               -0.00019633               -0.00288894               -0.00325573
              -0.00462739                0.99151928               23.02604108                0.64421197               -0.03450134               -0.03269554                0.11257188                0.00110683                0.00412909                0.00780147
               0.99502759                0.99035220               23.02671495                0.01000000               -0.03564163               -0.03589597                0.11591691                0.00183919                0.00926878               -0.00825869
               1.99465977                0.98922577               23.02749148                0.01000000               -0.03946093               -0.02622212                0.11950647                0.02340511                0.02028326                0.00033695
               2.99423837                0.98818819               23.02838874                0.01000001               -0.04328634               -0.02006603                0.12378243                0.04185700                0.02805798                0.00285552
               3.99379405                0.98728696               23.02933512                0.01000000               -0.04350397               -0.01383140                0.12841208                0.05202723                0.02454536                0.00244579
               4.99336829                0.98648874               23.03018177                0.01000000               -0.04211087               -0.01008360                0.13250014                0.05043695                0.01517881                0.00569440
               5.99295183                0.98574278               23.03095261                0.01000001               -0.04172688               -0.00079227                0.13612231                0.03037548                0.00902894                0.00980761
               6.99253376                0.98502380               23.03168166                0.28092902               -0.04217258               -0.04182016                0.13952943               -0.00024457                0.00597687                0.00399459
               7.99210838                0.98432308               23.03239360                0.85894754               -0.04298091               -0.04283893                0.14290096               -0.00004352                0.00355346                0.00290418
               8.99167414                0.98363825               23.03307514                0.99999999               -0.04390562               -0.04386671                0.14626925                0.00001054                0.00112142                0.00027927
               9.99123026                0.98296792               23.03373919                1.00000000               -0.04438734               -0.04493587                0.14965218               -0.00072809                0.00020102               -0.00332178
              -0.00343448                1.99119427               23.02701688                0.39942999               -0.03537308               -0.02968790                0.11669258                0.00346448                0.00163920                0.00850787
               0.99621179                1.98997896               23.02756632                0.01000000               -0.01878917               -0.04189562                0.11980834                0.01694976                0.02522373               -0.01398962
               1.99618974                1.98905357               23.02858712                0.01000001               -0.00862975               -0.02984133                0.12552574                0.06086097                0.05160777               -0.00085250
               2.99603919                1.98815160               23.02961154                0.01000000               -0.02454393               -0.01765682                0.13079457                0.09352471                0.05154885                0.00469625
               3.99569886                1.98738706               23.03060869                0.01000000               -0.04393417                0.00384056                0.13569772                0.12487835                0.04770356                0.01196107
               4.99516051                1.98667620               23.03156760                0.01000001               -0.06998417                0.01822742                0.14001652                0.13537579                0.04015748                0.01194035
               5.99429917                1.98612756               23.03245858                0.01139269               -0.09581156                0.04256383                0.14348884                0.07401854                0.02001825                0.02748746
               6.99324428                1.98459861               23.03310644                0.01617590               -0.07468284                0.00756128                0.14436731                0.02488715                0.00531711                0.02118682
               7.99280552                1.98388794               23.03382299                0.01000000               -0.04435857                0.00504387                0.14759713                0.02897082                0.00647894                0.01909682
               8.99235711                1.98319267               23.03449365                0.09582057               -0.04534347               -0.04453360                0.15097060                0.00057401                0.00368929                0.00270075
               9.99189865                1.98251161               23.03515400                0.70416987               -0.04584598               -0.04621690                0.15435565               -0.00053676                0.00316990               -0.00382999
              -0.00212748                2.99092552               23.02796381                0.36321243               -0.03652322               -0.02525665                0.12137734                0.00178562                0.00014675                0.00766466
               0.99750729                2.98951429               23.02839013                0.01000001               -0.00840838               -0.04996135                0.12428568                0.02681471                0.03761897               -0.01667545
               1.99770436                2.98862895               23.02956610                0.01000000                0.01340425               -0.05360783                0.13096918                0.07243444                0.07740329               -0.01089814
               2.99777538                2.98783505               23.03070631                0.01000000                0.00313250               -0.04079586                0.13709530                0.11454235                0.08111969               -0.00200769
               3.99776701                2.98736378               23.03190030                0.01199914               -0.02200301               -0.02397004                0.14332839                0.14100345                0.07302399                0.00263705
               4.99733532                2.98685329               23.03283650                0.01000000               -0.06286086                0.00580885                0.14793133                0.16660055                0.06931607                0.01557120
               5.99650979                2.98659406               23.03397679                0.01000001               -0.10321000                0.04704899                0.15148375                0.14793186                0.05923852                0.04383906
               6.99527112                2.98517503               23.03480312                0.01000001               -0.12080259                0.12619866                0.15324890                0.13479011                0.03119884                0.07035538
               7.99409374                2.98442396               23.03553969                0.01265237               -0.11045847                0.11072361                0.15652678                0.07534587                0.00455662                0.06304115
               8.99306195                2.98274758               23.03595908                0.01347619               -0.07560426                0.06034322                0.15590556                0.00992854               -0.00846400                0.04515189
               9.99258165                2.98204358               23.03655913                0.21532481               -0.04802951                0.05506396                0.15926177               -0.02216848                0.00057966                0.03619530
              -0.00057631                3.99068914               23.02890901                0.43207894               -0.03790312               -0.02657361                0.12635528               -0.00289437               -0.00139796                0.00971401
               0.99904466                3.98897973               23.02919856                0.01000000               -0.00530115               -0.05171115                0.12903767                0.03122562                0.04648586               -0.01660025
               1.99931767                3.98798141               23.03044576                0.01000000                0.02752773               -0.07161948                0.13591728                0.07969232                0.10158159               -0.02587893
               2.99959521                3.98733568               23.03174403                0.01200016                0.00915116               -0.06274408                0.14326569                0.11390057                0.10058432               -0.01623470
               3.99950069                3.98690766               23.03287485                0.01000000               -0.01664856               -0.05553428                0.14924647                0.14469560                0.10151082               -0.01628287
               4.99926224                3.98679238               23.03415069                0.01000001               -0.02823070               -0.01074557                0.15536876                0.20533473                0.11992131                0.02613581
               5.99893607                3.98706853               23.03562987                0.01000001               -0.05760310                0.05214489                0.16192532                0.24202711                0.12600602                0.06925895
               6.99811018                3.98712259               23.03702351                0.01194555               -0.10980943                0.14552281                0.16773711                0.19753641                0.08225816                0.09142768
               7.99673989                3.98610241               23.03770006                0.01015941               -0.15870604                0.18625937                0.16947896                0.09464407                0.02969165                0.11090450
               8.99493606                3.98439954               23.03822373                0.01000000               -0.19383076                0.30412640                0.17028418                0.04393917                0.01155944                0.15068341
               9.99286327                3.98361289               23.03877444                0.24864497               -0.20727871                0.34108480                0.17231725               -0.04386407                0.00046356                0.15152188
               0.00123345                4.99039405               23.02988037                0.56173189               -0.03939209               -0.03239304                0.13089075               -0.00239140               -0.00176884                0.01265115
               1.00083953                4.98848007               23.03003492                0.01000000               -0.01455981               -0.04799114                0.13334298                0.02771405                0.04579563               -0.01447581
               2.00094226                4.98719656               23.03114038                0.01000001                0.01438045               -0.08133716                0.14004046                0.07583659                0.11120293               -0.05102925
               3.00112714                4.98658017               23.03252545                0.01000000                0.01309802               -0.09516289                0.14761401                0.11345333                0.12211269               -0.06725543
               4.00120422                4.98625309               23.03375331                0.01000001                0.00769980               -0.07326973                0.15481033                0.17554391                0.14585338               -0.02688423
               5.00128114                4.98663838               23.03552693                0.01000001               -0.00920463               -0.02188098                0.16401892                0.25235369                0.18541386                0.02934647
               6.00102012                4.98763695               23.03745665                0.01201851               -0.05465840                0.03001380                0.17342534                0.24455042                0.16208364                0.05395951
               7.00018797                4.98808548               23.03871797                0.01022406               -0.11552269                0.10210130                0.17946830                0.18256031                0.12643567                0.08590755
               7.99870967                4.98814915               23.03999451                0.01000000               -0.18788585                0.27074031                0.18534574                0.16480400                0.12710547                0.17603947
               8.99643025                4.98883011               23.04143304                0.01000000               -0.27160037                0.45742134                0.18863667                0.10778788                0.08696561                0.24832131
               9.99327766                4.98886528               23.04218795                0.29600665               -0.31525887                0.54851581                0.18886349                0.03630018                0.03449405                0.24996858
               0.00320382                5.99004128               23.03087490                0.77004693               -0.04073886               -0.03720953                0.13506754               -0.00108431               -0.00208261                0.01440436
               1.00279643                5.98801991               23.03089042                0.01000001               -0.02347611               -0.04502095                0.13727175                0.01542746                0.03030754               -0.01304176
               2.00273430                5.98635467               23.03155330                0.01139710                0.00056577               -0.08562084                0.14293072                0.04372554                0.08380664               -0.09779438
               3.00280775                5.98543242               23.03257009                0.01000001                0.01095312               -0.11476823                0.14978319                0.11167833                0.15273878               -0.12387363
               4.00295336                5.98544227               23.03451338                0.01000001                0.00588525               -0.08796601                0.16022950                0.19468661                0.22223752               -0.04157723
               5.00292545                5.98635476               23.03680276                0.01202005               -0.02866900               -0.04827430                0.17227110                0.23634598                0.21986184               -0.01088572
               6.00237998                5.98766881               23.03858675                0.01026720               -0.08381288                0.00859771                0.18195700                0.23604307                0.20388977                0.02840841
               7.00124919                5.98916461               23.04052925                0.01000000               -0.15443167                0.15662526                0.19315216                0.24875464                0.23230799                0.14206370
               7.99929135                5.99151722               23.04293391                0.01000000               -0.24367533                0.36020797                0.20104089                0.22287011                0.22033024                0.26828831
               8.99637569                5.99354796               23.04480271                0.01095862               -0.28862071                0.46998182                0.20157750                0.12266818                0.12493732                0.28461777
               9.99351893                5.99458321               23.04560720                0.36397738               -0.28567551                0.49360300                0.20320201                0.05056732                0.05358467                0.27675970
               0.00525451                6.98964986               23.03187710                0.99999999               -0.04198157               -0.04028645                0.13908022               -0.00004595               -0.00192387                0.01554786
               1.00483469                6.98757965               23.03175663                0.30217392               -0.04251253               -0.04390759                0.14103272               -0.00257184               -0.01525964               -0.01283937
               2.00440426                6.98548414               23.03136916                0.01618222               -0.02807897               -0.06531176                0.14253515                0.02226325                0.03772472               -0.07947133
               3.00427311                6.98428481               23.03230878                0.01000001               -0.01143234               -0.09370468                0.14983466                0.10011530                0.20111537               -0.09535197
               4.00417561                6.98449377               23.03511530                0.01195004               -0.02458000               -0.10413706                0.16459629                0.18111002                0.27045582               -0.08986703
               5.00378151                6.98567289               23.03730024                0.01022883               -0.06222383               -0.06521627                0.17652884                0.23032843                0.25787110               -0.05152782
               6.00293113                6.98780891               23.03976796                0.01000000               -0.12334281                0.03515504                0.19161087                0.29366570                0.31041749                0.06202815
               7.00131465                6.99121799               23.04296926                0.01000000               -0.20737045                0.23247255                0.20511339                0.34295343                0.35360138                0.20799630
               7.99878372                6.99535331               23.04633872                0.01119373               -0.27485145                0.36103290                0.20985148                0.24573457                0.26729449                0.25812363
               8.99581763                6.99822974               23.04795805                0.01000002               -0.32826003                0.51685508                0.21566086               -0.02189314                0.11501555                0.39734595
               9.99221852                6.99873734               23.04861271                0.48450448               -0.35991034                0.39555541                0.21828022               -0.03207294                0.04147798                0.35597875
               0.00734331                7.98923555               23.03289278                0.99109483               -0.04326036               -0.04225452                0.14313676                0.00050140               -0.00369906                0.01840287
               1.00691071                7.98714176               23.03261634                0.89384936               -0.04344543               -0.04405722                0.14477425               -0.00068108               -0.00958235               -0.00852176
               2.00647441                7.98504843               23.03222219                0.01000000               -0.05551444               -0.04402268                0.14614400                0.02865747                0.04493217               -0.02208763
               3.00580042                7.98355833               23.03303669                0.01266000               -0.06434668               -0.08761859                0.15302714                0.10738293                0.16120417               -0.10358480
               4.00518747                7.98335952               23.03496684                0.01016989               -0.07917709               -0.09341726                0.16449563                0.20545146                0.26429325               -0.13666399
               5.00421688                7.98505044               23.03777660                0.01000000               -0.12396376               -0.03565380                0.18121287                0.25410366                0.35032352               -0.03244397
               6.00270820                7.98837191               23.04139257                0.01000000               -0.18265082                0.06906705                0.19898821                0.33979929                0.42188032                0.08069989
               7.00056386                7.99381406               23.04561747                0.01122905               -0.27569563                0.19044693                0.20928790                0.37273976                0.38048867                0.15478892
               7.99719428                7.99873788               23.04844153                0.01000002               -0.40050352                0.46075956                0.22013563                0.29608526                0.36663492                0.31010677
               8.99255379                8.00388506               23.05266221                0.43312227               -0.26660012                0.24808475                0.23175039                0.09386046                0.20822014                0.26688034
               9.99186228                8.00249431               23.05267833                0.95981698               -0.06915116                0.15359570                0.22912609               -0.08747566               -0.00185933                0.22497642
               0.00945212                8.98880477               23.03395137                1.00000000               -0.04439352               -0.04387805                0.14730926                0.00067034               -0.00043160                0.01709907
               1.00900818                8.98669851               23.03356904                0.99999999               -0.04456423               -0.04480524                0.14875444                0.00002819               -0.00044853               -0.00187245
               2.00856083                8.98460369               23.03318657                0.10432123               -0.04492524               -0.04510795                0.15019825                0.00054123               -0.00725751               -0.01491641
               3.00810968                8.98253243               23.03266896                0.01360265               -0.08841526               -0.07411998                0.15100897                0.11978903                0.11619013               -0.08338912
               4.00679253                8.98262542               23.03475644                0.01000000               -0.21292413               -0.01539284                0.16439778                0.20745512                0.33501617               -0.10097162
               5.00385120                8.98495982               23.03866435                0.01000000               -0.29145208                0.04173018                0.18539874                0.19760058                0.42509126               -0.01275990
               6.00096349                8.98919025               23.04275726                0.01106638               -0.27238552                0.07043280                0.19989151                0.22060850                0.41632609                0.04619889
               6.99840349                8.99502693               23.04659955                0.01000002               -0.31645299                0.09483243                0.21541662                0.46460912                0.49097892                0.05020227
               7.99463443                9.00456850               23.05225995                0.45071302               -0.22325455                0.25663336                0.23324237                0.34878945                0.28139760                0.22328490
               8.99393840                9.00319144               23.05217318                0.99999998               -0.06919596               -0.06919171                0.23055636                0.00005591               -0.00442648                0.00514739
               9.99325051                9.00180925               23.05211615                0.98915375               -0.06878864               -0.06832558                0.22789911                0.00018478               -0.00290446               -0.00480274
               0.01156924                9.98835799               23.03494065                0.99578960               -0.04568888               -0.04467775                0.15140013                0.00047874                0.01384160                0.01363720
               1.01111235                9.98624565               23.03456213                1.00000000               -0.04589710               -0.04528528                0.15285462               -0.00016864                0.01384959                0.00011513
               2.01065130                9.98414628               23.03418421                0.70823563               -0.04689454               -0.04574107                0.15430668                0.00056043                0.01872858               -0.01332252
               3.01017446                9.98207593               23.03390441                0.21570170               -0.18710553               -0.04565063                0.15558195                0.15174806                0.11210078               -0.00333165
               4.00690919                9.98305167               23.03539709                0.24890147               -0.42851989                0.04262431                0.16824274                0.20212172                0.31055648               -0.05270118
               5.00160407                9.98588504               23.03949001                0.29594040               -0.49279676                0.09252220                0.18726889                0.11173193                0.41629612               -0.00960010
               5.99705326                9.98978057               23.04359216                0.36378920               -0.35631341                0.05903179                0.20317092                0.10026051                0.35961201                0.02478878
               6.99447780                9.99571071               23.04689837                0.48595881               -0.05238460                0.06837859                0.21939829                0.31192988                0.38309179                0.02258517
               7.99600556               10.00387054               23.05165363                0.97970396                0.04181802               -0.06979555                0.23198337                0.47663941                0.24636860                0.00203882
               8.99531416               10.00250123               23.05164078                0.98915389               -0.06876078               -0.06902064                0.22933442                0.00043930                0.00571817                0.00295712
               9.99463035               10.00112780               23.05158459                0.99929988               -0.06838098               -0.06814482                0.22667563                0.00064118                0.00345876               -0.00330678
              -0.00653781               -0.00905017               24.02618928                0.91318729               -0.03270126               -0.03281193                0.10842826                0.00123135               -0.00554530                0.00589785
               0.99313518               -0.01029934               24.02689845                0.64271256               -0.03244520               -0.03446093                0.11185157                0.00116307               -0.00626421               -0.00411740
               1.99281329               -0.01151403               24.02759179                0.39755232               -0.03041766               -0.03520820                0.11529796                0.00328282                0.00061790               -0.00184847
               2.99252683               -0.01262582               24.02843458                0.36102007               -0.02895108               -0.03647632                0.11938753                0.00190852                0.01247064               -0.00088291
               3.99223427               -0.01358350               24.02934905                0.42839568               -0.03179626               -0.03766992                0.12383343               -0.00048667                0.01324370                0.00000400
               4.99189090               -0.01441958               24.03018359                0.55485979               -0.03601740               -0.03890209                0.12785294               -0.00015446                0.00660718                0.00024552
               5.99151392               -0.01519371               24.03094946                0.75663171               -0.03864179               -0.04005568                0.13148637                0.00025887                0.00169344                0.00040940
               6.99111807               -0.01593700               24.03167791                0.99871713               -0.04021267               -0.04113153                0.13493812                0.00045966               -0.00117351                0.00040997
               7.99070966               -0.01666048               24.03238358                0.99999999               -0.04138962               -0.04219689                0.13836758                0.00050847               -0.00299067                0.00111907
               8.99029027               -0.01736786               24.03307515                1.00000000               -0.04246657               -0.04322555                0.14179993                0.00053440               -0.00327594                0.00025291
               9.98986033               -0.01806039               24.03377562                0.99582009               -0.04299393               -0.04431367                0.14525266               -0.00016122               -0.00290294               -0.00325344
              -0.00527633                0.99062171               24.02716608                0.64383228               -0.03449362               -0.03255026                0.11242814                0.00117536                0.00420217                0.00799483
               0.99437874                0.98935605               24.02787379                0.01000000               -0.03571593               -0.03596272                0.11584755                0.00202370                0.00945824               -0.00834950
               1.99400936                0.98813389               24.02868646                0.01000000               -0.03990436               -0.02492956                0.11948658                0.02541961                0.02090764                0.00127643
               2.99358065                0.98700942               24.02962631                0.01000001               -0.04415366               -0.01776939                0.12373313                0.04538930                0.02914548                0.00421489
               3.99312628                0.98603980               24.03061860                0.01000000               -0.04430958               -0.01067779                0.12829161                0.05652443                0.02550340                0.00386728
               4.99269446                0.98519140               24.03150610                0.01000000               -0.04255342               -0.00668325                0.13237322                0.05483487                0.01563214                0.00716519
               5.99227521                0.98440573               24.03231340                0.01000001               -0.04192071                0.00312749                0.13603839                0.03301355                0.00914327                0.01115226
               6.99185605                0.98365169               24.03307684                0.28064998               -0.04225176               -0.04182655                0.13950599               -0.00039447                0.00596407                0.00407503
               7.99143018                0.98291755               24.03382280                0.85943995               -0.04302357               -0.04285242                0.14293665               -0.00008337                0.00352200                0.00290856
               8.99099557                0.98219989               24.03453837                0.99999999               -0.04394615               -0.04389452                0.14637247                0.00001132                0.00110038                0.00028520
               9.99055126                0.98149647               24.03523662                1.00000000               -0.04443179               -0.04498884                0.14982746               -0.00070432                0.00019105               -0.00331601
              -0.00398298                1.99029882               24.02818325                0.39928835               -0.03535448               -0.02924015                0.11658196                0.00373100                0.00166543                0.00904758
               0.99566347                1.98898141               24.02876435                0.01000000               -0.01743519               -0.04223930                0.11979251                0.01888224                0.02657717               -0.01383281
               1.99566831                1.98798738               24.02984328                0.01000001               -0.00673818               -0.02819467                0.12595070                0.06672806                0.05397518                0.00068194
               2.99552871                1.98701879               24.03092001                0.01000000               -0.02427673               -0.01405580                0.13105366                0.10205508                0.05344775                0.00716152
               3.99518278                1.98620294               24.03196533                0.01000000               -0.04535232                0.00987293                0.13562678                0.13605812                0.04903376                0.01516232
               4.99462166                1.98544675               24.03296677                0.01000001               -0.07344401                0.02531187                0.13974662                0.14745193                0.04089879                0.01531294
               5.99371390                1.98486884               24.03389207                0.01139146               -0.10116537                0.05106636                0.14320486                0.08049528                0.01894378                0.03079643
               6.99259835                1.98322647               24.03454925                0.01617032               -0.07770510                0.01232199                0.14419742                0.02721125                0.00399165                0.02330217
               7.99215980                1.98248247               24.03529846                0.01000000               -0.04433869                0.00879543                0.14750035                0.03213959                0.00639002                0.02114197
               8.99171158                1.98175425               24.03600320                0.09586667               -0.04533587               -0.04446455                0.15094214                0.00062680                0.00367698                0.00280813
               9.99125308                1.98103983               24.03669777                0.70421076               -0.04585021               -0.04623467                0.15439994               -0.00047805                0.00316330               -0.00373043
              -0.00256687                2.99003691               24.02917686                0.36303870               -0.03653055               -0.02450298                0.12123579                0.00191520                0.00014708                0.00860785
               0.99706782                2.98851127               24.02963283                0.01000001               -0.00633005               -0.05051914                0.12425274                0.02986137                0.03952391               -0.01612991
               1.99730653                2.98757000               24.03087643                0.01000000                0.01691858               -0.05361476                0.13124601                0.07985830                0.08099403               -0.00991511
               2.99740620                2.98672830               24.03207745                0.01000000                0.00564794               -0.03874190                0.13715973                0.12570070                0.08438734               -0.00005165
               3.99741949                2.98623725               24.03333236                0.01198877               -0.02142991               -0.02018747                0.14301230                0.15442659                0.07573737                0.00538013
               4.99697760                2.98569763               24.03431366                0.01000000               -0.06570439                0.01216058                0.14746383                0.18209934                0.07074527                0.01918855
               5.99610540                2.98542706               24.03548904                0.01000001               -0.10954815                0.05674530                0.15094528                0.16183160                0.05912310                0.04899350
               6.99478663                2.98389813               24.03633280                0.01000001               -0.12801058                0.14178993                0.15269816                0.14776682                0.03065330                0.07745142
               7.99354519                2.98309346               24.03710222                0.01261384               -0.11679415                0.12409168                0.15599935                0.08386329                0.00267854                0.06927375
               8.99245075                2.98131060               24.03751699                0.01344513               -0.07873259                0.06956712                0.15568358                0.01337624               -0.01041068                0.04993535
               9.99197054                2.98057178               24.03815113                0.21536094               -0.04802151                0.06228325                0.15914354               -0.02131238                0.00056257                0.04033341
              -0.00089340                3.98980876               24.03017155                0.43170717               -0.03789963               -0.02592669                0.12615834               -0.00299235               -0.00142511                0.01058760
               0.99872761                3.98797102               24.03048854                0.01000000               -0.00290815               -0.05211536                0.12895782                0.03467714                0.04854784               -0.01616541
               1.99904844                3.98691509               24.03180488                0.01000000                0.03239290               -0.07291120                0.13589957                0.08821545                0.10614428               -0.02564907
               2.99937547                3.98624396               24.03317571                0.01198961                0.01267693               -0.06266256                0.14299437                0.12550990                0.10490087               -0.01502357
               3.99930198                3.98579919               24.03436514                0.01000000               -0.01508114               -0.05455070                0.14877329                0.15901350                0.10530264               -0.01444437
               4.99907384                3.98568996               24.03570120                0.01000001               -0.02759718               -0.00544750                0.15469398                0.22520242                0.12408193                0.03036708
               5.99875004                3.98600375               24.03724470                0.01000001               -0.05932777                0.06280790                0.16102664                0.26535521                0.13005764                0.07653334
               6.99788729                3.98606227               24.03869494                0.01189073               -0.11627225                0.16390779                0.16658206                0.21759606                0.08380163                0.10079159
               7.99642459                3.98496431               24.03938868                0.01009488               -0.16932495                0.20906167                0.16828784                0.10776685                0.02850325                0.12101613
               8.99450079                3.98314560               24.03992148                0.01000000               -0.20600622                0.33461865                0.16926405                0.05332992                0.01026123                0.16197619
               9.99230447                3.98228550               24.04049364                0.24869059               -0.21963219                0.36767586                0.17146694               -0.04161757               -0.00000824                0.16049630
               0.00104877                4.98951837               24.03118827                0.56110371               -0.03937208               -0.03205188                0.13069271               -0.00246082               -0.00180417                0.01314848
               1.00065504                4.98746896               24.03136796                0.01000000               -0.01254299               -0.04814363                0.13326348                0.03074248                0.04784660               -0.01445440
               2.00079791                4.98611177               24.03254026                0.01000001                0.01886238               -0.08369348                0.13985119                0.08402309                0.11601762               -0.05167235
               3.00103229                4.98547505               24.03400023                0.01000000                0.01779227               -0.09811076                0.14728728                0.12530370                0.12743432               -0.06795242
               4.00115375                4.98514624               24.03529873                0.01000001                0.01223993               -0.07361411                0.15423093                0.19326934                0.15220554               -0.02519250
               5.00127709                4.98558868               24.03716262                0.01000001               -0.00567766               -0.01734690                0.16309487                0.27737293                0.19314710                0.03422232
               6.00104020                4.98668322               24.03918380                0.01194872               -0.05495486                0.03894535                0.17202569                0.26957234                0.16845657                0.06073051
               7.00017799                4.98717628               24.04050332                0.01013794               -0.12114990                0.11912188                0.17767200                0.20513033                0.13108915                0.09517682
               7.99861720                4.98727470               24.04183777                0.01000000               -0.19909163                0.30245410                0.18338544                0.18803286                0.13049691                0.18796527
               8.99619616                4.98800297               24.04331189                0.01000000               -0.28794090                0.49862599                0.18712563                0.12183688                0.08752047                0.25976954
               9.99285838                4.98792530               24.04407245                0.29602503               -0.33377790                0.59179685                0.18794148                0.03929310                0.03307951                0.26075268
               0.00315622                5.98916773               24.03222474                0.76919414               -0.04071618               -0.03706022                0.13490561               -0.00110794               -0.00212524                0.01465549
               1.00274906                5.98700815               24.03226292                0.01000001               -0.02167044               -0.04505935                0.13722625                0.01722668                0.03193576               -0.01329432
               2.00272281                5.98524122               24.03298186                0.01139576                0.00490087               -0.08893571                0.14277528                0.04855673                0.08799446               -0.10073674
               3.00284707                5.98428174               24.03406623                0.01000001                0.01654628               -0.11993012                0.14942727                0.12280876                0.15962213               -0.12681014
               4.00305374                5.98432691               24.03611252                0.01000001                0.01186252               -0.08986208                0.15957113                0.21437406                0.23208131               -0.04046657
               5.00308432                5.98534303               24.03851933                0.01195012               -0.02499258               -0.04674136                0.17105405                0.26052803                0.22974871               -0.00801745
               6.00255388                5.98678265               24.04039680                0.01017334               -0.08429542                0.01637209                0.18010775                0.26317980                0.21357682                0.03432444
               7.00139842                5.98844471               24.04244777                0.01000000               -0.15976615                0.17818696                0.19066123                0.28117680                0.24160545                0.15172055
               7.99935856                5.99101339               24.04493271                0.01000000               -0.25557450                0.39488022                0.19880212                0.25125834                0.22492398                0.27779872
               8.99628693                5.99311812               24.04681278                0.01089927               -0.30564420                0.51333303                0.20037929                0.13737548                0.12599572                0.29556461
               9.99324568                5.99412143               24.04763546                0.36400674               -0.30412494                0.54154101                0.20233411                0.05638146                0.05438693                0.28811975
               0.00534576                6.98877717               24.03326732                0.99999999               -0.04196716               -0.04022516                0.13896699               -0.00004622               -0.00196454                0.01574309
               1.00492609                6.98656777               24.03316697                0.30142748               -0.04251543               -0.04391800                0.14103315               -0.00258290               -0.01552675               -0.01318910
               2.00449545                6.98433306               24.03279509                0.01617659               -0.02616547               -0.06721374                0.14264313                0.02453828                0.04002450               -0.08218621
               3.00440278                6.98307645               24.03380615                0.01000001               -0.00577510               -0.09808988                0.14963938                0.11007250                0.21020394               -0.09799958
               4.00437995                6.98334900               24.03675769                0.01189529               -0.01854357               -0.10877677                0.16388221                0.19896054                0.28257909               -0.09162728
               5.00403191                6.98465386               24.03905874                0.01014238               -0.05889182               -0.06589828                0.17520381                0.25421084                0.27055757               -0.05052350
               6.00320211                6.98701066               24.04167258                0.01000000               -0.12305573                0.04424008                0.18939987                0.32723829                0.32464015                0.06736916
               7.00157079                6.99074002               24.04500775                0.01000000               -0.21165766                0.25456379                0.20269072                0.38084467                0.36395899                0.21366266
               7.99896896                6.99517230               24.04843034                0.01113193               -0.28675829                0.39312938                0.20845865                0.27599676                0.27422207                0.26631688
               8.99583563                6.99826963               24.05011050                0.01000002               -0.34947929                0.56671850                0.21474856               -0.00862220                0.12034656                0.41169660
               9.99197937                6.99875612               24.05079315                0.48457061               -0.38562533                0.44384883                0.21764973               -0.02160162                0.04437504                0.36772131
               0.00757409                7.98836322               24.03432380                0.99116108               -0.04325823               -0.04222829                0.14306997                0.00050826               -0.00379213                0.01867715
               1.00714151                7.98612979               24.03406434                0.89395127               -0.04345963               -0.04407162                0.14482139               -0.00068058               -0.00980845               -0.00876618
               2.00670490                7.98389694               24.03368450                0.01000000               -0.05544609               -0.04407128                0.14630826                0.03128403                0.04723508               -0.02263136
               3.00603259                7.98231994               24.03456648                0.01262143               -0.06246788               -0.09174809                0.15292501                0.11655129                0.16864967               -0.10738212
               4.00545554                7.98215137               24.03660915                0.01010560               -0.07628525               -0.09859338                0.16394766                0.22333082                0.27705240               -0.14097937
               5.00450688                7.98402506               24.03958186                0.01000000               -0.12215280               -0.03500270                0.17985521                0.27941565                0.36712680               -0.03180909
               6.00301248                7.98766745               24.04337294                0.01000000               -0.18266060                0.07620348                0.19714618                0.37369994                0.43708543                0.08182043
               7.00085367                7.99353598               24.04770455                0.01116563               -0.28317984                0.20698124                0.20810861                0.41052156                0.39314385                0.15823844
               7.99734889                7.99887598               24.05063911                0.01000002               -0.41615012                0.50146708                0.21933221                0.33111702                0.38010003                0.32150891
               8.99253067                8.00445249               24.05497716                0.43311598               -0.27541070                0.27450977                0.23122899                0.11330319                0.21537928                0.27554600
               9.99184067                8.00299841               24.05496727                0.95989078               -0.06899935                0.17790200                0.22865181               -0.07978948               -0.00186375                0.23089796
               0.00982279                8.98793260               24.03542433                1.00000000               -0.04440336               -0.04386833                0.14728487                0.00067639               -0.00045222                0.01738789
               1.00937876                8.98568634               24.03505704                0.99999999               -0.04459059               -0.04483104                0.14884238                0.00002842               -0.00046920               -0.00194040
               2.00893098                8.98345163               24.03468960                0.10489041               -0.04496909               -0.04516922                0.15039862                0.00058491               -0.00758722               -0.01521009
               3.00847937                8.98124149               24.03418077                0.01357865               -0.08947650               -0.07679624                0.15133507                0.12879854                0.12159583               -0.08664897
               4.00714145                8.98137713               24.03639778                0.01000000               -0.21876184               -0.01467537                0.16381626                0.22389592                0.35111925               -0.10387490
               5.00410414                8.98395380               24.04051297                0.01000000               -0.29881306                0.04577513                0.18430609                0.21599821                0.44321737               -0.01395756
               6.00116519                8.98853473               24.04475262                0.01100272               -0.27657191                0.07538574                0.19912744                0.24303595                0.43262680                0.04507138
               6.99857270                8.99487965               24.04875152                0.01000002               -0.32451951                0.10464284                0.21489652                0.50477419                0.50988395                0.05369718
               7.99467480                9.00520164               24.05459156                0.45020436               -0.22967215                0.28138240                0.23307072                0.38213556                0.29166514                0.23052753
               8.99397926                9.00375983               24.05447814                0.99999998               -0.06915326               -0.06915361                0.23043105                0.00005376               -0.00445593                0.00517730
               9.99329173                9.00231416               24.05439475                0.98936751               -0.06875250               -0.06830307                0.22781998                0.00012349               -0.00291722               -0.00481820
               0.01208015                9.98748586               24.03645470                0.99582358               -0.04571022               -0.04467462                0.15141278                0.00046698                0.01409369                0.01388253
               1.01162304                9.98523317               24.03609132                1.00000000               -0.04593499               -0.04531689                0.15297898               -0.00018609                0.01410110                0.00010749
               2.01116145                9.98299356               24.03572851                0.70884717               -0.04699922               -0.04580762                0.15454313                0.00058935                0.01889690               -0.01358390
               3.01068306                9.98078402               24.03546209                0.21576317               -0.19701515               -0.04574688                0.15594018                0.16358389                0.11763165               -0.00338872
               4.00722114                9.98185786               24.03707704                0.24894424               -0.45069067                0.04807335                0.16767204                0.21579679                0.32604017               -0.05418078
               5.00166925                9.98494056               24.04136028                0.29593020               -0.51368930                0.09867606                0.18670442                0.12237615                0.43372896               -0.01209964
               5.99694736                9.98917517               24.04562236                0.36376854               -0.36935036                0.06404397                0.20278358                0.11263102                0.37619785                0.02448916
               6.99428224                9.99562884               24.04909314                0.48591400               -0.04179699                0.07491937                0.21940431                0.33737688                0.39846241                0.02490735
               7.99611142               10.00450363               24.05397458                0.97925402                0.05684937               -0.06980164                0.23220337                0.51569083                0.25401566                0.00205074
               8.99541923               10.00306941               24.05393546                0.98936772               -0.06884681               -0.06904130                0.22960264                0.00043329                0.00573718                0.00297394
               9.99473448               10.00163235               24.05385290                0.99946391               -0.06847451               -0.06818068                0.22699013                0.00056873                0.00347143               -0.00332089
              -0.00732001               -0.00998747               25.02727260                0.91284733               -0.03262899               -0.03273373                0.10823736                0.00125466               -0.00563194                0.00599993
               0.99235370               -0.01133616               25.02801636                0.64231740               -0.03230755               -0.03445346                0.11172955                0.00122621               -0.00634000               -0.00417747
               1.99203384               -0.01264829               25.02874451                0.39745122               -0.02991521               -0.03518963                0.11524238                0.00355438                0.00086165               -0.00188073
               2.99175540               -0.01384820               25.02962819                0.36095049               -0.02795553               -0.03647488                0.11933390                0.00202303                0.01320029               -0.00090206
               3.99147473               -0.01487532               25.03058693                0.42820633               -0.03080358               -0.03766449                0.12374401               -0.00074243                0.01395280               -0.00000307
               4.99113933               -0.01576223               25.03146175                0.55453699               -0.03542261               -0.03889013                0.12777929               -0.00036887                0.00694082                0.00024311
               5.99076628               -0.01657631               25.03226426                0.75631606               -0.03837210               -0.04004847                0.13147169                0.00014713                0.00176347                0.00040856
               6.99037188               -0.01735464               25.03302762                0.99877686               -0.04012469               -0.04113928                0.13499801                0.00042321               -0.00119615                0.00041042
               7.98996378               -0.01811136               25.03376797                0.99999998               -0.04138596               -0.04222725                0.13850346                0.00051271               -0.00301646                0.00111514
               8.98954417               -0.01885139               25.03449427                1.00000000               -0.04251261               -0.04327155                0.14201587                0.00054791               -0.00328563                0.00025545
               9.98911353               -0.01957673               25.03522963                0.99582826               -0.04306331               -0.04438190                0.14553846               -0.00012767               -0.00289895               -0.00323471
              -0.00595877                0.98968520               25.02828964                0.64339478               -0.03448516               -0.03240463                0.11228350                0.00124324                0.00426858                0.00816945
               0.99369638                0.98831931               25.02903190                0.01000000               -0.03579121               -0.03602897                0.11577207                0.00221080                0.00962944               -0.00843341
               1.99332541                0.98699981               25.02988121                0.01000000               -0.04036172               -0.02372349                0.11945939                0.02737402                0.02146570                0.00255064
               2.99288914                0.98578705               25.03086340                0.01000001               -0.04505414               -0.01540557                0.12368684                0.04894619                0.03010940                0.00580125
               3.99242432                0.98474803               25.03190095                0.01000000               -0.04515068               -0.00740673                0.12818442                0.06099306                0.02634895                0.00531641
               4.99198613                0.98384887               25.03282923                0.01000000               -0.04301833               -0.00314310                0.13225786                0.05937956                0.01602873                0.00854648
               5.99156396                0.98302321               25.03367338                0.01000001               -0.04212449                0.00720767                0.13595955                0.03571950                0.00923478                0.01242468
               6.99114364                0.98223396               25.03447178                0.28046601               -0.04233362               -0.04183315                0.13948130               -0.00054946                0.00593804                0.00412624
               7.99071728                0.98146637               25.03525233                0.85996799               -0.04306551               -0.04286423                0.14296658               -0.00012441                0.00348191                0.00290077
               8.99028233                0.98071590               25.03600259                0.99999999               -0.04398453               -0.04391985                0.14646783                0.00001261                0.00107736                0.00028972
               9.98983759                0.97997945               25.03673574                1.00000000               -0.04447368               -0.04503897                0.14999335               -0.00068169                0.00018113               -0.00329398
              -0.00456337                1.98936444               25.02934851                0.39911173               -0.03533288               -0.02879091                0.11646879                0.00399737                0.00168883                0.00953204
               0.99508331                1.98794326               25.02996217                0.01000000               -0.01615282               -0.04259000                0.11976636                0.02073094                0.02822700               -0.01370023
               1.99511358                1.98687724               25.03110614                0.01000001               -0.00486019               -0.02653818                0.12841110                0.07273201                0.05647722                0.00254822
               2.99498610                1.98584369               25.03223261                0.01000000               -0.02404001               -0.01043624                0.13166840                0.11086748                0.05374602                0.00944639
               3.99463278                1.98497654               25.03332122                0.01000000               -0.04671795                0.01617693                0.13513712                0.14762178                0.05009932                0.01827345
               4.99405174                1.98417491               25.03436253                0.01000001               -0.07686021                0.03268847                0.13947822                0.15993576                0.04145863                0.01853724
               5.99309557                1.98356784               25.03532267                0.01139283               -0.10670058                0.05990474                0.14289311                0.08714660                0.01787273                0.03392730
               6.99191773                1.98180869               25.03599039                0.01616970               -0.08081048                0.01721989                0.14403623                0.02954393                0.00267530                0.02524614
               7.99147936                1.98103136               25.03677300                0.01000000               -0.04431977                0.01264226                0.14740653                0.03536783                0.00628260                0.02302326
               8.99103134                1.98027021               25.03751249                0.09592894               -0.04532914               -0.04439453                0.15091629                0.00068154                0.00364551                0.00288189
               9.99057278                1.97952249               25.03824199                0.70426190               -0.04585544               -0.04625352                0.15444635               -0.00041999                0.00314003               -0.00363099
              -0.00303647                2.98910938               25.03038853                0.36287311               -0.03653312               -0.02374758                0.12109910                0.00204213                0.00014527                0.00946003
               0.99659820                2.98746751               25.03087518                0.01000001               -0.00419569               -0.05109840                0.12421504                0.03293250                0.04160363               -0.01565500
               1.99687962                2.98646905               25.03219102                0.01000000                0.02044934               -0.05363153                0.13191056                0.08753121                0.08436679               -0.01054313
               2.99700719                2.98557833               25.03344950                0.01000000                0.00829613               -0.03656325                0.13702999                0.13746958                0.08723550                0.00159170
               3.99704554                2.98507157               25.03476055                0.01198192               -0.02068236               -0.01620649                0.14259001                0.16863914                0.07802405                0.00786916
               4.99659354                2.98450264               25.03578577                0.01000000               -0.06862199                0.01879259                0.14692196                0.19811539                0.07201133                0.02267498
               5.99567310                2.98422130               25.03699569                0.01000001               -0.11612688                0.06683007                0.15038705                0.17618150                0.05888973                0.05389309
               6.99427100                2.98257836               25.03785708                0.01000001               -0.13549916                0.15796042                0.15216994                0.16112105                0.03002407                0.08416178
               7.99296312                2.98171922               25.03865968                0.01258727               -0.12330887                0.13779130                0.15552797                0.09268466                0.00084443                0.07509142
               8.99180483                2.97982800               25.03907275                0.01344029               -0.08192426                0.07869742                0.15548082                0.01700771               -0.01226386                0.05434579
               9.99132463                2.97905438               25.03974200                0.21541708               -0.04801929                0.06895003                0.15904214               -0.02006110                0.00054101                0.04413794
              -0.00123878                3.98888949               25.03143218                0.43138106               -0.03789298               -0.02527754                0.12597238               -0.00309691               -0.00145342                0.01139198
               0.99838229                3.98692130               25.03177772                0.01000000               -0.00039173               -0.05254548                0.12887779                0.03806932                0.05057917               -0.01579278
               1.99875338                3.98580461               25.03316375                0.01000000                0.03753414               -0.07414599                0.13540398                0.09709238                0.11047827               -0.02557363
               2.99913297                3.98511243               25.03460392                0.01198288                0.01639346               -0.06238663                0.14259782                0.13789862                0.10881581               -0.01407677
               3.99908125                3.98465241               25.03585032                0.01000000               -0.01343259               -0.05348555                0.14820914                0.17393622                0.10882404               -0.01270691
               4.99886432                3.98455076               25.03724457                0.01000001               -0.02688861                0.00010295                0.15397267                0.24587486                0.12793794                0.03439541
               5.99854348                3.98490445               25.03885040                0.01000001               -0.06110409                0.07390804                0.16011669                0.28962958                0.13378706                0.08343708
               6.99764224                3.98496790               25.04035515                0.01184984               -0.12300334                0.18289194                0.16552386                0.23837577                0.08510714                0.10962594
               7.99608341                3.98378719               25.04106582                0.01004429               -0.18029568                0.23226005                0.16722309                0.12120914                0.02723382                0.13049362
               8.99403632                3.98184416               25.04160901                0.01000000               -0.21823060                0.36530957                0.16826920                0.06277312                0.00892959                0.17260295
               9.99171880                3.98090149               25.04220378                0.24875869               -0.23175220                0.39420594                0.17052633               -0.03959172               -0.00047197                0.16899506
               0.00083798                4.98860383               25.03249423                0.56055504               -0.03935117               -0.03170782                0.13050502               -0.00253585               -0.00183990                0.01362479
               1.00044447                4.98641660               25.03270019                0.01000000               -0.01038233               -0.04831421                0.13318262                0.03390181                0.04974359               -0.01445625
               2.00063034                4.98498613               25.03393740                0.01000001                0.02364418               -0.08597507                0.13964930                0.09257429                0.12058279               -0.05238653
               3.00091736                4.98433060               25.03547120                0.01000000                0.02277982               -0.10110659                0.14685419                0.13761458                0.13250864               -0.06865759
               4.00108593                4.98400186               25.03683793                0.01000001                0.01708242               -0.07392219                0.15359124                0.21173699                0.15817684               -0.02360215
               5.00125900                4.98450470               25.03878883                0.01000001               -0.00186911               -0.01262330                0.16214060                0.30347137                0.20039591                0.03884902
               6.00104855                4.98569946               25.04089716                0.01189593               -0.05516119                0.04810378                0.17071166                0.29555498                0.17432855                0.06705361
               7.00015578                4.98623620               25.04227141                0.01006988               -0.12687555                0.13633468                0.17606013                0.22840565                0.13536192                0.10380707
               7.99851104                4.98636442               25.04366221                0.01000000               -0.21049000                0.33467158                0.18158114                0.21196958                0.13384850                0.19937031
               8.99594598                4.98713420               25.04517555                0.01000000               -0.30464526                0.54082427                0.18562973                0.13653047                0.08836892                0.27113051
               9.99241814                4.98693850               25.04594678                0.29605834               -0.35278452                0.63617031                0.18685973                0.04255601                0.03201039                0.27143252
               0.00308496                5.98825533               25.03357301                0.76844264               -0.04069339               -0.03690850                0.13475207               -0.00113554               -0.00216760                0.01491141
               1.00267802                5.98595501               25.03363494                0.01000001               -0.01970433               -0.04510741                0.13717769                0.01908441                0.03345141               -0.01354699
               2.00269087                5.98408511               25.03440881                0.01139690                0.00957527               -0.09241752                0.14258925                0.05352530                0.09191693               -0.10352275
               3.00286953                5.98309029               25.03555863                0.01000001                0.02255097               -0.12530150                0.14905150                0.13430444                0.16614995               -0.12968006
               4.00314189                5.98317397               25.03770480                0.01000001                0.01833060               -0.09186316                0.15887770                0.23483335                0.24142370               -0.03943501
               5.00323614                5.98429829               25.04022385                0.01189741               -0.02094080               -0.04524013                0.16989461                0.28556638                0.23899348               -0.00536327
               6.00272308                5.98586652               25.04218891                0.01009884               -0.08453740                0.02403460                0.17841661                0.29113355                0.22258251                0.03981194
               7.00154539                5.98769459               25.04434248                0.01000000               -0.16491340                0.19991310                0.18842013                0.31471908                0.25059000                0.16104691
               7.99942481                5.99048062               25.04690996                0.01000000               -0.26762733                0.43044151                0.19673490                0.28102163                0.22990170                0.28756017
               8.99619285                5.99266065               25.04881029                0.01084555               -0.32317498                0.55825485                0.19912068                0.15300267                0.12746952                0.30667396
               9.99296131                5.99362490               25.04965388                0.36404435               -0.32315394                0.59107282                0.20128988                0.06255446                0.05533546                0.29950977
               0.00541592                6.98786566               25.03465644                0.99999999               -0.04195282               -0.04016253                0.13886059               -0.00004850               -0.00200479                0.01594852
               1.00499639                6.98551445               25.03457729                0.30078019               -0.04251782               -0.04393249                0.14102948               -0.00260319               -0.01579678               -0.01353160
               2.00456556                6.98313778               25.03422202                0.01617577               -0.02409037               -0.06919076                0.14273536                0.02681025                0.04211951               -0.08477927
               3.00451458                6.98182457               25.03530156                0.01000001                0.00045203               -0.10271130                0.14944332                0.12030282                0.21878541               -0.10055795
               4.00457460                6.98216460               25.03839294                0.01185424               -0.01184023               -0.11370604                0.16318856                0.21732904                0.29409942               -0.09339673
               5.00427778                6.98359989               25.04080432                0.01007434               -0.05498408               -0.06691366                0.17398763                0.27875204                0.28248567               -0.04968690
               6.00347492                6.98618015               25.04355596                0.01000000               -0.12208553                0.05308776                0.18738183                0.36193539                0.33825924                0.07262992
               7.00183607                6.99023446               25.04702308                0.01000000               -0.21547503                0.27702366                0.20049123                0.42041370                0.37452910                0.21989098
               7.99916542                6.99497325               25.05050789                0.01107426               -0.29871582                0.42631074                0.20709496                0.30818459                0.28164750                0.27504147
               8.99586175                6.99829929               25.05225302                0.01000002               -0.37123504                0.61838472                0.21371988                0.00635406                0.12586904                0.42615619
               9.99174072                6.99875996               25.05296570                0.48464360               -0.41210316                0.49428868                0.21677714               -0.00975891                0.04740916                0.37931384
               0.00778640                7.98745208               25.03575418                0.99121043               -0.04325610               -0.04220154                0.14300853                0.00051467               -0.00388327                0.01895862
               1.00735384                7.98507636               25.03551277                0.89405168               -0.04347207               -0.04408672                0.14486246               -0.00068280               -0.01003121               -0.00900467
               2.00691696                7.98270129               25.03514836                0.01000000               -0.05525375               -0.04411492                0.14645423                0.03397530                0.04935540               -0.02316534
               3.00624877                7.98103607               25.03609519                0.01259487               -0.06019087               -0.09603621                0.15281103                0.12586958                0.17565131               -0.11098054
               4.00571314                7.98089985               25.03824579                0.01005553               -0.07265718               -0.10422804                0.16339282                0.24160294                0.28913482               -0.14536953
               5.00479562                7.98296002               25.04137371                0.01000000               -0.11929649               -0.03488255                0.17856337                0.30556797                0.38325348               -0.03124195
               6.00332722                7.98692828               25.04533549                0.01000000               -0.18175248                0.08310519                0.19542649                0.40888031                0.45223440                0.08350137
               7.00116057                7.99323507               25.04977964                0.01110673               -0.29017736                0.22389095                0.20692895                0.45023537                0.40612239                0.16243083
               7.99752367                7.99900683               25.05282817                0.01000002               -0.43136784                0.54351628                0.21846662                0.36844826                0.39379302                0.33325946
               8.99253322                8.00502834               25.05728679                0.43310673               -0.28394350                0.30186987                0.23068871                0.13440918                0.22267368                0.28424506
               9.99184480                8.00351067               25.05725136                0.95996242               -0.06884199                0.20336465                0.22816318               -0.07085548               -0.00186997                0.23677473
               0.01017765                8.98702163               25.03689707                1.00000000               -0.04441269               -0.04385909                0.14726505                0.00068277               -0.00047213                0.01767971
               1.00973353                8.98463272               25.03654589                0.99999998               -0.04461462               -0.04485567                0.14892349                0.00002886               -0.00048930               -0.00200623
               2.00928536                8.98225548               25.03619455                0.10541623               -0.04500554               -0.04522504                0.15058083                0.00063130               -0.00791097               -0.01550352
               3.00883342                8.97990384               25.03569567                0.01358134               -0.09013261               -0.07952822                0.15162877                0.13771764                0.12648244               -0.08971632
               4.00748271                8.98008003               25.03803277                0.01000000               -0.22363549               -0.01451554                0.16315172                0.24085323                0.36646265               -0.10698864
               5.00436071                8.98290224               25.04235047                0.01000000               -0.30526156                0.04942079                0.18319625                0.23499629                0.46113562               -0.01497837
               6.00137748                8.98784226               25.04673981                0.01094507               -0.27992435                0.08012970                0.19829070                0.26635894                0.44906284                0.04446901
               6.99876222                8.99471228               25.05089748                0.01000002               -0.33181838                0.11452791                0.21425761                0.54677827                0.52899623                0.05749289
               7.99474111                9.00584357               25.05692137                0.44970089               -0.23580637                0.30693465                0.23288618                0.41721506                0.30211915                0.23790910
               8.99404609                9.00433669               25.05678180                0.99999998               -0.06910822               -0.06911319                0.23029827                0.00005208               -0.00448433                0.00521080
               9.99335895                9.00282725               25.05667255                0.98958575               -0.06871463               -0.06827973                0.22773790                0.00006047               -0.00293034               -0.00483165
               0.01257788                9.98657490               25.03796890                0.99583152               -0.04573122               -0.04467260                0.15142991                0.00045738                0.01434617                0.01412852
               1.01212057                9.98417925               25.03762171                1.00000000               -0.04597090               -0.04534679                0.15309694               -0.00020148                0.01435293                0.00010026
               2.01165846                9.98179679               25.03727508                0.70940862               -0.04710025               -0.04586894                0.15476204                0.00062287                0.01907017               -0.01384505
               3.01117856                9.97944550               25.03702321                0.21584357               -0.20633272               -0.04583380                0.15627004                0.17515208                0.12261803               -0.00344567
               4.00753181                9.98060954               25.03875053                0.24900698               -0.47226188                0.05295014                0.16696480                0.23005649                0.34104921               -0.05587471
               5.00173333                9.98394844               25.04322410                0.29593072               -0.53437266                0.10461931                0.18600459                0.13332869                0.45119473               -0.01429225
               5.99684436                9.98853087               25.04764784                0.36375014               -0.38192510                0.06886131                0.20226831                0.12554725                0.39291189                0.02435561
               6.99409482                9.99552563               25.05128646                0.48587213               -0.03003984                0.08133455                0.21917197                0.36399311                0.41415330                0.02735896
               7.99624356               10.00514552               25.05629769                0.97881079                0.07278782               -0.06980487                0.23242057                0.55626745                0.26182213                0.00206162
               8.99555058               10.00364608               25.05623283                0.98958621               -0.06893377               -0.06906118                0.22987367                0.00042654                0.00575963                0.00299152
               9.99486488               10.00214508               25.05612439                0.99961536               -0.06856973               -0.06821728                0.22731198                0.00049381                0.00348509               -0.00333515
              -0.00813797               -0.01096426               26.02835402                0.91248441               -0.03255655               -0.03265582                0.10804977                0.00127646               -0.00571057                0.00609270
               0.99153647               -0.01241398               26.02913304                0.64186936               -0.03216740               -0.03444501                0.11160593                0.00129018               -0.00640852               -0.00423257
               1.99121869               -0.01382504               26.02989664                0.39731456               -0.02940286               -0.03516840                0.11518111                0.00383293                0.00108230               -0.00191023
               2.99094841               -0.01511429               26.03082126                0.36088195               -0.02694634               -0.03646917                0.11927890                0.00214020                0.01386148               -0.00092055
               3.99067976               -0.01621161               26.03182393                0.42804826               -0.02980143               -0.03765629                0.12365771               -0.00100171                0.01460253               -0.00001211
               4.99035238               -0.01714968               26.03273918                0.55427196               -0.03482192               -0.03887746                0.12770562               -0.00058672                0.00726168                0.00023823
               5.98998332               -0.01800378               26.03357889                0.75607104               -0.03809730               -0.04004060                0.13145106                0.00003275                0.00184989                0.00040487
               6.98959044               -0.01881710               26.03437787                0.99886471               -0.04003163               -0.04114527                0.13504671                0.00038509               -0.00119368                0.00040858
               7.98918269               -0.01960691               26.03515364                0.99999998               -0.04137698               -0.04225513                0.13862524                0.00051625               -0.00301446                0.00110550
               8.98876290               -0.02037940               26.03591546                1.00000000               -0.04255309               -0.04331416                0.14221537                0.00056133               -0.00327169                0.00025599
               9.98833163               -0.02113731               26.03668639                0.99581400               -0.04312704               -0.04444592                0.14580494               -0.00009574               -0.00287722               -0.00319826
              -0.00667548                0.98870918               26.02941175                0.64290680               -0.03447608               -0.03225802                0.11213794                0.00131074                0.00432940                0.00832833
               0.99297976                0.98724157               26.03018923                0.01000000               -0.03586767               -0.03609471                0.11569074                0.00240080                0.00978553               -0.00851092
               1.99260717                0.98582327               26.03107565                0.01000000               -0.04083316               -0.02232131                0.11942526                0.02940918                0.02196799                0.00595464
               2.99216310                0.98452102               26.03210005                0.01000001               -0.04598659               -0.01320438                0.12364202                0.05143419                0.03096571                0.00781452
               3.99168744                0.98341183               26.03318229                0.01000000               -0.04602483               -0.00397898                0.12808799                0.06578104                0.02709115                0.00636880
               4.99124260                0.98246155               26.03415126                0.01000000               -0.04350366                0.00053151                0.13215291                0.06404942                0.01636861                0.00990097
               5.99081736                0.98159581               26.03503260                0.01000001               -0.04233740                0.01144261                0.13588602                0.03850325                0.00930080                0.01359480
               6.99039585                0.98077144               26.03586646                0.28036167               -0.04241814               -0.04184030                0.13945672               -0.00070877                0.00589589                0.00414870
               7.98996900                0.97997054               26.03668213                0.86050548               -0.04310704               -0.04287485                0.14299230               -0.00016661                0.00343207                0.00287683
               8.98953371                0.97918746               26.03746773                0.99999999               -0.04402106               -0.04394306                0.14655650                0.00001430                0.00105322                0.00029156
               9.98908858                0.97841823               26.03823648                1.00000000               -0.04451330               -0.04508645                0.15015049               -0.00066021                0.00017266               -0.00325429
              -0.00517652                1.98839058               26.03051263                0.39890560               -0.03530875               -0.02833684                0.11635276                0.00426459                0.00170978                0.00996951
               0.99447039                1.98686412               26.03115968                0.01000000               -0.01480310               -0.04294723                0.11973005                0.02277988                0.03197386               -0.01358801
               1.99452742                1.98572853               26.03241150                0.01000001               -0.00409242               -0.02608778                0.14083222                0.07849394                0.05618837                0.00043370
               2.99438854                1.98462162               26.03355338                0.01000000               -0.02362827               -0.00660946                0.12922526                0.11992817                0.05330518                0.01208754
               3.99405485                1.98370881               26.03466807                0.01000000               -0.04695787                0.02268580                0.13502149                0.15977971                0.05068988                0.02115669
               4.99344938                1.98286095               26.03575634                0.01000001               -0.08056789                0.04037712                0.13913760                0.17281685                0.04221855                0.02156288
               5.99244349                1.98222507               26.03674994                0.01139534               -0.11239239                0.06906905                0.14258842                0.09398290                0.01673565                0.03685926
               6.99120154                1.98034609               26.03742997                0.01617240               -0.08400748                0.02225767                0.14388702                0.03188988                0.00139386                0.02702093
               7.99076334                1.97953559               26.03824659                0.01000000               -0.04430214                0.01659661                0.14731684                0.03865281                0.00615416                0.02476761
               8.99031549                1.97874174               26.03902153                0.09600189               -0.04532332               -0.04432320                0.15089364                0.00074057                0.00359795                0.00292817
               9.98985688                1.97796096               26.03978670                0.70432100               -0.04586170               -0.04627369                0.15449463               -0.00036370                0.00310248               -0.00352552
              -0.00353727                2.98814244               26.03159885                0.36271427               -0.03653219               -0.02298361                0.12096541                0.00216694                0.00014169                0.01023197
               0.99609740                2.98638262               26.03211713                0.01000001               -0.00215904               -0.05169800                0.12417079                0.03481514                0.04410516               -0.01524329
               1.99641954                2.98530152               26.03351464                0.01000000                0.02419893               -0.05356491                0.12916350                0.09552984                0.08768554               -0.01173452
               2.99658138                2.98438883               26.03481805                0.01000000                0.01120776               -0.03404502                0.13690850                0.15203510                0.08889038                0.00227973
               3.99664370                2.98386554               26.03618416                0.01197768               -0.01993530               -0.01205714                0.14196999                0.18316113                0.08019770                0.01060131
               4.99618268                2.98326909               26.03725210                0.01000000               -0.07159071                0.02569317                0.14637714                0.21473935                0.07312385                0.02589826
               5.99521189                2.98297720               26.03849678                0.01000001               -0.12297732                0.07729717                0.14982615                0.19096020                0.05857738                0.05854423
               6.99372313                2.98121660               26.03937620                0.01000001               -0.14327379                0.17471850                0.15167011                0.17488764                0.02935277                0.09053169
               7.99234641                2.98030247               26.04021278                0.01257029               -0.12999858                0.15180265                0.15508580                0.10182302               -0.00092783                0.08059575
               8.99112316                2.97830099               26.04062661                0.01345996               -0.08517750                0.08765572                0.15530763                0.02081048               -0.01404787                0.05839876
               9.99064286                2.97749276               26.04133197                0.21549269               -0.04802983                0.07498289                0.15896789               -0.01839242                0.00051455                0.04756151
              -0.00161354                3.98793091               26.03269100                0.43109304               -0.03788434               -0.02462017                0.12579655               -0.00320858               -0.00148253                0.01213237
               0.99800762                3.98583016               26.03306609                0.01000000                0.00226712               -0.05300081                0.12879727                0.04178328                0.05211534               -0.01547830
               1.99843180                3.98465723               26.03451296                0.01000000                0.04288006               -0.07412658                0.13527052                0.10647835                0.11451850               -0.02582217
               2.99886522                3.98394072               26.03602766                0.01197854                0.02030043               -0.06208213                0.14199028                0.15054951                0.11290743               -0.01308828
               3.99883781                3.98346767               26.03732932                0.01000000               -0.01163494               -0.05229145                0.14758833                0.18950285                0.11204919               -0.01112333
               4.99863252                3.98337482               26.03878065                0.01000001               -0.02613097                0.00586473                0.15323156                0.26732224                0.13153977                0.03825307
               5.99831519                3.98377102               26.04044703                0.01000001               -0.06292532                0.08542918                0.15922805                0.31489703                0.13726163                0.09002533
               6.99737401                3.98384046               26.04200542                0.01181900               -0.12998923                0.20242530                0.16450680                0.25988413                0.08623174                0.11804167
               7.99571541                3.98257165               26.04273314                0.01000535               -0.19162968                0.25577454                0.16633756                0.13490042                0.02588622                0.13957560
               8.99354142                3.98049485               26.04328687                0.01000000               -0.23049530                0.39616544                0.16739249                0.07223932                0.00755826                0.18273017
               9.99110550                3.97946062               26.04390416                0.24884833               -0.24359181                0.42055430                0.16951998               -0.03775960               -0.00090274                0.17684179
               0.00060004                4.98765004               26.03379837                0.56007448               -0.03933011               -0.03135830                0.13032822               -0.00261682               -0.00187591                0.01408019
               1.00020674                4.98532261               26.03403161                0.01000000               -0.00807458               -0.04850267                0.13310196                0.03718068                0.05156431               -0.01448055
               2.00043855                4.98381899               26.03533324                0.01000001                0.02875989               -0.08855438                0.13937089                0.10151203                0.12484814               -0.05273705
               3.00078194                4.98314719               26.03693731                0.01000000                0.02805562               -0.10414731                0.14639739                0.15047963                0.13721167               -0.06934170
               4.00099966                4.98281972               26.03837055                0.01000001                0.02219173               -0.07422377                0.15292120                0.23091909                0.16382460               -0.02206444
               5.00122577                4.98338639               26.04040543                0.01000001                0.00222608               -0.00772744                0.16119439                0.33068142                0.20721387                0.04326650
               6.00104418                4.98468578               26.04259803                0.01185616               -0.05527955                0.05745388                0.16949224                0.32252137                0.17979766                0.07303184
               7.00012018                4.98526510               26.04402453                0.01001529               -0.13270785                0.15367601                0.17475119                0.25236697                0.13933079                0.11210716
               7.99839003                4.98541796               26.04546939                0.01000000               -0.22206038                0.36736350                0.18006199                0.23662837                0.13717611                0.21034326
               8.99567897                4.98622430               26.04702448                0.01000000               -0.32169456                0.58396370                0.18418739                0.15184245                0.08954454                0.28201174
               9.99195614                4.98590384               26.04780964                0.29610685               -0.37228385                0.68160452                0.18569427                0.04593939                0.03130581                0.28203892
               0.00298899                5.98730374               26.03491978                0.76778127               -0.04067104               -0.03675374                0.13460727               -0.00116704               -0.00220983                0.01517137
               1.00258228                5.98486011               26.03500647                0.01000001               -0.01757665               -0.04516462                0.13712762                0.02101208                0.03483636               -0.01379946
               2.00263746                5.98288615               26.03583365                0.01139961                0.01459000               -0.09605312                0.14240241                0.05863438                0.09557035               -0.10623608
               3.00287408                5.98185778               26.03704726                0.01000001                0.02897671               -0.13092265                0.14866684                0.14613344                0.17232961               -0.13244213
               4.00321700                5.98198319               26.03929007                0.01000001                0.02530000               -0.09398231                0.15817746                0.25610061                0.25029288               -0.03844211
               5.00338008                5.98322027               26.04191722                0.01185748               -0.01650456               -0.04380656                0.16880912                0.31148646                0.24769711               -0.00281063
               6.00288690                5.98492009               26.04396513                0.01004011               -0.08454571                0.03154467                0.17695452                0.31990320                0.23096355                0.04496034
               7.00168917                5.98691398               26.04621617                0.01000000               -0.16990636                0.22177858                0.18650719                0.34940424                0.25923564                0.17005653
               7.99948878                5.98991892               26.04886741                0.01000000               -0.27983897                0.46684762                0.19480849                0.31210395                0.23522897                0.29719117
               8.99609239                5.99217412               26.05079520                0.01079801               -0.34117841                0.60459810                0.19784412                0.16950059                0.12930736                0.31784547
               9.99266521                5.99309271               26.05166126                0.36409068               -0.34271816                0.64205347                0.20019480                0.06916126                0.05634946                0.31088817
               0.00546396                6.98691497               26.03604453                0.99999999               -0.04193882               -0.04009856                0.13876071               -0.00005256               -0.00204481                0.01616369
               1.00504457                6.98441931               26.03598756                0.30022097               -0.04251971               -0.04395033                0.14102237               -0.00263086               -0.01607065               -0.01386732
               2.00461357                6.98189793               26.03564979                0.01617833               -0.02185070               -0.07125188                0.14281229                0.02907753                0.04402211               -0.08723506
               3.00460756                6.98052874               26.03679502                0.01000001                0.00728070               -0.10757737                0.14924621                0.13081185                0.22688711               -0.10303064
               4.00475918                6.98094007               26.04002146                0.01182344               -0.00444800               -0.11895171                0.16249006                0.23621200                0.30507791               -0.09513863
               5.00451860                6.98251026               26.04253849                0.01002028               -0.05053229               -0.06831029                0.17297703                0.30393851                0.29382415               -0.04890534
               6.00374854                6.98531667               26.04542021                0.01000000               -0.12045785                0.06167706                0.18559594                0.39773758                0.35145706                0.07775042
               7.00210944                6.98970067               26.04901758                0.01000000               -0.21882878                0.29981062                0.19848079                0.46162564                0.38533292                0.22647002
               7.99937196                6.99475492               26.05257224                0.01102177               -0.31071242                0.46043866                0.20580965                0.34222083                0.28945463                0.28412503
               8.99589520                6.99831626               26.05438490                0.01000002               -0.39348826                0.67172403                0.21262761                0.02292756                0.13145776                0.44068401
               9.99150220                6.99874491               26.05512869                0.48472494               -0.43929994                0.54671774                0.21577765                0.00331008                0.05052159                0.39080816
               0.00797925                7.98650177               26.03718397                0.99124459               -0.04325410               -0.04217436                0.14295215                0.00052075               -0.00397321                0.01924731
               1.00754671                7.98398110               26.03696159                0.89415026               -0.04348292               -0.04410205                0.14489797               -0.00068699               -0.01025194               -0.00923814
               2.00710959                7.98146111               26.03661359                0.01000000               -0.05492649               -0.04415391                0.14658306                0.03672694                0.05130096               -0.02369181
               3.00644818                7.97970623               26.03762270                0.01257772               -0.05749372               -0.10048005                0.15267904                0.13531457                0.18222735               -0.11438639
               4.00595972                7.97960416               26.03987701                0.01001668               -0.06829635               -0.11037243                0.16286508                0.26022718                0.30060966               -0.14983180
               5.00508225                7.98185406               26.04315312                0.01000000               -0.11542390               -0.03532040                0.17742239                0.33253417                0.39879581               -0.03072591
               6.00365124                7.98615364               26.04728147                0.01000000               -0.17994049                0.08975479                0.19378988                0.44535133                0.46736051                0.08552574
               7.00148344                7.99291019               26.05184313                0.01105252               -0.29668162                0.24110066                0.20583128                0.49178370                0.41938540                0.16720363
               7.99771760                7.99912769               26.05500844                0.01000002               -0.44612473                0.58676933                0.21758931                0.40796553                0.40768720                0.34528819
               8.99256095                8.00560861               26.05959094                0.43309294               -0.29217451                0.33008681                0.23013560                0.15712843                0.23010713                0.29300017
               9.99187411                8.00402706               26.05953053                0.96002707               -0.06868312                0.22997914                0.22766640               -0.06068217               -0.00187649                0.24267834
               0.01051571                8.98607148               26.03836963                1.00000000               -0.04442171               -0.04385035                0.14724975                0.00068939               -0.00049156                0.01797507
               1.01007149                8.98353727               26.03803551                0.99999998               -0.04463659               -0.04487897                0.14899828                0.00002955               -0.00050896               -0.00207025
               2.00962298                8.98101485               26.03770122                0.10589956               -0.04503459               -0.04527573                0.15074590                0.00068114               -0.00822982               -0.01579775
               3.00917080                8.97851913               26.03721334                0.01360901               -0.09035434               -0.08231104                0.15189338                0.14647809                0.13084052               -0.09260362
               4.00781589                8.97873262               26.03966082                0.01000000               -0.22754974               -0.01496606                0.16248037                0.25831227                0.38102755               -0.11029945
               5.00461981                8.98180385               26.04417690                0.01000000               -0.31082293                0.05267056                0.18204157                0.25463682                0.47894091               -0.01587592
               6.00159943                8.98711177               26.04871843                0.01089403               -0.28243723                0.08462952                0.19743690                0.29054169                0.46561620                0.04431558
               6.99897106                8.99452269               26.05303667                0.01000002               -0.33832877                0.12439363                0.21356926                0.59052702                0.54832247                0.06149109
               7.99483286                9.00649030               26.05924929                0.44920121               -0.24163358                0.33322588                0.23269513                0.45395996                0.31279016                0.24543368
               8.99413839                9.00491800               26.05908411                0.99999998               -0.06906097               -0.06907062                0.23015866                0.00004820               -0.00451360                0.00524607
               9.99345164                9.00334449               26.05894951                0.98980481               -0.06867523               -0.06825569                0.22765290               -0.00000372               -0.00294393               -0.00484512
               0.01306145                9.98562476               26.03948330                0.99581733               -0.04575190               -0.04467164                0.15145134                0.00044972                0.01460000                0.01437591
               1.01260393                9.98308352               26.03915326                1.00000000               -0.04600490               -0.04537494                0.15320862               -0.00021491                0.01460615                0.00009349
               2.01214135                9.98055559               26.03882375                0.70992282               -0.04719817               -0.04592523                0.15496405                0.00066134                0.01924993               -0.01410691
               3.01165997                9.97806001               26.03858750                0.21594192               -0.21500514               -0.04591252                0.15657351                0.18637842                0.12701977               -0.00350302
               4.00784125                9.97930484               26.04041634                0.24908896               -0.49320636                0.05722172                0.16613625                0.24490869                0.35552168               -0.05778246
               5.00179584                9.98290747               26.04508037                0.29594124               -0.55490081                0.11036269                0.18523147                0.14467243                0.46869225               -0.01622812
               5.99674323                9.98784623               26.04966773                0.36373511               -0.39401952                0.07344571                0.20169365                0.13890921                0.40975095                0.02439032
               6.99391545                9.99539807               26.05347658                0.48583520               -0.01708695                0.08753779                0.21880524                0.39173753                0.43021407                0.02987553
               7.99640149               10.00579221               26.05862299                0.97836837                0.08961351               -0.06980941                0.23264236                0.59831972                0.26987359                0.00207297
               8.99570772               10.00422719               26.05853293                0.98980524               -0.06902205               -0.06908060                0.23014828                0.00041964                0.00578357                0.00300985
               9.99502105               10.00266195               26.05839914                0.99975429               -0.06866667               -0.06825453                0.22764121                0.00041668                0.00349943               -0.00334989
              -0.00899225               -0.01198106               27.02943359                0.91210070               -0.03248373               -0.03257788                0.10786439                0.00129693               -0.00578220                0.00617747
               0.99068292               -0.01353320               27.03024847                0.64137356               -0.03202449               -0.03443558                0.11148047                0.00135500               -0.00647050               -0.00428327
               1.99036727               -0.01504451               27.03104813                0.39714869               -0.02887913               -0.03514485                0.11511465                0.00411912                0.00128291               -0.00193685
               2.99010533               -0.01642418               27.03201377                0.36081315               -0.02592012               -0.03645964                0.11922137                0.00226022                0.01445970               -0.00093850
               3.98984886               -0.01759228               27.03306008                0.42791615               -0.02878665               -0.03764580                0.12357332               -0.00126501                0.01519480               -0.00002308
               4.98952960               -0.01858163               27.03401587                0.55405744               -0.03421381               -0.03886436                0.12763134               -0.00080817                0.00756724                0.00023076
               5.98916459               -0.01947562               27.03489328                0.75588858               -0.03781723               -0.04003218                0.13142437               -0.00008402                0.00194970                0.00039828
               6.98877326               -0.02032367               27.03572855                0.99897558               -0.03993428               -0.04115017                0.13508596                0.00034614               -0.00116729                0.00040413
               7.98836590               -0.02114623               27.03654047                0.99999998               -0.04136376               -0.04228098                0.13873438                0.00051936               -0.00298454                0.00109065
               8.98794598               -0.02195080               27.03733857                1.00000000               -0.04258878               -0.04335384                0.14239965                0.00057373               -0.00323335                0.00025501
               9.98751413               -0.02274087               27.03814573                0.99578176               -0.04318567               -0.04450601                0.14605378               -0.00006647               -0.00283703               -0.00314412
              -0.00742714                0.98769316               27.03053240                0.64237380               -0.03446638               -0.03210995                0.11199112                0.00137793                0.00438564                0.00847371
               0.99222819                0.98612245               27.03134572                0.01527887               -0.03594531               -0.03615995                0.11560388                0.00259355                0.00992943               -0.00858281
               1.99185395                0.98460404               27.03226971                0.01000000               -0.04131872               -0.02542850                0.11938448                0.02825740                0.02242364                0.01966192
               2.99140182                0.98321122               27.03333625                0.01000001               -0.04695079               -0.01041870                0.12359831                0.05587650                0.03172843                0.00699222
               3.99091493                0.98203127               27.03446271                0.01000000               -0.04693124               -0.00049633                0.12800177                0.07066345                0.02773892                0.00780391
               4.99046319                0.98102973               27.03547229                0.01000000               -0.04400842                0.00434768                0.13205822                0.06887185                0.01665219                0.01107220
               5.99003477                0.98012406               27.03639110                0.01000001               -0.04255866                0.01582318                0.13581788                0.04135825                0.00933848                0.01468278
               6.98961202                0.97926483               27.03726091                0.28032425               -0.04250520               -0.04184804                0.13943343               -0.00086953                0.00583604                0.00414269
               7.98918466                0.97843096               27.03811218                0.86103966               -0.04314882               -0.04288545                0.14301721               -0.00020906                0.00337217                0.00283789
               8.98874904                0.97761566               27.03893372                0.99999999               -0.04405641               -0.04396511                0.14664093                0.00001521                0.00102776                0.00029116
               9.98830353                0.97681407               27.03973875                1.00000000               -0.04455101               -0.04513135                0.15029916               -0.00064101                0.00016529               -0.00319710
              -0.00582327                1.98737674               27.03167557                0.39867316               -0.03528235               -0.02787546                0.11623400                0.00453386                0.00172929                0.01036661
               0.99382391                1.98574361               27.03235677                0.01000000               -0.01665454               -0.04331097                0.11968374                0.02032476                0.04599670               -0.01349379
               1.99384364                1.98444692               27.03392278                0.01000001               -0.00141361               -0.02355680                0.11879439                0.08511509                0.04762114               -0.00539226
               2.99379564                1.98336744               27.03481712                0.01000000               -0.02000095               -0.00307884                0.12997285                0.13322685                0.04289287                0.01493892
               3.99344362                1.98239780               27.03602165                0.01000000               -0.04906937                0.02955405                0.13461363                0.17191980                0.05349016                0.02365580
               4.99281425                1.98150533               27.03714528                0.01000001               -0.08434867                0.04832793                0.13884399                0.18616248                0.04238303                0.02439869
               5.99175665                1.98084084               27.03817444                0.01139874               -0.11826457                0.07855168                0.14227581                0.10099115                0.01567108                0.03956863
               6.99044896                1.97883937               27.03886813                0.01617677               -0.08728790                0.02743569                0.14375081                0.03426342                0.00012515                0.02863091
               7.99001089                1.97799607               27.03971933                0.01000000               -0.04428861                0.02068089                0.14724012                0.04200095                0.00600386                0.02635986
               8.98956319                1.97716990               27.04053037                0.09608810               -0.04531982               -0.04425092                0.15087757                0.00080349                0.00353301                0.00295597
               9.98910449                1.97635650               27.04133189                0.70438839               -0.04586906               -0.04629584                0.15454364               -0.00030629                0.00304957               -0.00340418
              -0.00407020                2.98713565               27.03280784                0.36256049               -0.03652890               -0.02220599                0.12083337                0.00229050                0.00013654                0.01093368
               0.99556451                2.98525623               27.03335860                0.01000001                0.00013084               -0.05231775                0.12412016                0.03879899                0.04338717               -0.01488771
               1.99593241                2.98413290               27.03477429                0.01000000                0.02754824               -0.04886765                0.12980554                0.10659781                0.09176679               -0.02195185
               2.99611547                2.98314964               27.03618767                0.01000000                0.01415156               -0.03180241                0.13514911                0.16342827                0.09288203                0.00495279
               3.99621545                2.98262235               27.03759995                0.01197499               -0.01860375               -0.00771191                0.14142012                0.19861354                0.08187226                0.01269786
               4.99574340                2.98199629               27.03871331                0.01000000               -0.07474515                0.03285784                0.14580242                0.23179474                0.07417810                0.02895435
               5.99472054                2.98169509               27.03999222                0.01000001               -0.13006673                0.08814321                0.14926705                0.20622744                0.05814501                0.06290806
               6.99314206                2.97981355               27.04089048                0.01000001               -0.15131930                0.19205195                0.15118860                0.18906518                0.02863055                0.09651046
               7.99169416                2.97884458               27.04176140                0.01256103               -0.13686919                0.16630102                0.15463896                0.11129487               -0.00263928                0.08583158
               8.99040468                2.97673064               27.04217890                0.01350297               -0.08849766                0.09654965                0.15515366                0.02484220               -0.01574204                0.06217217
               9.98992420                2.97588815               27.04292136                0.21558665               -0.04804766                0.08020788                0.15891014               -0.01616630                0.00048832                0.05056302
              -0.00201862                3.98693262               27.03394811                0.43083726               -0.03787456               -0.02394997                0.12562943               -0.00332776               -0.00151225                0.01281504
               0.99760264                3.98469725               27.03435366                0.01000000                0.00504012               -0.05348106                0.12871657                0.04566596                0.05399533               -0.01521629
               1.99808218                3.98346956               27.03586916                0.01000000                0.04860605               -0.07611018                0.13492638                0.11616640                0.11802166               -0.02339080
               2.99857476                3.98273139               27.03744373                0.01197555                0.02435326               -0.06127410                0.14148482                0.16414016                0.11631074               -0.01241749
               3.99856925                3.98224356               27.03880208                0.01000000               -0.00986774               -0.05112649                0.14688772                0.20549742                0.11511913               -0.00957210
               4.99837740                3.98216248               27.04030920                0.01000001               -0.02526541                0.01185845                0.15248474                0.28962737                0.13486734                0.04187550
               5.99806394                3.98260371               27.04203496                0.01000001               -0.06483166                0.09734544                0.15835871                0.34113983                0.14044932                0.09630373
               6.99708077                3.98268041               27.04364529                0.01179582               -0.13721240                0.22270251                0.16348249                0.28236765                0.08720508                0.12613640
               7.99531969                3.98132209               27.04439257                0.01000000               -0.20321525                0.27962147                0.16542703                0.14904624                0.02451176                0.14839151
               8.99301646                3.97910089               27.04495686                0.01000000               -0.24267685                0.42677296                0.16646532                0.08152550                0.00600283                0.19234265
               9.99046616                3.97796066               27.04559418                0.24895939               -0.25503080                0.44670167                0.16856981               -0.03653679               -0.00154279                0.18402684
               0.00033398                4.98665665               27.03510079                0.55965248               -0.03930948               -0.03100115                0.13016173               -0.00270407               -0.00191227                0.01451561
               0.99994088                4.98418661               27.03536223                0.01000000               -0.00561894               -0.04870882                0.13302265                0.04061508                0.05316582               -0.01452590
               2.00022160                4.98261070               27.03672482                0.01000001                0.03416990               -0.09128655                0.13914735                0.11084299                0.12885143               -0.05358468
               3.00062428                4.98192416               27.03839915                0.01000000                0.03363532               -0.10738251                0.14591218                0.16370293                0.14163669               -0.06993212
               4.00089431                4.98159982               27.03989635                0.01000001                0.02757597               -0.07446735                0.15224894                0.25089205                0.16909378               -0.02061917
               5.00117580                4.98223346               27.04201271                0.01000001                0.00655531               -0.00267319                0.16027521                0.35899016                0.21363647                0.04751052
               6.00102541                4.98364200               27.04428701                0.01182563               -0.05523817                0.06699212                0.16830661                0.35067976                0.18495291                0.07875649
               7.00007104                4.98426760               27.04576643                0.01000000               -0.13854038                0.17111303                0.17357681                0.27710393                0.14307331                0.12028708
               7.99825460                4.98443701               27.04726345                0.01000000               -0.23372083                0.39997518                0.17849188                0.26145860                0.14025029                0.22072728
               8.99539662                4.98526610               27.04885930                0.01000000               -0.33903344                0.62781285                0.18256866                0.16769247                0.09073571                0.29211171
               9.99147393                4.98482218               27.04966066                0.29616997               -0.39226853                0.72814792                0.18463835                0.05010874                0.03078203                0.29267418
               0.00286738                5.98631259               27.03626515                0.76720025               -0.04064942               -0.03659537                0.13447093               -0.00120250               -0.00225213                0.01543439
               1.00246089                5.98372307               27.03637750                0.01000001               -0.01529462               -0.04523080                0.13707713                0.02300355                0.03611995               -0.01405228
               2.00256149                5.98164383               27.03725686                0.01140274                0.01994037               -0.09987808                0.14220675                0.06388076                0.09894542               -0.10875438
               3.00285970                5.98058374               27.03853197                0.01000001                0.03581520               -0.13678240                0.14828563                0.15833765                0.17812058               -0.13515191
               4.00327779                5.98075421               27.04086835                0.01000001                0.03276642               -0.09624628                0.15747781                0.27818286                0.25868638               -0.03752713
               5.00351502                5.98210902               27.04360003                0.01182709               -0.01171984               -0.04237882                0.16773294                0.33845234                0.25591990               -0.00030061
               6.00304340                5.98394355               27.04572800                0.01000000               -0.08435952                0.03884144                0.17582310                0.34966084                0.23894468                0.05007772
               7.00182783                5.98610267               27.04807262                0.01000000               -0.17465190                0.24346541                0.18475718                0.38488505                0.26749052                0.17860518
               7.99955036                5.98932159               27.05080613                0.01000000               -0.29213456                0.50388530                0.19271159                0.34435334                0.24058303                0.30616547
               8.99598514                5.99165715               27.05276718                0.01075740               -0.35970954                0.65255654                0.19658746                0.18699308                0.13139148                0.32904493
               9.99235617                5.99252361               27.05365778                0.36414673               -0.36289742                0.69423348                0.19908867                0.07612791                0.05741558                0.32218847
               0.00548897                6.98592474               27.03743166                0.99999999               -0.04192531               -0.04003325                0.13866718               -0.00005837               -0.00208482                0.01638796
               1.00506972                6.98328199               27.03739774                0.29973889               -0.04252127               -0.04397136                0.14101264               -0.00266511               -0.01634953               -0.01419738
               2.00463854                6.98061314               27.03707826                0.01618282               -0.01945312               -0.07339029                0.14287578                0.03134485                0.04574126               -0.08958625
               3.00468065                6.97918851               27.03828649                0.01000001                0.01470714               -0.11268653                0.14904987                0.14159777                0.23448491               -0.10542952
               4.00493269                6.97967489               27.04164274                0.01180010                0.00374288               -0.12451774                0.16176087                0.25572451                0.31555179               -0.09686998
               5.00475551                6.98138588               27.04426386                0.01000000               -0.04538554               -0.07009628                0.17206245                0.32979934                0.30456628               -0.04806252
               6.00402498                6.98441883               27.04726788                0.01000000               -0.11824077                0.06985117                0.18398730                0.43460251                0.36398277                0.08271519
               7.00239070                6.98913690               27.05099269                0.01000000               -0.22188899                0.32286872                0.19657137                0.50446857                0.39617363                0.23297170
               7.99958720                6.99451472               27.05462408                0.01097414               -0.32281196                0.49569802                0.20459270                0.37797847                0.29752242                0.29350377
               8.99593446                6.99831723               27.05650557                0.01000002               -0.41618195                0.72659944                0.21148562                0.04101298                0.13698792                0.45527281
               9.99126356                6.99870685               27.05728125                0.48481721               -0.46708998                0.60099055                0.21468097                0.01755759                0.05366320                0.40218046
               0.00815171                7.98551193               27.03861323                0.99126661               -0.04325235               -0.04214689                0.14290077                0.00052648               -0.00406250                0.01954352
               1.00771919                7.98284365               27.03841073                0.89424704               -0.04349245               -0.04411759                0.14492875               -0.00069297               -0.01047167               -0.00946751
               2.00728187                7.98017603               27.03808002                0.01000000               -0.05446477               -0.04418879                0.14669650                0.03953771                0.05307093               -0.02421238
               3.00662990                7.97833001               27.03914877                0.01256799               -0.05434745               -0.10507688                0.15252962                0.14489036                0.18838216               -0.11761605
               4.00619492                7.97826386               27.04150310                0.01000000               -0.06314102               -0.11700889                0.16233448                0.27920502                0.31149331               -0.15430620
               5.00536708                7.98070709               27.04492216                0.01000000               -0.11052465               -0.03642027                0.17633909                0.36015555                0.41352863               -0.03032865
               6.00398442                7.98534057               27.04921129                0.01000000               -0.17728806                0.09617435                0.19204966                0.48290032                0.48218963                0.08766921
               7.00182131                7.99256005               27.05389627                0.01100358               -0.30274117                0.25858732                0.20484276                0.53510487                0.43282918                0.17244561
               7.99792960                7.99923555               27.05717996                0.01000002               -0.46040230                0.63114878                0.21670886                0.44956867                0.42167153                0.35754789
               8.99261327                8.00618914               27.06188950                0.43308498               -0.30007599                0.35911938                0.22956178                0.18145105                0.23766730                0.30182303
               9.99192808                8.00454343               27.06180469                0.96009519               -0.06851877                0.25774435                0.22715430               -0.04928561               -0.00188113                0.24863894
               0.01083607                8.98508180               27.03984206                1.00000000               -0.04443050               -0.04384214                0.14723888                0.00069609               -0.00051069                0.01827467
               1.01039176                8.98239964               27.03952585                0.99999998               -0.04465670               -0.04490103                0.14906733                0.00003036               -0.00052830               -0.00213273
               2.00994293                8.97972936               27.03920946                0.10634174               -0.04505652               -0.04532166                0.15089506                0.00073467               -0.00854400               -0.01609363
               3.00949063                8.97708698               27.03873353                0.01365998               -0.09016125               -0.08514356                0.15213148                0.15509146                0.13471011               -0.09531274
               4.00813971                8.97733471               27.04128237                0.01000000               -0.23043607               -0.01605049                0.16182885                0.27624746                0.39465938               -0.11377431
               5.00488191                8.98065748               27.04599130                0.01000000               -0.31548383                0.05549168                0.18078479                0.27481536                0.49656240               -0.01673034
               6.00183003                8.98634231               27.05068855                0.01084913               -0.28420469                0.08897611                0.19662511                0.31549608                0.48229623                0.04456405
               6.99919781                8.99430865               27.05516887                0.01000002               -0.34402745                0.13416402                0.21286425                0.63589523                0.56782093                0.06556391
               7.99494948                9.00713769               27.06157527                0.44871555               -0.24711064                0.36020131                0.23249040                0.49230240                0.32368065                0.25308870
               8.99425560                9.00549962               27.06138498                0.99999998               -0.06901083               -0.06902535                0.23001015                0.00004402               -0.00454699                0.00527964
               9.99356926                9.00386174               27.06122560                0.99002122               -0.06863378               -0.06823066                0.22756437               -0.00006978               -0.00295818               -0.00486222
               0.01352996                9.98463509               27.04099793                0.99578511               -0.04577223               -0.04467170                0.15147669                0.00044376                0.01485612                0.01462542
               1.01307224                9.98194563               27.04068589                1.00000000               -0.04603702               -0.04540142                0.15331411               -0.00022656                0.01486173                0.00008711
               2.01260922                9.97926959               27.04037436                0.71039173               -0.04729351               -0.04597676                0.15514978                0.00070502                0.01943792               -0.01437032
               3.01212637                9.97662714               27.04015468                0.21605779               -0.22299287               -0.04598333                0.15685183                0.19723687                0.13079665               -0.00356036
               4.00814937                9.97794285               27.04207326                0.24918937               -0.51352945                0.06081335                0.16524090                0.26045522                0.36943457               -0.05997385
               5.00185578                9.98181693               27.04692872                0.29596114               -0.57530981                0.11594524                0.18443329                0.15624969                0.48624643               -0.01784111
               5.99664317                9.98712009               27.05168171                0.36372325               -0.40559716                0.07777794                0.20110158                0.15263397                0.42668404                0.02457426
               6.99374384                9.99524333               27.05566256                0.48580498               -0.00292455                0.09346764                0.21836406                0.42057658                0.44666943                0.03239219
               7.99658468               10.00643958               27.06095054                0.97793925                0.10731319               -0.06981172                0.23286306                0.64178488                0.27821309                0.00208692
               8.99589010               10.00480863               27.06083579                0.99002173               -0.06911161               -0.06909914                0.23042638                0.00041191                0.00580546                0.00302874
               9.99520245               10.00317881               27.06067722                0.99988085               -0.06876565               -0.06829264                0.22797930                0.00033665                0.00351386               -0.00336565
              -0.00988338               -0.01303833               28.03051131                0.91169755               -0.03241035               -0.03249961                0.10768016                0.00131638               -0.00584730                0.00625550
               0.98979252               -0.01469414               28.03136265                0.64083818               -0.03187872               -0.03442527                0.11135302                0.00142068               -0.00652605               -0.00433045
               1.98947905               -0.01630694               28.03219893                0.39695621               -0.02834342               -0.03511941                0.11504345                0.00441250                0.00146549               -0.00196216
               2.98922565               -0.01777801               28.03320569                0.36074410               -0.02487461               -0.03644741                0.11916272                0.00238270                0.01499958               -0.00095560
               3.98898156               -0.01901732               28.03429540                0.42780626               -0.02775634               -0.03763409                0.12349224               -0.00153337                0.01573130               -0.00003631
               4.98867053               -0.02005791               28.03529180                0.55388458               -0.03359655               -0.03885150                0.12755749               -0.00103389                0.00785406                0.00022040
               5.98830963               -0.02099145               28.03620738                0.75576001               -0.03753122               -0.04002366                0.13139217               -0.00020328                0.00205985                0.00038878
               6.98791990               -0.02187374               28.03707959                0.99911049               -0.03983247               -0.04115411                0.13511579                0.00030621               -0.00111810                0.00039641
               7.98751298               -0.02272851               28.03792833                0.99999998               -0.04134643               -0.04230510                0.13883200                0.00052208               -0.00292663                0.00107200
               8.98709297               -0.02356460               28.03876346                1.00000000               -0.04262012               -0.04339107                0.14257083                0.00058563               -0.00316932                0.00025382
               9.98666058               -0.02438624               28.03960747                0.99573347               -0.04323979               -0.04456279                0.14628732               -0.00003908               -0.00277692               -0.00307270
              -0.00821440                0.98663668               28.03165157                0.64180215               -0.03445609               -0.03195990                0.11184246                0.00144508                0.00443803                0.00860796
               0.99144104                0.98496161               28.03250131                0.01514118               -0.03602420               -0.03622488                0.11551204                0.00278888                0.01006329               -0.00865058
               1.99106511                0.98334186               28.03346334                0.01000000               -0.04181834               -0.02884736                0.11933835                0.02181728                0.02284097                0.00104659
               2.99060467                0.98185751               28.03457201                0.01000001               -0.04794710               -0.00765064                0.12355700                0.05931739                0.03241182                0.00978234
               3.99010617                0.98060633               28.03574232                0.01000000               -0.04787094                0.00310074                0.12792721                0.07554999                0.02830078                0.00853045
               4.98964725                0.97955358               28.03679242                0.01000000               -0.04453308                0.00829041                0.13197508                0.07378540                0.01687837                0.01224126
               5.98921551                0.97860831               28.03774895                0.01000001               -0.04278780                0.02033913                0.13575571                0.04427911                0.00934396                0.01564305
               6.98879149                0.97771472               28.03865513                0.28034787               -0.04259394               -0.04185635                0.13941124               -0.00103154                0.00575681                0.00410843
               7.98836363                0.97684844               28.03954248                0.86159394               -0.04319002               -0.04289558                0.14304028               -0.00025145                0.00330198                0.00278709
               8.98792769                0.97600149               28.04040055                0.99999999               -0.04409029               -0.04398596                0.14672112                0.00001607                0.00100037                0.00028965
               9.98748183                0.97516813               28.04124247                1.00000000               -0.04458691               -0.04517416                0.15044078               -0.00062325                0.00015806               -0.00312318
              -0.00650434                1.98632247               28.03283731                0.39841915               -0.03525434               -0.02740492                0.11611174                0.00480586                0.00174606                0.01072898
               0.99314311                1.98458137               28.03355335                0.01000000               -0.02380820               -0.04368158                0.11962888                0.01756448                0.02767477               -0.01341522
               1.99301949                1.98311611               28.03478739                0.01000001                0.00022068               -0.02128807                0.10133590                0.09241510                0.05436005                0.00159550
               2.99314753                1.98206897               28.03615284                0.01000000               -0.01115002                0.00018834                0.12970375                0.14686407                0.06049656                0.01502460
               3.99279649                1.98104469               28.03736035                0.01000000               -0.05016352                0.03663683                0.13413972                0.18441296                0.05250479                0.02616304
               4.99214426                1.98010790               28.03853322                0.01000001               -0.08812131                0.05653403                0.13851473                0.19986782                0.04296014                0.02694001
               5.99103407                1.97941533               28.03959545                0.01140217               -0.12425548                0.08832634                0.14195865                0.10816708                0.01449953                0.04204677
               6.98965915                1.97728914               28.04030499                0.01618229               -0.09064415                0.03274612                0.14362510                0.03666552               -0.00108742                0.03006722
               7.98922118                1.97641358               28.04119139                0.01000000               -0.04427731                0.02487172                0.14717063                0.04540590                0.00583119                0.02779251
               8.98877360                1.97555568               28.04203908                0.09618509               -0.04531785               -0.04417748                0.15086610                0.00086816                0.00344783                0.00296086
               9.98831483                1.97471027               28.04287757                0.70446109               -0.04587748               -0.04632016                0.15459409               -0.00024580                0.00297896               -0.00327169
              -0.00463607                2.98608858               28.03401551                0.36241154               -0.03652395               -0.02141108                0.12070179                0.00241293                0.00013036                0.01157361
               0.99499869                2.98408798               28.03459953                0.01000001                0.00309375               -0.05295794                0.12406406                0.04254400                0.04649581               -0.01458097
               1.99542581                2.98291610               28.03611075                0.01000000                0.03073386               -0.04386089                0.13016513                0.12279906                0.09275020               -0.00476683
               2.99561337                2.98186128               28.03752103                0.01000000                0.01648486               -0.02940380                0.13358301                0.17669792                0.09388300                0.00497707
               3.99575550                2.98133907               28.03901257                0.01197308               -0.01697011               -0.00324356                0.14078190                0.21506036                0.08472992                0.01487492
               4.99527397                2.98068426               28.04016814                0.01000000               -0.07789429                0.04025138                0.14520758                0.24942504                0.07497831                0.03170798
               5.99419762                2.98037484               28.04148213                0.01000001               -0.13737028                0.09934838                0.14870606                0.22197038                0.05766346                0.06699674
               6.99252656                2.97836964               28.04239998                0.01000001               -0.15962055                0.20990508                0.15071843                0.20361960                0.02783190                0.10208570
               7.99100521                2.97734587               28.04330556                0.01255813               -0.14391011                0.18119221                0.15419742                0.12105900               -0.00431080                0.09059954
               8.98964836                2.97511794               28.04372968                0.01356731               -0.09187440                0.10528132                0.15500521                0.02910613               -0.01733866                0.06551207
               9.98916772                2.97424173               28.04451017                0.21569811               -0.04806404                0.08457850                0.15885309               -0.01336142                0.00046068                0.05321980
              -0.00245489                3.98589425               28.03520359                0.43060990               -0.03786413               -0.02326341                0.12546938               -0.00345506               -0.00154262                0.01344627
               0.99716647                3.98352221               28.03564042                0.01000000                0.00785303               -0.05398632                0.12863616                0.04959873                0.05517926               -0.01500135
               1.99770217                3.98223889               28.03721149                0.01000000                0.05460214               -0.07782499                0.13455947                0.12557725                0.12150741               -0.02501903
               2.99825851                3.98148090               28.03885736                0.01197405                0.02862737               -0.06004886                0.14091810                0.17853497                0.11962047               -0.01052265
               3.99827472                3.98097982               28.04026708                0.01000000               -0.00807618               -0.04990021                0.14619196                0.22222503                0.11792130               -0.00813172
               4.99809699                3.98091293               28.04183034                0.01000001               -0.02433156                0.01807548                0.15172771                0.31281795                0.13799255                0.04529448
               5.99778809                3.98140230               28.04361421                0.01000001               -0.06682412                0.10965154                0.15749612                0.36831064                0.14333976                0.10223153
               6.99676051                3.98148724               28.04527507                0.01177818               -0.14470096                0.24369353                0.16247869                0.30568815                0.08794594                0.13380936
               7.99489407                3.98003742               28.04604168                0.01000000               -0.21503201                0.30365398                0.16441455                0.16355138                0.02290121                0.15631428
               8.99245987                3.97766130               28.04661617                0.01000000               -0.25470246                0.45691426                0.16544309                0.09062721                0.00427351                0.20096179
               9.98980002                3.97640184               28.04727556                0.24909044               -0.26598469                0.47259984                0.16772695               -0.03587962               -0.00221091                0.19089181
               0.00003892                4.98562331               28.03640160                0.55928202               -0.03928932               -0.03063448                0.13000428               -0.00279800               -0.00194906                0.01493258
               0.99964603                4.98300825               28.03669206                0.01000000               -0.00301311               -0.04893270                0.13294516                0.04413995                0.05475387               -0.01459101
               1.99997866                4.98135960               28.03811619                0.01000001                0.03985558               -0.09406375                0.13889936                0.12058877                0.13249904               -0.05399030
               3.00044314                4.98066030               28.03985556                0.01000000                0.03946571               -0.11067492                0.14540779                0.17739793                0.14565026               -0.07067853
               4.00076797                4.98034107               28.04141553                0.01000001                0.03323533               -0.07467802                0.15156404                0.27167047                0.17398940               -0.01922942
               5.00110785                4.98104577               28.04361094                0.01000001                0.01107744                0.00250920                0.15937864                0.38843212                0.21966803                0.05154319
               6.00098952                4.98256787               28.04596416                0.01180214               -0.05513214                0.07692393                0.16715695                0.38014317                0.18976651                0.08440426
               7.00000520                4.98324351               28.04749606                0.01000000               -0.14436777                0.18862943                0.17232501                0.30257134                0.14627075                0.12786297
               7.99810217                4.98341895               28.04903923                0.01000000               -0.24543626                0.43220885                0.17680426                0.28622597                0.14281084                0.23039991
               8.99509648                4.98425622               28.05067586                0.01000000               -0.35665595                0.67237221                0.18097504                0.18417365                0.09207223                0.30248167
               9.99096905                4.98369372               28.05150241                0.29624678               -0.41274305                0.77570211                0.18368359                0.05536477                0.03079624                0.30307241
               0.00271927                5.98528156               28.03760920                0.76668987               -0.04062864               -0.03643282                0.13434266               -0.00124202               -0.00229469                0.01570003
               1.00231298                5.98254355               28.03774802                0.01000001               -0.01286838               -0.04530603                0.13702706                0.02505007                0.03727321               -0.01430637
               2.00246190                5.98035762               28.03867778                0.01140613                0.02560131               -0.10382812                0.14200669                0.06924176                0.10206351               -0.11128287
               3.00282501                5.97926740               28.04001298                0.01000001                0.04303829               -0.14284786                0.14790632                0.17091417                0.18354228               -0.13775572
               4.00332266                5.97948626               28.04243963                0.01000001                0.04069125               -0.09865727                0.15678573                0.30102946                0.26655947               -0.03672558
               5.00363883                5.98096311               28.04527188                0.01180368               -0.00647284               -0.04094458                0.16668590                0.36657317                0.26379760                0.00206834
               6.00319321                5.98294078               28.04748160                0.01000000               -0.08389880                0.04599074                0.17474353                0.38032745                0.24642808                0.05507622
               7.00196085                5.98525983               28.04991131                0.01000000               -0.17936628                0.26464721                0.18289587                0.42061644                0.27487664                0.18676385
               7.99960588                5.98868160               28.05272164                0.01000000               -0.30461435                0.54161048                0.19061672                0.37781416                0.24590444                0.31558688
               8.99586857                5.99110875               28.05472695                0.01072280               -0.37867828                0.70215874                0.19532275                0.20577974                0.13379485                0.34052410
               9.99203232                5.99191589               28.05564303                0.36421211               -0.38362517                0.74739413                0.19799985                0.08346631                0.05843585                0.33327060
               0.00549010                6.98489465               28.03881788                0.99999999               -0.04191242               -0.03996660                0.13857995               -0.00006594               -0.00212502                0.01662106
               1.00507098                6.98210213               28.03880781                0.29932347               -0.04252272               -0.04399571                0.14100111               -0.00270576               -0.01663439               -0.01452315
               2.00463965                6.97928304               28.03850731                0.01618801               -0.01690986               -0.07559764                0.14292826                0.03361434                0.04728866               -0.09180749
               3.00473278                6.97780335               28.03977602                0.01000001                0.02266015               -0.11802689                0.14886220                0.15263120                0.24158519               -0.10777342
               4.00509285                6.97836792               28.04325668                0.01178245                0.01260058               -0.13039264                0.16105670                0.27585307                0.32545799               -0.09861424
               5.00498479                6.98022688               28.04597974                0.01000000               -0.03967455               -0.07215357                0.17109303                0.35627795                0.31453717               -0.04732147
               6.00429936                6.98348768               28.04909996                0.01000000               -0.11540389                0.07727884                0.18238567                0.47186463                0.37541839                0.08728209
               7.00267671                6.98853646               28.05294901                0.01000000               -0.22449157                0.34615509                0.19451272                0.54869901                0.40661475                0.23953177
               7.99980953                6.99425116               28.05666410                0.01093244               -0.33494650                0.53229324                0.20340065                0.41574320                0.30567846                0.30354784
               8.99597778                6.99829940               28.05861461                0.01000002               -0.43927136                0.78284575                0.21031426                0.06057174                0.14239177                0.46997020
               9.99102410                6.99864161               28.05942231                0.48492106               -0.49536836                0.65698030                0.21350711                0.03291007                0.05674627                0.41348570
               0.00830299                7.98448223               28.04004199                0.99127778               -0.04325095               -0.04211923                0.14285437                0.00053179               -0.00415155                0.01984768
               1.00787048                7.98166364               28.03986016                0.89434171               -0.04350089               -0.04413349                0.14495555               -0.00070073               -0.01069121               -0.00969370
               2.00743297                7.97884566               28.03954752                0.01000000               -0.05388669               -0.04422001                0.14679605                0.04239987                0.05467193               -0.02472875
               3.00679274                7.97690686               28.04067329                0.01256529               -0.05083887               -0.10981913                0.15238360                0.15460297                0.19410267               -0.12068357
               4.00641619                7.97687841               28.04312369                0.01000000               -0.05740593               -0.12404743                0.16175797                0.29858198                0.32167019               -0.15882114
               5.00564463                7.97952004               28.04667991                0.01000000               -0.10476378               -0.03821025                0.17518578                0.38840204                0.42723449               -0.03011351
               6.00432092                7.98448635               28.05112246                0.01000000               -0.17366336                0.10224746                0.19032474                0.52156620                0.49670418                0.09021036
               7.00217136                7.99218293               28.05593998                0.01096026               -0.30815555                0.27656052                0.20389787                0.58025757                0.44649477                0.17813141
               7.99815781                7.99932746               28.05934262                0.01000002               -0.47409018                0.67651664                0.21579481                0.49317865                0.43564370                0.37002058
               8.99268956                8.00676566               28.06418217                0.43308215               -0.30758526                0.38889488                0.22895875                0.20736835                0.24534329                0.31071740
               9.99200610                8.00505549               28.06407362                0.96016527               -0.06834547                0.28665587                0.22661972               -0.03666108               -0.00188540                0.25469513
               0.01113792                8.98405227               28.04131441                1.00000000               -0.04443913               -0.04383449                0.14723232                0.00070280               -0.00052956                0.01857943
               1.01069353                8.98121946               28.04101686                0.99999998               -0.04467510               -0.04492199                0.14913118                0.00003127               -0.00054734               -0.00219384
               2.01024442                8.97839864               28.04071912                0.10674418               -0.04507173               -0.04536318                0.15102948                0.00079204               -0.00885377               -0.01639197
               3.00979209                8.97560696               28.04025597                0.01373250               -0.08965550               -0.08801811                0.15234474                0.16362948                0.13810686               -0.09785260
               4.00845131                8.97588697               28.04289739                0.01000000               -0.23236058               -0.01774068                0.16110675                0.29477073                0.40740997               -0.11749599
               5.00514488                8.97946267               28.04779260                0.01000000               -0.31917565                0.05778856                0.17956284                0.29566749                0.51384164               -0.01744143
               6.00206780                8.98553263               28.05265094                0.01081148               -0.28520631                0.09325158                0.19583833                0.34135756                0.49907613                0.04536548
               6.99944076                8.99406767               28.05729396                0.01000002               -0.34887163                0.14377937                0.21214775                0.68287518                0.58742415                0.06967831
               7.99509036                9.00778149               28.06389910                0.44824364               -0.25218191                0.38779725                0.23226417                0.53221720                0.33478482                0.26086318
               8.99439712                9.00607730               28.06368431                0.99999998               -0.06895709               -0.06897660                0.22985019                0.00004117               -0.00458195                0.00531423
               9.99371122                9.00437472               28.06350079                0.99023400               -0.06858974               -0.06820440                0.22747163               -0.00013836               -0.00297282               -0.00487992
               0.01398266                9.98360554               28.04251283                0.99573665               -0.04579217               -0.04467274                0.15150560                0.00043934                0.01511535                0.01487803
               1.01352473                9.98076520               28.04221954                1.00000000               -0.04606733               -0.04542635                0.15341365               -0.00023655                0.01512050                0.00008122
               2.01306131                9.97793840               28.04192674                0.71081734               -0.04738680               -0.04602382                0.15532003                0.00075421                0.01963538               -0.01463604
               3.01257700                9.97514650               28.04172453                0.21619016               -0.23027058               -0.04604628                0.15710588                0.20775006                0.13396044               -0.00361785
               4.00845590                9.97652359               28.04372115                0.24930711               -0.53323416                0.06366194                0.16437623                0.27692459                0.38275706               -0.06247101
               5.00191232                9.98067581               28.04876904                0.29599036               -0.59564134                0.12131409                0.18362299                0.16813289                0.50387571               -0.01901401
               5.99654307                9.98635139               28.05368976                0.36371478               -0.41661557                0.08187523                0.20051217                0.16666267                0.44364460                0.02485145
               6.99358000                9.99505852               28.05784386                0.48578244                0.01247264                0.09908462                0.21784641                0.45052573                0.46349342                0.03488244
               7.99679252               10.00708341               28.06328025                0.97752130                0.12585721               -0.06980860                0.23307656                0.68659694                0.28686431                0.00210196
               8.99609715               10.00538613               28.06314146                0.99023427               -0.06920230               -0.06911630                0.23070778                0.00040285                0.00582800                0.00304840
               9.99540848               10.00369140               28.06295873                0.99999550               -0.06886699               -0.06833187                0.22832799                0.00025289                0.00352883               -0.00338196
              -0.01081186               -0.01413647               29.03158719                0.91127745               -0.03233629               -0.03242064                0.10749583                0.00133510               -0.00590677                0.00632728
               0.98886478               -0.01589713               29.03247553                0.64026627               -0.03173025               -0.03441413                0.11122354                0.00148726               -0.00657614               -0.00437425
               1.98855353               -0.01761257               29.03334900                0.39674183               -0.02779582               -0.03509246                0.11496865                0.00471217                0.00163296               -0.00198485
               2.98830886               -0.01917595               29.03439702                0.36067576               -0.02380820               -0.03643386                0.11910596                0.00250666                0.01548725               -0.00097237
               3.98807737               -0.02048685               29.03552993                0.42771555               -0.02670784               -0.03762221                0.12341893               -0.00180837                0.01621405               -0.00005219
               4.98777470               -0.02157845               29.03656702                0.55374768               -0.03296848               -0.03884017                0.12748928               -0.00126480                0.00811812                0.00020661
               5.98741800               -0.02255100               29.03752113                0.75567847               -0.03723813               -0.04001606                0.13135692               -0.00032547                0.00217432                0.00037597
               6.98702994               -0.02346683               29.03843087                0.99926900               -0.03972505               -0.04115709                0.13513482                0.00026507               -0.00104882                0.00038562
               7.98662350               -0.02435308               29.03931711                0.99999998               -0.04132415               -0.04232735                0.13891759                0.00052492               -0.00284007                0.00104819
               8.98620346               -0.02521991               29.04018999                1.00000000               -0.04264705               -0.04342633                0.14273068                0.00059797               -0.00307817                0.00025175
               9.98577056               -0.02607233               29.04107148                0.99567259               -0.04328988               -0.04461725                0.14650888               -0.00001242               -0.00269567               -0.00298246
              -0.00903786                0.98553932               29.03276925                0.64119715               -0.03444499               -0.03180739                0.11169091                0.00151240                0.00448724                0.00873191
               0.99061769                0.98375873               29.03365596                0.01499071               -0.03610397               -0.03628971                0.11541562                0.00298680                0.01018938               -0.00871432
               1.99024007                0.98203651               29.03465648                0.01000000               -0.04233130               -0.02780118                0.11928806                0.02394033                0.02322787               -0.00268073
               2.98977107                0.98045971               29.03580739                0.01000001               -0.04897626               -0.00525665                0.12351905                0.06120863                0.03302950                0.00871358
               3.98926054                0.97913693               29.03702125                0.01000000               -0.04884698                0.00688318                0.12786609                0.08047011                0.02878628                0.00955221
               4.98879413                0.97803314               29.03811179                0.01000000               -0.04508030                0.01234296                0.13190679                0.07877770                0.01704588                0.01316664
               5.98835893                0.97704884               29.03910622                0.01000001               -0.04302490                0.02498014                0.13570109                0.04726598                0.00931001                0.01649760
               6.98793363                0.97612160               29.04004914                0.28042406               -0.04268233               -0.04186473                0.13938817               -0.00119305                0.00565209                0.00404432
               7.98750529                0.97522365               29.04097299                0.86215975               -0.04322852               -0.04290437                0.14305837               -0.00029229                0.00321967                0.00272113
               8.98706906                0.97434583               29.04186815                0.99999999               -0.04412176               -0.04400569                0.14679647                0.00001793                0.00097228                0.00028625
               9.98662285                0.97348150               29.04274757                1.00000000               -0.04462085               -0.04521570                0.15057770               -0.00060588                0.00015269               -0.00303132
              -0.00722043                1.98522738               29.03399780                0.39814608               -0.03522437               -0.02692382                0.11598450                0.00508091                0.00176165                0.01106086
               0.99242732                1.98337708               29.03474935                0.01000000               -0.02241046               -0.04405951                0.11956699                0.01927619                0.02422233               -0.01335020
               1.99233136                1.98183141               29.03594950                0.01000001                0.00026461               -0.02115193                0.11932981                0.09838508                0.06204218                0.00524736
               2.99243261                1.98071892               29.03741119                0.01000000               -0.01090070                0.00424759                0.12685421                0.15698267                0.06646063                0.01580200
               3.99211334                1.97965081               29.03870445                0.01000000               -0.04971353                0.04380938                0.13383878                0.19759366                0.05509954                0.02821210
               4.99143834                1.97866841               29.03991557                0.01000001               -0.09192383                0.06500873                0.13812417                0.21385342                0.04310979                0.02924229
               5.99027487                1.97794860               29.04101361                0.01140541               -0.13035356                0.09837143                0.14164887                0.11552584                0.01346444                0.04426862
               6.98883127                1.97569588               29.04174063                0.01618774               -0.09407210                0.03817893                0.14350312                0.03909334               -0.00227460                0.03132881
               7.98839342                1.97478883               29.04266275                0.01000000               -0.04426550                0.02913187                0.14709990                0.04885249                0.00563617                0.02906349
               8.98794596                1.97389998               29.04354769                0.09628575               -0.04531643               -0.04410192                0.15085661                0.00093796                0.00334641                0.00294007
               9.98748710                1.97302336               29.04442377                0.70453567               -0.04588672               -0.04634731                0.15464789               -0.00018261                0.00289357               -0.00313304
              -0.00523564                2.98500084               29.03522187                0.36226713               -0.03651786               -0.02059608                0.12056943                0.00253428                0.00012285                0.01216000
               0.99439919                2.98287754               29.03583988                0.01000001                0.00507799               -0.05361914                0.12400349                0.04418144                0.04611471               -0.01431731
               1.99486592                2.98161347               29.03737759                0.01000000                0.03460668               -0.04338320                0.12743360                0.13155835                0.09387597               -0.00022932
               2.99509132                2.98054467               29.03885933                0.01000000                0.01985019               -0.02662528                0.13373410                0.19393033                0.09818296                0.00880494
               3.99526293                2.98001312               29.04041558                0.01197168               -0.01589563                0.00135747                0.14007602                0.23149996                0.08725750                0.01660464
               4.99477341                2.97933332               29.04161747                0.01000000               -0.08104734                0.04785879                0.14462654                0.26774656                0.07591871                0.03433951
               5.99364198                2.97901627               29.04296634                0.01000001               -0.14490692                0.11088464                0.14815456                0.23815007                0.05712727                0.07079274
               6.99187527                2.97688518               29.04390485                0.01000001               -0.16818735                0.22823185                0.15027113                0.21854805                0.02697415                0.10725019
               7.99027823                2.97580629               29.04484534                0.01256066               -0.15109870                0.19629335                0.15378545                0.13109020               -0.00594666                0.09491517
               8.98885329                2.97346379               29.04527901                0.01365229               -0.09528987                0.11369854                0.15487106                0.03351801               -0.01883281                0.06845742
               9.98837244                2.97255456               29.04609842                0.21582629               -0.04808576                0.08814470                0.15880809               -0.01011993                0.00042843                0.05554123
              -0.00292314                3.98481546               29.03645750                0.43040588               -0.03785347               -0.02255773                0.12531509               -0.00359085               -0.00157369                0.01403252
               0.99669832                3.98230469               29.03692639                0.01000000                0.01092699               -0.05451715                0.12855677                0.05352383                0.05669102               -0.01482844
               1.99729540                3.98096375               29.03856035                0.01000000                0.06066269               -0.07744370                0.13434065                0.13619416                0.12454633               -0.02352693
               2.99791158                3.98018641               29.04026209                0.01197265                0.03296459               -0.05948457                0.14025868                0.19304213                0.12228296               -0.00896254
               3.99795469                3.97967796               29.04172592                0.01000000               -0.00607280               -0.04852201                0.14558155                0.23974755                0.12073582               -0.00652440
               4.99779012                3.97962558               29.04334375                0.01000001               -0.02343401                0.02447347                0.15099017                0.33677268                0.14093922                0.04855657
               5.99748601                3.98016630               29.04518488                0.01000001               -0.06889515                0.12232126                0.15665360                0.39642832                0.14597991                0.10784038
               6.99641222                3.98026051               29.04689486                0.01176506               -0.15246969                0.26517187                0.16152175                0.32972612                0.08849539                0.14103081
               7.99443661                3.97871470               29.04768086                0.01000000               -0.22720823                0.32793810                0.16346610                0.17831138                0.02111729                0.16352960
               8.99186805                3.97617395               29.04826573                0.01000000               -0.26667242                0.48705857                0.16450053                0.09965715                0.00234106                0.20888965
               9.98910317                3.97478625               29.04894872                0.24924135               -0.27648865                0.49807992                0.16689575               -0.03555355               -0.00302223                0.19744788
              -0.00028593                4.98454969               29.03770088                0.55895468               -0.03926995               -0.03025680                0.12985523               -0.00289897               -0.00198639                0.01533367
               0.99932137                4.98178720               29.03802113                0.01000000               -0.00029920               -0.04917479                0.13287031                0.04771790                0.05610363               -0.01467467
               1.99970809                4.98006460               29.03950281                0.01000001                0.04582869               -0.09683457                0.13857186                0.13050908                0.13586032               -0.05481110
               3.00023795                4.97935497               29.04130730                0.01000000                0.04553124               -0.11391226                0.14489993                0.19175975                0.14944380               -0.07119773
               4.00061871                4.97904267               29.04292763                0.01000001                0.03912901               -0.07497070                0.15089146                0.29316031                0.17858345               -0.01786942
               5.00102053                4.97982279               29.04520029                0.01000001                0.01584521                0.00780003                0.15850613                0.41894544                0.22535662                0.05541126
               6.00093562                4.98146269               29.04763015                0.01178418               -0.05495695                0.08714901                0.16606371                0.41061709                0.19429364                0.08980120
               6.99992139                4.98218861               29.04921293                0.01000000               -0.15022959                0.20622465                0.17107098                0.32877291                0.14910793                0.13470668
               7.99793102                4.98236505               29.05079954                0.01000001               -0.25732512                0.46468791                0.17541113                0.31162732                0.14512266                0.23972988
               8.99477488                4.98320496               29.05247880                0.01000000               -0.37471346                0.71774648                0.17973567                0.20113494                0.09339380                0.31329096
               9.99043676                4.98251615               29.05333434                0.29633766               -0.43381289                0.82414352                0.18271318                0.06059628                0.03085688                0.31327248
               0.00254386                5.98421032               29.03895201                0.76624191               -0.04060888               -0.03626557                0.13422221               -0.00128581               -0.00233768                0.01596886
               1.00213777                5.98132120               29.03911804                0.01000001               -0.01030300               -0.04539063                0.13697822                0.02714797                0.03832766               -0.01456246
               2.00233780                5.97902705               29.04009699                0.01140928                0.03154605               -0.10786718                0.14180679                0.07474980                0.10492183               -0.11358837
               3.00276869                5.97790817               29.04149010                0.01000001                0.05061403               -0.14911244                0.14753192                0.18382666                0.18860682               -0.14025393
               4.00335008                5.97817855               29.04400406                0.01000001                0.04901581               -0.10120662                0.15611480                0.32464108                0.27399761               -0.03596278
               5.00374901                5.97978158               29.04693375                0.01178540               -0.00087788               -0.03956827                0.16572692                0.39565900                0.27126402                0.00435021
               6.00333252                5.98190928               29.04922287                0.01000000               -0.08318432                0.05304536                0.17350711                0.41159434                0.25318334                0.05951130
               7.00208532                5.98438501               29.05173054                0.01000000               -0.18398550                0.28551277                0.18121006                0.45683244                0.28170497                0.19449870
               7.99965281                5.98800846               29.05461846                0.01000000               -0.31728389                0.57998255                0.18897875                0.41240063                0.25131219                0.32589936
               8.99573965                5.99052888               29.05667363                0.01069383               -0.39800532                0.75282233                0.19409525                0.22549294                0.13636862                0.35216500
               9.99169271                5.99126913               29.05761778                0.36428785               -0.40469376                0.80149143                0.19697826                0.09134057                0.05961689                0.34424930
               0.00546660                6.98382438               29.04020325                0.99999999               -0.04190025               -0.03989850                0.13849895               -0.00007533               -0.00216555                0.01686313
               1.00504760                6.98087938               29.04021776                0.29896586               -0.04252430               -0.04402358                0.14098841               -0.00275280               -0.01692567               -0.01484599
               2.00461611                6.97790725               29.03993683                0.01619327               -0.01423055               -0.07787082                0.14297147                0.03588559                0.04867888               -0.09393414
               3.00476298                6.97637273               29.04126373                0.01000001                0.03110043               -0.12358928                0.14868647                0.16391834                0.24824025               -0.11003957
               4.00523812                6.97701854               29.04486388                0.01176938                0.02199959               -0.13659136                0.16040605                0.29651625                0.33485616               -0.10036378
               5.00520298                6.97903142               29.04768572                0.01000000               -0.03370208               -0.07448057                0.17012040                0.38345234                0.32387620               -0.04684012
               6.00456408                6.98252360               29.05091559                0.01000000               -0.11220618                0.08422620                0.18093140                0.50966778                0.38607797                0.09166196
               7.00295885                6.98789887               29.05488295                0.01000000               -0.22644579                0.36963591                0.19265602                0.59434155                0.41700485                0.24705704
               8.00003516                6.99396470               29.05869210                0.01089631               -0.34673879                0.56962511                0.20221304                0.45550032                0.31407148                0.31411670
               8.99602408                6.99826141               29.06071186                0.01000002               -0.46260446                0.84024519                0.20916042                0.08153859                0.14768675                0.48486487
               9.99078307                6.99854598               29.06155140                0.48503704               -0.52410032                0.71448601                0.21230683                0.04919626                0.05978726                0.42469084
               0.00843234                7.98341235               29.04147031                0.99128068               -0.04324997               -0.04209135                0.14281289                0.00053665               -0.00424071                0.02016046
               1.00799984                7.98044073               29.04130984                0.89443378               -0.04350842               -0.04414993                0.14497897               -0.00071026               -0.01091140               -0.00991763
               2.00756217                7.97746964               29.04101594                0.01000000               -0.05320346               -0.04424798                0.14688311                0.04531417                0.05612211               -0.02524315
               3.00693577                7.97543638               29.04219644                0.01256781               -0.04702308               -0.11470198                0.15224563                0.16442961                0.19941141               -0.12360009
               4.00662171                7.97544672               29.04473826                0.01000000               -0.05113869               -0.13156041                0.16115525                0.31843756                0.33127079               -0.16351361
               5.00591300                7.97829197               29.04842587                0.01000001               -0.09816387               -0.04059542                0.17410839                0.41746513                0.44045278               -0.03009505
               6.00465843                7.98359380               29.05301779                0.01000000               -0.16909697                0.10793639                0.18896277                0.56159324                0.51123006                0.09342281
               7.00253106                7.99177772               29.05797423                0.01092294               -0.31290750                0.29497344                0.20294543                0.62732221                0.46027455                0.18459782
               7.99840028                7.99940096               29.06149585                0.01000002               -0.48709621                0.72263102                0.21486011                0.53878608                0.44965370                0.38279755
               8.99278913                8.00733378               29.06646867                0.43308310               -0.31463990                0.41926060                0.22832712                0.23480354                0.25314556                0.31966907
               9.99210748                8.00555885               29.06633709                0.96023546               -0.06816488                0.31665233                0.22606427               -0.02280570               -0.00189022                0.26085277
               0.01142058                8.98298255               29.04278671                1.00000000               -0.04444764               -0.04382737                0.14722994                0.00070946               -0.00054828                0.01889022
               1.01097610                8.97999639               29.04250848                0.99999998               -0.04469197               -0.04494198                0.14919030                0.00003220               -0.00056619               -0.00225381
               2.01052674                8.97702229               29.04223005                0.10710853               -0.04508038               -0.04540062                0.15115024                0.00085342               -0.00915948               -0.01669356
               3.01007449                8.97407869               29.04178043                0.01382604               -0.08877267               -0.09093563                0.15253387                0.17202203                0.14097887               -0.10024366
               4.00875129                8.97438733               29.04450451                0.01000000               -0.23346473               -0.02004076                0.16027209                0.31395605                0.41959574               -0.12156513
               5.00540520                8.97821951               29.04958256                0.01000000               -0.32205474                0.05958963                0.17856664                0.31733464                0.53093074               -0.01796758
               6.00231019                8.98468233               29.05460531                0.01078009               -0.28535311                0.09728392                0.19506457                0.36808172                0.51587033                0.04669811
               6.99969814                8.99379834               29.05941182                0.01000002               -0.35276824                0.15317252                0.21144742                0.73135719                0.60714370                0.07388630
               7.99525483                9.00841732               29.06622055                0.44778409               -0.25679361                0.41591696                0.23201743                0.57361830                0.34609524                0.26876771
               8.99456227                9.00664662               29.06598198                0.99999998               -0.06889953               -0.06892413                0.22967803                0.00003832               -0.00461755                0.00535074
               9.99387684                9.00487903               29.06577504                0.99044184               -0.06854298               -0.06817691                0.22737446               -0.00020928               -0.00298790               -0.00489737
               0.01441886                9.98253580               29.04402804                0.99567621               -0.04581172               -0.04467470                0.15153781                0.00043629                0.01537850                0.01513444
               1.01396074                9.97954189               29.04375416                1.00000000               -0.04609591               -0.04544984                0.15350750               -0.00024503                0.01538320                0.00007576
               2.01349694                9.97656163               29.04348076                0.71120141               -0.04747848               -0.04606670                0.15547564                0.00080914                0.01984332               -0.01490476
               3.01301117                9.97361767               29.04329680                0.21633881               -0.23684684               -0.04610153                0.15733633                0.21788156                0.13656646               -0.00367617
               4.00876000                9.97504591               29.04536078                0.24944241               -0.55232379                0.06585720                0.16355572                0.29417622                0.39544263               -0.06516026
               5.00196469                9.97948376               29.05060118                0.29602807               -0.61593800                0.12642481                0.18282450                0.18062813                0.52152619               -0.01987822
               5.99644124                9.98553948               29.05569195                0.36371020               -0.42707413                0.08571502                0.19995175                0.18097567                0.46062365                0.02532517
               6.99342321                9.99484117               29.06001949                0.48576840                0.02915625                0.10428347                0.21726905                0.48149847                0.48067382                0.03733866
               7.99702437               10.00771930               29.06561207                0.97711250                0.14524889               -0.06980181                0.23328531                0.73266038                0.29586987                0.00211713
               8.99632819               10.00595530               29.06544995                0.99044192               -0.06929429               -0.06913206                0.23099282                0.00039269                0.00585213                0.00306876
               9.99563848               10.00419531               29.06524378                1.00000000               -0.06897084               -0.06837225                0.22868810                0.00016523                0.00354450               -0.00339870
              -0.01177819               -0.01527589               30.03266123                0.91084175               -0.03226146               -0.03234059                0.10730995                0.00135327               -0.00596073                0.00639296
               0.98789920               -0.01714247               30.03358712                0.63966099               -0.03157942               -0.03440225                0.11109228                0.00155415               -0.00662055               -0.00441497
               1.98759022               -0.01896160               30.03449830                0.39650979               -0.02723628               -0.03506504                0.11489261                0.00501648                0.00178885               -0.00200534
               2.98735447               -0.02061819               30.03558781                0.36060809               -0.02271876               -0.03642011                0.11905364                0.00263084                0.01593174               -0.00098846
               3.98713585               -0.02200102               30.03676378                0.42763902               -0.02563907               -0.03761215                0.12336223               -0.00209231                0.01665122               -0.00007117
               4.98684169               -0.02314332               30.03784159                0.55364159               -0.03232934               -0.03883247                0.12743988               -0.00150289                0.00835656                0.00018847
               5.98648926               -0.02415411               30.03883452                0.75563833               -0.03693743               -0.04001125                0.13132768               -0.00045130                0.00228135                0.00035944
               6.98610294               -0.02510256               30.03978228                0.99944820               -0.03961022               -0.04115949                0.13514270                0.00022336               -0.00096873                0.00037176
               7.98569705               -0.02601930               30.04070668                0.99999998               -0.04129466               -0.04234779                0.13898729                0.00052990               -0.00272666                0.00101767
               8.98527705               -0.02691588               30.04161807                1.00000000               -0.04266818               -0.04346064                0.14287831                0.00061203               -0.00295647                0.00024869
               9.98484369               -0.02779808               30.04253765                0.99560083               -0.04333550               -0.04467112                0.14672319                0.00001415               -0.00258889               -0.00286972
              -0.00989808                0.98440070               30.03388539                0.64055951               -0.03443287               -0.03165208                0.11153553                0.00157975                0.00453344                0.00884604
               0.98975759                0.98251351               30.03480962                0.01482826               -0.03618391               -0.03635447                0.11531499                0.00318565                0.01030854               -0.00877432
               1.98937824                0.98068775               30.03584910                0.01000000               -0.04285536               -0.02692278                0.11923351                0.02561891                0.02358989               -0.00327302
               2.98890049                0.97901761               30.03704239                0.01000001               -0.05003759               -0.00243738                0.12348240                0.06512168                0.03359512                0.00867119
               3.98837749                0.97762286               30.03829964                0.01000000               -0.04986409                0.01078112                0.12781949                0.08544974                0.02921035                0.01001819
               4.98790320                0.97646835               30.03943056                0.01000000               -0.04565642                0.01651975                0.13185878                0.08392578                0.01715749                0.01400193
               5.98746436                0.97544578               30.04046298                0.01000001               -0.04327192                0.02973466                0.13565833                0.05032676                0.00922575                0.01721046
               6.98703777                0.97448585               30.04144290                0.28054614               -0.04276747               -0.04187227                0.13936162               -0.00134839                0.00551006                0.00394566
               7.98660901                0.97355722               30.04240365                0.86273400               -0.04326045               -0.04291078                0.14306674               -0.00032689                0.00312180                0.00263900
               8.98617256                0.97264951               30.04333648                0.99999999               -0.04414906               -0.04402503                0.14686674                0.00002231                0.00094547                0.00028163
               9.98572603                0.97175521               30.04425402                1.00000000               -0.04465241               -0.04525778                0.15071476               -0.00058827                0.00015113               -0.00291910
              -0.00797220                1.98409107               30.03515700                0.39785740               -0.03519314               -0.02643095                0.11585210                0.00535976                0.00177569                0.01136610
               0.99167587                1.98213044               30.03594469                0.01000000               -0.02146520               -0.04444543                0.11949920                0.02082712                0.02388768               -0.01329591
               1.99159849                1.98049994               30.03717399                0.01000001                0.00229624               -0.01935431                0.12310482                0.10541273                0.06245479                0.00544679
               2.99172179                1.97933307               30.03868992                0.01000000               -0.01021955                0.00844362                0.12822212                0.16766069                0.07046424                0.01701452
               3.99139410                1.97821460               30.04003712                0.01000000               -0.05122528                0.05134158                0.13330820                0.21095163                0.05691194                0.03001911
               4.99069729                1.97718707               30.04129570                0.01000001               -0.09579015                0.07372593                0.13782839                0.22821808                0.04366508                0.03127402
               5.98947830                1.97644058               30.04242843                0.01140831               -0.13663811                0.10868249                0.14134554                0.12306690                0.01241577                0.04624278
               6.98796452                1.97406000               30.04317505                0.01619328               -0.09757251                0.04372839                0.14337541                0.04155879               -0.00341551                0.03242187
               7.98752685                1.97312249               30.04413339                0.01000000               -0.04425081                0.03344188                0.14702174                0.05233649                0.00542029                0.03019530
               8.98707951                1.97220362               30.04505621                0.09638876               -0.04531567               -0.04402333                0.15084887                0.00101759                0.00323319                0.00290059
               9.98662054                1.97129677               30.04597053                0.70461055               -0.04589711               -0.04638030                0.15471110               -0.00011400                0.00279606               -0.00298107
              -0.00586963                2.98387208               30.03642690                0.36212765               -0.03651088               -0.01975848                0.12043515                0.00265473                0.00011385                0.01270090
               0.99376526                2.98162460               30.03707960                0.01000001                0.00767499               -0.05430271                0.12393953                0.04750725                0.04647727               -0.01409069
               1.99428387                2.98030066               30.03865942                0.01000000                0.03868877               -0.04284006                0.12849656                0.14103953                0.09597846                0.00299242
               2.99453904                2.97918649               30.04019571                0.01000000                0.02293240               -0.02396948                0.13379509                0.20829212                0.10114826                0.01099243
               3.99474252                2.97864969               30.04181409                0.01197112               -0.01487264                0.00613399                0.13966848                0.24850263                0.08974380                0.01877248
               4.99424159                2.97794287               30.04306068                0.01000000               -0.08448716                0.05570849                0.14408059                0.28646330                0.07681599                0.03673747
               5.99305278                2.97761943               30.04444522                0.01000001               -0.15272746                0.12273572                0.14763757                0.25479113                0.05658943                0.07433709
               6.99118704                2.97536041               30.04540540                0.01000001               -0.17703286                0.24698877                0.14984663                0.23382763                0.02607229                0.11204246
               7.98951212                2.97422606               30.04638127                0.01256769               -0.15842033                0.21156652                0.15340821                0.14136693               -0.00754511                0.09885205
               8.98801863                2.97176905               30.04682710                0.01375558               -0.09873280                0.12178409                0.15475040                0.03804333               -0.02024215                0.07103243
               9.98753746                2.97082760               30.04768633                0.21597056               -0.04811666                0.09090585                0.15878960               -0.00649145                0.00039600                0.05750789
              -0.00342414                3.98369590               30.03770989                0.43022359               -0.03784273               -0.02183055                0.12516544               -0.00373564               -0.00160573                0.01458095
               0.99619744                3.98104439               30.03821156                0.01000000                0.01407668               -0.05507462                0.12847890                0.05740736                0.05765857               -0.01469309
               1.99685740                3.97964314               30.03989830                0.01000000                0.06705836               -0.07869599                0.13378934                0.14675559                0.12723886               -0.02250292
               2.99753860                3.97885368               30.04166253                0.01197192                0.03751865               -0.05890723                0.13986069                0.20811462                0.12532001               -0.00731369
               3.99760777                3.97833728               30.04317871                0.01000000               -0.00408942               -0.04720753                0.14503648                0.25758520                0.12333830               -0.00501413
               4.99745681                3.97830124               30.04485015                0.01000001               -0.02255962                0.03105659                0.15032340                0.36144462                0.14372683                0.05172772
               5.99715658                3.97889530               30.04674728                0.01000001               -0.07111877                0.13532398                0.15585844                0.42542503                0.14840060                0.11315717
               6.99603444                3.97899977               30.04850551                0.01175562               -0.16055117                0.28707803                0.16064328                0.35447273                0.08885466                0.14782552
               7.99394555                3.97735382               30.04931100                0.01000000               -0.23978041                0.35249419                0.16259793                0.19330819                0.01915791                0.17032047
               8.99123883                3.97463930               30.04990618                0.01000000               -0.27859791                0.51725440                0.16361896                0.10859961                0.00024011                0.21636085
               9.98837360                3.97311488               30.05061347                0.24941043               -0.28652355                0.52312543                0.16607731               -0.03555948               -0.00392485                0.20362217
              -0.00064132                4.98343547               30.03899870                0.55866685               -0.03925134               -0.02986684                0.12971371               -0.00300743               -0.00202447                0.01572196
               0.99896617                4.98052311               30.03934947                0.01000000                0.00255049               -0.04943562                0.13279837                0.05141888                0.05736342               -0.01477605
               1.99940969                4.97872674               30.04088763                0.01000001                0.05205097               -0.09956565                0.13831057                0.14080576                0.13892546               -0.05515717
               3.00000719                4.97800834               30.04275355                0.01000000                0.05184836               -0.11738913                0.14440584                0.20651332                0.15293014               -0.07162073
               4.00044666                4.97770554               30.04443336                0.01000001                0.04526373               -0.07532613                0.15028336                0.31534278                0.18298464               -0.01649040
               5.00091246                4.97856400               30.04678106                0.01000001                0.02080434                0.01317226                0.15768219                0.45044273                0.23071537                0.05913904
               6.00086275                4.98032591               30.04928544                0.01177042               -0.05472465                0.09751308                0.16504148                0.44207391                0.19851382                0.09493681
               6.99981797                4.98110198               30.05091748                0.01000000               -0.15619970                0.22400083                0.16990184                0.35574823                0.15168998                0.14124049
               7.99773875                4.98127595               30.05254745                0.01000001               -0.26942067                0.49766045                0.17423569                0.33778189                0.14728190                0.24885522
               8.99442956                4.98211414               30.05427057                0.01000000               -0.39318193                0.76398439                0.17866612                0.21859798                0.09467188                0.32407967
               9.98987511                4.98129011               30.05515667                0.29644183               -0.45544429                0.87344644                0.18177103                0.06573603                0.03091916                0.32342857
               0.00234045                5.98309856               30.04029365                0.76584890               -0.04059014               -0.03609321                0.13410922               -0.00133403               -0.00238133                0.01624146
               1.00193455                5.98005567               30.04048758                0.01000001               -0.00760858               -0.04548487                0.13693096                0.02929921                0.03925714               -0.01482189
               2.00218828                5.97765183               30.04151392                0.01141232                0.03777614               -0.11206672                0.14160065                0.08038909                0.10754061               -0.11579859
               3.00269007                5.97650589               30.04296361                0.01000001                0.05853435               -0.15560657                0.14717863                0.19711394                0.19338025               -0.14257322
               4.00335896                5.97683076               30.04556193                0.01000001                0.05776162               -0.10395425                0.15547958                0.34900589                0.28106752               -0.03521309
               5.00384530                5.97856469               30.04858642                0.01177176                0.00505591               -0.03830264                0.16483150                0.42564674                0.27838353                0.00656747
               6.00346008                5.98084556               30.05095174                0.01000000               -0.08229695                0.06000508                0.17233116                0.44380223                0.25956703                0.06366681
               7.00219936                5.98347979               30.05353551                0.01000000               -0.18855259                0.30659677                0.17988525                0.49419022                0.28828216                0.20219242
               7.99968903                5.98730703               30.05650121                0.01000000               -0.33013699                0.61900774                0.18769282                0.44812458                0.25668311                0.33648210
               8.99559662                5.98991899               30.05860885                0.01067164               -0.41763333                0.80437585                0.19300942                0.24597230                0.13900806                0.36386312
               9.99133636                5.99058381               30.05958260                0.36437264               -0.42602598                0.85629990                0.19599262                0.09976487                0.06088478                0.35508172
               0.00541778                6.98271361               30.04158785                0.99999999               -0.04188883               -0.03982886                0.13842407               -0.00008663               -0.00220659                0.01711444
               1.00499889                6.97961341               30.04162758                0.29865866               -0.04252618               -0.04405516                0.14097503               -0.00280647               -0.01722386               -0.01516740
               2.00456725                6.97648540               30.04136674                0.01619890               -0.01141769               -0.08021250                0.14300638                0.03816689                0.04992511               -0.09594370
               3.00477053                6.97489621               30.04274975                0.01000001                0.04003662               -0.12938654                0.14851420                0.17548190                0.25449320               -0.11222952
               4.00536799                6.97562645               30.04646480                0.01175949                0.03200320               -0.14316273                0.15979496                0.31774763                0.34381834               -0.10212954
               5.00541060                6.97779795               30.04938215                0.01000000               -0.02721484               -0.07716947                0.16919719                0.41142004                0.33289905               -0.04649111
               6.00482369                6.98152601               30.05271859                0.01000000               -0.10851462                0.09097670                0.17974776                0.54865216                0.39662644                0.09604709
               7.00324031                6.98723391               30.05680213                0.01000000               -0.22808234                0.39331094                0.19136390                0.64147570                0.42753492                0.25528667
               8.00026204                6.99365610               30.06070836                0.01086600               -0.35840445                0.60739646                0.20115890                0.49675728                0.32250238                0.32497541
               8.99607222                6.99820165               30.06279782                0.01000002               -0.48606364                0.89849673                0.20804571                0.10373094                0.15286728                0.49980307
               9.99054077                6.99841611               30.06366845                0.48516582               -0.55314483                0.77325486                0.21108311                0.06620088                0.06277611                0.43571845
               0.00853912                7.98230198               30.04289825                0.99127658               -0.04324947               -0.04206323                0.14277628                0.00054103               -0.00433016                0.02048251
               1.00810662                7.97917457               30.04275974                0.89452543               -0.04351514               -0.04416702                0.14499931               -0.00072164               -0.01113272               -0.01014019
               2.00766881                7.97604758               30.04248518                0.01000000               -0.05239814               -0.04427278                0.14695814                0.04828085                0.05743105               -0.02575762
               3.00705866                7.97391816               30.04371821                0.01257480               -0.04283186               -0.11972408                0.15209612                0.17433051                0.20433626               -0.12638662
               4.00681218                7.97396750               30.04634680                0.01000000               -0.04422548               -0.13966549                0.16056214                0.33881189                0.34046268               -0.16843061
               5.00617415                7.97702130               30.05016207                0.01000001               -0.09075063               -0.04349705                0.17319639                0.44748414                0.45346406               -0.03013270
               6.00499716                7.98266509               30.05490172                0.01000000               -0.16376829                0.11332120                0.18794490                0.60284814                0.52573840                0.09701306
               7.00289878                7.99134601               30.05999889                0.01089166               -0.31703654                0.31331088                0.20210791                0.67589731                0.47403949                0.19158271
               7.99865643                7.99945496               30.06363982                0.01000002               -0.49937758                0.76922637                0.21395957                0.58614932                0.46373458                0.39587761
               8.99291123                8.00788893               30.06874872                0.43308823               -0.32124832                0.45006897                0.22766616                0.26360105                0.26104800                0.32863148
               9.99223147                8.00604891               30.06859490                0.96030381               -0.06797653                0.34769866                0.22548753               -0.00777255               -0.00189519                0.26709650
               0.01168342                8.98187234               30.04425901                1.00000000               -0.04445606               -0.04382074                0.14723164                0.00071610               -0.00056679                0.01920796
               1.01123886                8.97873007               30.04400066                0.99999998               -0.04470736               -0.04496110                0.14924499                0.00003321               -0.00058481               -0.00231289
               2.01078928                8.97559995               30.04374213                0.10743584               -0.04508234               -0.04543416                0.15125808                0.00091894               -0.00946231               -0.01699945
               3.01033722                8.97250173               30.04330665                0.01393833               -0.08740935               -0.09389670                0.15270049                0.18014197                0.14329747               -0.10249832
               4.00904109                8.97283314               30.04610284                0.01000000               -0.23372616               -0.02298321                0.15939863                0.33372360                0.43128202               -0.12591820
               5.00566269                8.97692801               30.05136393                0.01000000               -0.32425745                0.06098535                0.17776775                0.33984035                0.54804649               -0.01840249
               6.00255594                8.98379243               30.05655223                0.01075434               -0.28471523                0.10097592                0.19440062                0.39560958                0.53265756                0.04842594
               6.99996839                8.99350013               30.06152291                0.01000002               -0.35569153                0.16219707                0.21079885                0.78113867                0.62697022                0.07821713
               7.99544211                9.00904063               30.06853945                0.44733720               -0.26090520                0.44438792                0.23175032                0.61629680                0.35757601                0.27677619
               8.99475029                9.00720303               30.06827787                0.99999998               -0.06883798               -0.06886783                0.22949334                0.00003534               -0.00465405                0.00538897
               9.99406535                9.00537008               30.06804828                0.99064410               -0.06849341               -0.06814817                0.22727268               -0.00028278               -0.00300347               -0.00491487
               0.01483799                9.98142557               30.04554359                0.99560400               -0.04583093               -0.04467754                0.15157320                0.00043461                0.01564625                0.01539559
               1.01437968                9.97827535               30.04528969                1.00000000               -0.04612289               -0.04547199                0.15359609               -0.00025202                0.01565051                0.00007070
               2.01391553                9.97513889               30.04503626                0.71154585               -0.04756887               -0.04610565                0.15561754                0.00086967                0.02006214               -0.01517742
               3.01342830                9.97204023               30.04487126                0.21650263               -0.24275824               -0.04614984                0.15754478                0.22755608                0.13863792               -0.00373557
               4.00906037                9.97350784               30.04699227                0.24959356               -0.57083175                0.06746960                0.16274142                0.31196653                0.40753732               -0.06794259
               5.00201167                9.97824100               30.05242553                0.29607400               -0.63615662                0.13129954                0.18208288                0.19373608                0.53920613               -0.02064702
               5.99633724                9.98468461               30.05768879                0.36370923               -0.43691544                0.08921791                0.19947546                0.19557670                0.47764620                0.02604824
               6.99327336                9.99458995               30.06218924                0.48576297                0.04711145                0.10898203                0.21670291                0.51340231                0.49823179                0.03974557
               7.99727947               10.00834271               30.06794596                0.97671115                0.16545613               -0.06979142                0.23349036                0.77981641                0.30523539                0.00213294
               8.99658248               10.00651157               30.06776131                0.99064412               -0.06938776               -0.06914645                0.23128198                0.00038138                0.00587755                0.00308979
               9.99589171               10.00468595               30.06753249                1.00000000               -0.06907736               -0.06841387                0.22906023                0.00007354                0.00356080               -0.00341593
              -0.01278285               -0.01645694               31.03373339                0.91039177               -0.03218579               -0.03225918                0.10712165                0.00137098               -0.00600883                0.00645278
               0.98689529               -0.01843044               31.03469738                0.63902822               -0.03142623               -0.03438970                0.11095926                0.00162104               -0.00665847               -0.00445229
               1.98658862               -0.02035426               31.03564685                0.39626141               -0.02666331               -0.03503763                0.11481611                0.00532397                0.00193758               -0.00202383
               2.98636202               -0.02210489               31.03677810                0.36054159               -0.02160061               -0.03640878                0.11900767                0.00275268                0.01634776               -0.00100342
               3.98615661               -0.02356001               31.03799717                0.42757725               -0.02454642               -0.03760448                0.12332689               -0.00238918                0.01706311               -0.00009232
               4.98587110               -0.02475262               31.03911581                0.55355992               -0.03168381               -0.03883051                0.12742914               -0.00175068                0.00858202                0.00016370
               5.98552293               -0.02580073               31.04014768                0.75563158               -0.03663482               -0.04001367                0.13133552               -0.00058236                0.00236723                0.00033898
               6.98513840               -0.02678062               31.04113372                0.99964740               -0.03948765               -0.04116348                0.13514862                0.00018032               -0.00090308                0.00035343
               7.98473318               -0.02772665               31.04209686                0.99999998               -0.04125168               -0.04236274                0.13902973                0.00053990               -0.00259680                0.00097919
               8.98431337               -0.02865175               31.04304756                1.00000000               -0.04267780               -0.04349333                0.14300554                0.00063186               -0.00279537                0.00024545
               9.98387963               -0.02956247               31.04400594                0.99551909               -0.04337397               -0.04472902                0.14694434                0.00004370               -0.00244131               -0.00272733
              -0.01079565                0.98322047               31.03499996                0.63989702               -0.03441941               -0.03149353                0.11137546                0.00164715                0.00457630                0.00895105
               0.98886016                0.98122567               31.03596226                0.01465431               -0.03626313               -0.03641935                0.11521017                0.00338477                0.01042008               -0.00882953
               1.98847909                0.97929537               31.03704115                0.01000000               -0.04338670               -0.02578610                0.11917383                0.02759764                0.02392798               -0.00318932
               2.98799243                0.97753102               31.03827703                0.01000001               -0.05112538                0.00053932                0.12344230                0.06926625                0.03411920                0.00898889
               3.98745658                0.97606395               31.03957764                0.01000000               -0.05092386                0.01483801                0.12777938                0.09086252                0.02959476                0.01053713
               4.98697395                0.97485907               31.04074897                0.01000000               -0.04627360                0.02081947                0.13183374                0.08922148                0.01723418                0.01466742
               5.98653111                0.97379914               31.04181938                0.01000001               -0.04353928                0.03459729                0.13564293                0.05347822                0.00908687                0.01780139
               6.98610316                0.97280774               31.04283637                0.28070646               -0.04284834               -0.04187841                0.13933221               -0.00149026                0.00530807                0.00380301
               7.98567414                0.97184972               31.04383432                0.86331556               -0.04327841               -0.04291168                0.14305111               -0.00034692                0.00299792                0.00253665
               8.98523759                0.97091332               31.04480548                0.99999999               -0.04416802               -0.04404441                0.14692605                0.00003192                0.00092412                0.00027531
               9.98479078                0.96999024               31.04576186                1.00000000               -0.04468103               -0.04530517                0.15086569               -0.00056978                0.00016007               -0.00278296
              -0.00876031                1.98291319               31.03631485                0.39755619               -0.03516048               -0.02592490                0.11571338                0.00564301                0.00178781                0.01164779
               0.99088809                1.98084118               31.03713934                0.01000000               -0.02022350               -0.04484036                0.11942612                0.02264397                0.02420979               -0.01324984
               1.99083522                1.97913002               31.03841160                0.01000001                0.00453394               -0.01731787                0.12392632                0.11275066                0.06373675                0.00623700
               2.99097877                1.97790589               31.03997564                0.01000000               -0.00947079                0.01304430                0.12865488                0.17869645                0.07198801                0.01808870
               3.99064581                1.97673675               31.04137061                0.01000000               -0.05292154                0.05915160                0.13331774                0.22470652                0.05826268                0.03167444
               4.98992034                1.97566377               31.04267214                0.01000001               -0.10009889                0.08272724                0.13754300                0.24295577                0.04400470                0.03307723
               5.98864383                1.97489122               31.04384053                0.01141096               -0.14311653                0.11925133                0.14107439                0.13079891                0.01141267                0.04798287
               6.98705801                1.97238181               31.04460814                0.01619803               -0.10115799                0.04939137                0.14323433                0.04406998               -0.00455899                0.03334852
               7.98662067                1.97141512               31.04560318                0.01000000               -0.04422590                0.03779957                0.14692120                0.05585175                0.00518326                0.03120919
               8.98617349                1.97046736               31.04656467                0.09649536               -0.04531411               -0.04394253                0.15083892                0.00110504                0.00311420                0.00284532
               9.98571439                1.96953143               31.04751799                0.70468368               -0.04591005               -0.04642362                0.15480138               -0.00003812                0.00269110               -0.00281305
              -0.00653876                2.98270197               31.03763057                0.36199277               -0.03650298               -0.01889589                0.12029808                0.00277457                0.00010310                0.01320337
               0.99309621                2.98032886               31.03831867                0.01000001                0.01040742               -0.05501053                0.12387273                0.05110177                0.04714933               -0.01389669
               1.99366939                2.97894901               31.03994753                0.01000000                0.04317066               -0.04222664                0.12888267                0.15085130                0.09770713                0.00405947
               2.99395962                2.97779191               31.04153523                0.01000000                0.02617262               -0.02117988                0.13397198                0.22283870                0.10355139                0.01272845
               3.99419284                2.97724698               31.04320895                0.01197069               -0.01405122                0.01108286                0.13934761                0.26548732                0.09167863                0.02056895
               4.99367860                2.97651362               31.04449908                0.01000000               -0.08818959                0.06379912                0.14363391                0.30564658                0.07758140                0.03901891
               5.99242905                2.97618416               31.04591909                0.01000001               -0.16089672                0.13490004                0.14715792                0.27183930                0.05598056                0.07762986
               6.99046066                2.97379557               31.04690178                0.01000001               -0.18617101                0.26615639                0.14944765                0.24945695                0.02511288                0.11650104
               7.98870563                2.97260572               31.04791351                0.01257896               -0.16586385                0.22699047                0.15305052                0.15186614               -0.00913031                0.10246446
               8.98714339                2.97003447               31.04837401                0.01387773               -0.10218659                0.12951673                0.15461444                0.04264733               -0.02159447                0.07325077
               9.98666189                2.96906177               31.04927421                0.21612951               -0.04814907                0.09284657                0.15878749               -0.00248488                0.00036963                0.05913031
              -0.00395860                3.98253527               31.03896081                0.43005949               -0.03783193               -0.02107992                0.12501964               -0.00388973               -0.00163895                0.01509854
               0.99566309                3.97974097               31.03949596                0.01000000                0.01738987               -0.05566022                0.12840290                0.06168632                0.05862287               -0.01459179
               1.99638920                3.97828549               31.04123614                0.01000000                0.07372421               -0.08015865                0.13374189                0.15772278                0.12976486               -0.02175079
               2.99713757                3.97748230               31.04305930                0.01197145                0.04223189               -0.05852138                0.13954054                0.22320585                0.12797709               -0.00608682
               3.99723384                3.97695841               31.04462665                0.01000000               -0.00207427               -0.04586656                0.14457305                0.27577578                0.12573584               -0.00360379
               4.99709608                3.97693975               31.04635022                0.01000001               -0.02175889                0.03778410                0.14973318                0.38674829                0.14626831                0.05473013
               5.99679866                3.97758922               31.04830205                0.01000001               -0.07352463                0.14864049                0.15512786                0.45528054                0.15058936                0.11822400
               6.99562559                3.97770494               31.05010773                0.01174899               -0.16897832                0.30939231                0.15983133                0.37991091                0.08901876                0.15426302
               7.99341910                3.97595493               31.05093282                0.01000000               -0.25276049                0.37731106                0.16178444                0.20853525                0.01700852                0.17675203
               8.99057038                3.97305770               31.05153810                0.01000000               -0.29045028                0.54747103                0.16275276                0.11745729               -0.00203537                0.22340373
               9.98761009                3.97138836               31.05227026                0.24959759               -0.29602914                0.54769159                0.16525884               -0.03588204               -0.00489409                0.20938257
              -0.00102795                4.98228037               31.04029515                0.55841135               -0.03923345               -0.02946363                0.12957910               -0.00312353               -0.00206338                0.01610118
               0.99857972                4.97921566               31.04067710                0.01000000                0.00552290               -0.04971583                0.13272953                0.05525106                0.05845265               -0.01489445
               1.99908251                4.97734583               31.04226902                0.01000001                0.05855483               -0.10267578                0.13804171                0.15146006                0.14172185               -0.05556654
               2.99975082                4.97662148               31.04419542                0.01000000                0.05841940               -0.12108919                0.14399397                0.22172667                0.15623731               -0.07199803
               4.00025090                4.97632965               31.04593330                0.01000001                0.05159686               -0.07577831                0.14974146                0.33813067                0.18711232               -0.01518840
               5.00078275                4.97726930               31.04835393                0.01000001                0.02592853                0.01860446                0.15692482                0.48290539                0.23576577                0.06272681
               6.00076947                4.97915697               31.05093098                0.01175973               -0.05447901                0.10801230                0.16411177                0.47451110                0.20243215                0.09985975
               6.99969317                4.97998342               31.05261097                0.01000000               -0.16229488                0.24196349                0.16884787                0.38354317                0.15403723                0.14756731
               7.99752357                4.98015194               31.05428425                0.01000001               -0.28170363                0.53111344                0.17316889                0.36472567                0.14931901                0.25783210
               8.99405910                4.98098389               31.05605212                0.01000000               -0.41203194                0.81105993                0.17766667                0.23658517                0.09590911                0.33478687
               9.98928293                4.98001560               31.05696976                0.29655912               -0.47761664                0.92353133                0.18085366                0.07081185                0.03096161                0.33347980
               0.00210837                5.98194600               31.04163419                0.76550470               -0.04057235               -0.03591534                0.13400330               -0.00138673               -0.00242572                0.01651946
               1.00170264                5.97874665               31.04185666                0.01000001               -0.00478934               -0.04558898                0.13688547                0.03152444                0.04008555               -0.01508538
               2.00201258                5.97623197               31.04292900                0.01141496                0.04428235               -0.11643581                0.14141469                0.08619001                0.10993233               -0.11783399
               3.00258829                5.97506051               31.04443367                0.01000001                0.06680252               -0.16239683                0.14684926                0.21074205                0.19785861               -0.14477061
               4.00334863                5.97544284               31.04711365                0.01000001                0.06692886               -0.10692849                0.15488905                0.37412559                0.28779227               -0.03449122
               5.00392687                5.97731184               31.05023038                0.01176142                0.01130685               -0.03716794                0.16399418                0.45655210                0.28514236                0.00868158
               6.00357477                5.97974947               31.05266949                0.01000000               -0.08126885                0.06687958                0.17128116                0.47697648                0.26563610                0.06773509
               7.00230149                5.98254421               31.05532824                0.01000001               -0.19308142                0.32789045                0.17874071                0.53271697                0.29468302                0.20987108
               7.99971314                5.98657720               31.05837232                0.01000000               -0.34315340                0.65868334                0.18658715                0.48503183                0.26201635                0.34713222
               8.99543842                5.98927890               31.06053382                0.01065494               -0.43751167                0.85668582                0.19203021                0.26720108                0.14163532                0.37549071
               9.99096291                5.98985899               31.06153763                0.36446787               -0.44755168                0.91162246                0.19506198                0.10872875                0.06216561                0.36566262
               0.00534302                6.98156206               31.04297174                0.99999999               -0.04187818               -0.03975761                0.13835515               -0.00009983               -0.00224818                0.01737566
               1.00492424                6.97830388               31.04303726                0.29839537               -0.04252845               -0.04409055                0.14096123               -0.00286678               -0.01752946               -0.01548883
               2.00449245                6.97501712               31.04279696                0.01620355               -0.00847255               -0.08264365                0.14303327                0.04047060                0.05103203               -0.09786411
               3.00475478                6.97337354               31.04423402                0.01000001                0.04948175               -0.13543843                0.14834785                0.18732715                0.26037266               -0.11435968
               4.00548208                6.97419108               31.04805978                0.01175276                0.04261941               -0.15013838                0.15921362                0.33954337                0.35235669               -0.10393049
               5.00560717                6.97652594               31.05106966                0.01000000               -0.02027261               -0.08021515                0.16834135                0.44019887                0.34158510               -0.04618360
               6.00507663                6.98049456               31.05451055                0.01000001               -0.10436958                0.09754787                0.17872284                0.58884507                0.40692420                0.10051833
               7.00351978                6.98654123               31.05871022                0.01000000               -0.22935550                0.41721949                0.19033506                0.69016487                0.43800556                0.26372777
               8.00048952                6.99332560               31.06271527                0.01084096               -0.36992244                0.64551152                0.20031713                0.53941934                0.33085254                0.33598674
               8.99612133                6.99811761               31.06487277                0.01000002               -0.50960947                0.95737313                0.20700982                0.12695160                0.15784880                0.51471095
               9.99029733                6.99824805               31.06577306                0.48530835               -0.58240005                0.83309773                0.20985622                0.08375942                0.06566123                0.44655834
               0.00862275                7.98115085               31.04432584                0.99126700               -0.04324948               -0.04203490                0.14274451                0.00054494               -0.00442041                0.02081461
               1.00819025                7.97786484               31.04420983                0.89461379               -0.04352115               -0.04418486                0.14501699               -0.00073481               -0.01135632               -0.01036241
               2.00775233                7.97457910               31.04395510                0.01000000               -0.05146898               -0.04429466                0.14702204                0.05129805                0.05859597               -0.02627443
               3.00716087                7.97235174               31.04523836                0.01258548               -0.03826143               -0.12489371                0.15193774                0.18429631                0.20888295               -0.12905593
               4.00698710                7.97244008               31.04794950                0.01000000               -0.03667576               -0.14837884                0.15998716                0.35966798                0.34924493               -0.17355465
               5.00642736                7.97570754               31.05188980                0.01000001               -0.08253564               -0.04689662                0.17239288                0.47849559                0.46622512               -0.03013203
               6.00533638                7.98170042               31.05677669                0.01000000               -0.15768055                0.11846056                0.18711648                0.64543971                0.54020461                0.10086195
               7.00327375                7.99088860               31.06201638                0.01086599               -0.32056182                0.33155523                0.20147374                0.72587734                0.48771299                0.19884429
               7.99892515                7.99948743               31.06577504                0.01000002               -0.51093694                0.81605488                0.21315232                0.63498110                0.47773809                0.40907522
               8.99305501                8.00842636               31.07102200                0.43309610               -0.32739707                0.48120986                0.22697498                0.29362631                0.26900465                0.33756647
               9.99237721                8.00652094               31.07084684                0.96036928               -0.06778028                0.37975479                0.22488870                0.00838822               -0.00190033                0.27342722
               0.01192593                8.98072137               31.04573134                1.00000000               -0.04446445               -0.04381462                0.14723738                0.00072273               -0.00058530                0.01953344
               1.01148129                8.97742018               31.04549338                0.99999998               -0.04472141               -0.04497948                0.14929568                0.00003432               -0.00060342               -0.00237121
               2.01103150                8.97413123               31.04525521                0.10772764               -0.04507771               -0.04546410                0.15135385                0.00098880               -0.00976237               -0.01731004
               3.01057973                8.97087567               31.04483444                0.01406884               -0.08559271               -0.09689990                0.15284676                0.18796588                0.14508209               -0.10461589
               4.00931965                8.97122350               31.04769248                0.01000000               -0.23314980               -0.02659436                0.15854081                0.35408625                0.44243607               -0.13047672
               5.00591674                8.97558801               31.05313792                0.01000000               -0.32576427                0.06200427                0.17707273                0.36326042                0.56522626               -0.01878027
               6.00280436                8.98286377               31.05849332                0.01073474               -0.28332068                0.10434462                0.19388072                0.42391960                0.54941062                0.05044715
               7.00025032                8.99317233               31.06362780                0.01000002               -0.35764909                0.17074098                0.21022983                0.83199292                0.64682265                0.08254604
               7.99565138                9.00964670               31.07085556                0.44690258               -0.26449893                0.47307521                0.23146198                0.66006616                0.36918307                0.28484299
               8.99496035                9.00774180               31.07057185                0.99999998               -0.06877235               -0.06880759                0.22929581                0.00003224               -0.00469128                0.00542935
               9.99427594                9.00584314               31.07032049                0.99084103               -0.06844098               -0.06811815                0.22716617               -0.00035892               -0.00301953               -0.00493205
               0.01523958                9.98027455               31.04705951                0.99552238               -0.04584986               -0.04468126                0.15161170                0.00043422                0.01591941                0.01566211
               1.01478108                9.97696525               31.04682608                1.00000000               -0.04614838               -0.04549294                0.15367981               -0.00025757                0.01592324                0.00006619
               2.01431661                9.97366982               31.04659311                0.71185160               -0.04765825               -0.04614095                0.15574660                0.00093565                0.02029307               -0.01545440
               3.01382792                9.97041375               31.04644770                0.21668104               -0.24800664               -0.04619216                0.15773318                0.23673685                0.14018981               -0.00379585
               4.00935648                9.97190819               31.04861561                0.24976038               -0.58878114                0.06846872                0.16193737                0.33037678                0.41912749               -0.07077247
               5.00205229                9.97694762               31.05424284                0.29612855               -0.65630125                0.13596128                0.18142361                0.20751190                0.55698060               -0.02137935
               5.99623045                9.98378731               31.05968146                0.36371274               -0.44608067                0.09235399                0.19912871                0.21039874                0.49466217                0.02697789
               6.99313068                9.99430342               31.06435355                0.48576656                0.06632730                0.11310863                0.21617451                0.54611637                0.51610304                0.04206199
               7.99755700               10.00894893               31.07028188                0.97631733                0.18642653               -0.06977706                0.23369160                0.82790123                0.31493224                0.00214924
               8.99685921               10.00705021               31.07007559                0.99084117               -0.06948286               -0.06915947                0.23157568                0.00036879                0.00590446                0.00311155
               9.99616734               10.00515858               31.06982498                1.00000000               -0.06918673               -0.06845679                0.22944500               -0.00002236                0.00357777               -0.00343359
              -0.01382634               -0.01767997               32.03480366                0.90992847               -0.03210911               -0.03217622                0.10693043                0.00138831               -0.00605105                0.00650596
               0.98585257               -0.01976127               32.03580630                0.63837004               -0.03127014               -0.03437656                0.11082434                0.00168795               -0.00668948               -0.00448605
               1.98554826               -0.02179068               32.03679463                0.39599957               -0.02607327               -0.03501069                0.11473907                0.00563426                0.00208374               -0.00204031
               2.98533110               -0.02363613               32.03796796                0.36047709               -0.02044334               -0.03640202                0.11896604                0.00287079                0.01674810               -0.00101764
               3.98513939               -0.02516381               32.03923031                0.42752750               -0.02341424               -0.03760301                0.12330857               -0.00270482                0.01747680               -0.00011475
               4.98486282               -0.02640636               32.04039017                0.55349794               -0.03103485               -0.03882749                0.12745530               -0.00201349                0.00883377                0.00013746
               5.98451869               -0.02749074               32.04146123                0.75565108               -0.03635595               -0.04003040                0.13142901               -0.00072080                0.00246711                0.00030507
               6.98413570               -0.02850078               32.04248526                0.99986369               -0.03937040               -0.04117285                0.13522029                0.00013373               -0.00088551                0.00033976
               7.98373129               -0.02947464               32.04348728                0.99999998               -0.04118213               -0.04237254                0.13900758                0.00055555               -0.00248904                0.00090031
               8.98331206               -0.03042682               32.04447818                1.00000000               -0.04265931               -0.04352694                0.14307083                0.00065219               -0.00257413                0.00022169
               9.98287810               -0.03136448               32.04547653                0.99542909               -0.04339579               -0.04480253                0.14725439                0.00007114               -0.00223030               -0.00255443
              -0.01173115                0.98199827               32.03611290                0.63920907               -0.03440448               -0.03133126                0.11121026                0.00171486                0.00461493                0.00904629
               0.98792480                0.97989496               32.03711382                0.01446932               -0.03634106               -0.03648474                0.11510112                0.00358435                0.01052170               -0.00887925
               1.98754203                0.97785921               32.03823257                0.01000000               -0.04392139               -0.02455082                0.11910796                0.02967791                0.02423799               -0.00291408
               2.98704638                0.97599985               32.03951124                0.01000001               -0.05222868                0.00363845                0.12339151                0.07361885                0.03459833                0.00941116
               3.98649745                0.97446016               32.04085523                0.01000000               -0.05201148                0.01902950                0.12772802                0.09644897                0.02995333                0.01105100
               4.98600615                0.97320537               32.04206723                0.01000000               -0.04693784                0.02524291                0.13180861                0.09467228                0.01731739                0.01524591
               5.98555870                0.97210896               32.04317583                0.01000001               -0.04385794                0.03956349                0.13567163                0.05669924                0.00894250                0.01827288
               6.98512899                0.97108749               32.04422954                0.28089733               -0.04294189               -0.04188347                0.13933277               -0.00161687                0.00503528                0.00359918
               7.98469986                0.97010163               32.04526467                0.86391530               -0.04327462               -0.04289383                0.14296471               -0.00034384                0.00282535                0.00243775
               8.98426350                0.96913791               32.04627500                0.99999999               -0.04416962               -0.04405936                0.14694038                0.00003950                0.00091950                0.00029012
               9.98381647                0.96818750               32.04727134                1.00000000               -0.04470287               -0.04536826                0.15107643               -0.00056091                0.00018594               -0.00264626
              -0.00958542                1.98169341               32.03747127                0.39724265               -0.03512636               -0.02540394                0.11556800                0.00593206                0.00179791                0.01190908
               0.99006331                1.97950903               32.03833322                0.01000000               -0.01888250               -0.04524621                0.11934841                0.02456953                0.02469998               -0.01320881
               1.99003693                1.97771830               32.03965251                0.01000001                0.00696107               -0.01509547                0.12412392                0.12035142                0.06489603                0.00697418
               2.99020253                1.97643664               32.04126302                0.01000000               -0.00870387                0.01787699                0.12871125                0.19003685                0.07314312                0.01913853
               3.98986285                1.97521678               32.04270348                0.01000000               -0.05475347                0.06724340                0.13321305                0.23883294                0.05908125                0.03318289
               4.98910747                1.97409850               32.04404656                0.01000001               -0.10461464                0.09198995                0.13733278                0.25803414                0.04416175                0.03468790
               5.98777056                1.97330053               32.04524992                0.01141338               -0.14983892                0.13007693                0.14082079                0.13870156                0.01035194                0.04950838
               6.98611069                1.97066155               32.04603974                0.01620226               -0.10482845                0.05516765                0.14307896                0.04664182               -0.00573420                0.03410791
               7.98567399                1.96966748               32.04707181                0.01000000               -0.04418527                0.04220408                0.14682910                0.05939342                0.00489352                0.03212838
               8.98522698                1.96869199               32.04807299                0.09660857               -0.04531404               -0.04386440                0.15084295                0.00116106                0.00297563                0.00276251
               9.98476771                1.96772816               32.04906655                0.70474914               -0.04592745               -0.04647803                0.15491668                0.00001635                0.00258063               -0.00265867
              -0.00724376                2.98149019               32.03883286                0.36186302               -0.03649438               -0.01800574                0.12015856                0.00289417                0.00009029                0.01367540
               0.99239130                2.97899004               32.03955706                0.01000001                0.01326034               -0.05574549                0.12380415                0.05491796                0.04789046               -0.01373043
               1.99302145                2.97755730               32.04123708                0.01000000                0.04786697               -0.04158370                0.12892624                0.16098909                0.09936824                0.00477357
               2.99334864                2.97635739               32.04287515                0.01000000                0.02953997               -0.01824419                0.13392440                0.23764105                0.10543928                0.01402426
               3.99361225                2.97580503               32.04460104                0.01197025               -0.01327807                0.01620391                0.13905140                0.28282481                0.09320697                0.02214856
               4.99308308                2.97504517               32.04593335                0.01000000               -0.09212838                0.07212444                0.14323934                0.32523932                0.07811834                0.04110161
               5.99176968                2.97471050               32.04738838                0.01000001               -0.16941014                0.14736776                0.14671071                0.28929882                0.05526790                0.08071229
               6.98969487                2.97219084               32.04839435                0.01000001               -0.19561985                0.28571476                0.14907280                0.26542901                0.02408069                0.12065808
               7.98785728                2.97094572               32.04944228                0.01259363               -0.17344169                0.24253153                0.15271525                0.16255707               -0.01074350                0.10575201
               8.98622604                2.96826062               32.04991939                0.01401712               -0.10564098                0.13686363                0.15440956                0.04729604               -0.02295489                0.07508230
               9.98574446                2.96725794               32.05086208                0.21630282               -0.04815759                0.09394132                0.15872849                0.00191609                0.00035334                0.06036982
              -0.00452723                3.98133329               32.04021028                0.42991260               -0.03782107               -0.02030400                0.12487724               -0.00405336               -0.00167362                0.01559272
               0.99509456                3.97839412               32.04077962                0.01000000                0.02082925               -0.05627570                0.12832882                0.06616961                0.05954659               -0.01452122
               1.99588936                3.97688663               32.04257314                0.01000000                0.08065361               -0.08173802                0.13362682                0.16909957                0.13206826               -0.02141761
               2.99670763                3.97607176               32.04445334                0.01197124                0.04711050               -0.05816876                0.13924976                0.23866209                0.13033394               -0.00515457
               3.99683157                3.97554086               32.04607017                0.01000000               -0.00004252               -0.04451293                0.14414587                0.29436924                0.12785289               -0.00235402
               4.99670678                3.97554099               32.04784481                0.01000001               -0.02103543                0.04466077                0.14920557                0.41270271                0.14854447                0.05755324
               5.99641086                3.97624789               32.04984984                0.01000001               -0.07613667                0.16225803                0.15445241                0.48597607                0.15251553                0.12306451
               6.99518405                3.97637585               32.05170213                0.01174436               -0.17777541                0.33209823                0.15907360                0.40603954                0.08897765                0.16038520
               7.99285535                3.97451811               32.05254669                0.01000000               -0.26616849                0.40236862                0.16099749                0.22400587                0.01463592                0.18286966
               8.98986068                3.97142927               32.05316124                0.01000000               -0.30219748                0.57767672                0.16185385                0.12625337               -0.00452164                0.23009475
               9.98681140                3.96960699               32.05391865                0.24980181               -0.30492791                0.57172016                0.16440028               -0.03649743               -0.00597786                0.21478480
              -0.00144648                4.98108411               32.04159029                0.55818535               -0.03921639               -0.02904643                0.12945116               -0.00324736               -0.00210332                0.01647496
               0.99816135                4.97786452               32.04200406                0.01000000                0.00861447               -0.05001593                0.13266387                0.05926585                0.05944491               -0.01502967
               1.99872581                4.97592254               32.04364846                0.01000001                0.06531492               -0.10597110                0.13784576                0.16250245                0.14427516               -0.05604190
               2.99946765                4.97519401               32.04563343                0.01000000                0.06522946               -0.12499336                0.14362401                0.23735925                0.15927174               -0.07244112
               4.00003040                4.97491477               32.04742819                0.01000001                0.05812244               -0.07632002                0.14925448                0.36154527                0.19094988               -0.01398528
               5.00063010                4.97593838               32.04991956                0.01000001                0.03119759                0.02407973                0.15622808                0.51632086                0.24048672                0.06615632
               6.00065435                4.97795566               32.05256767                0.01175182               -0.05423310                0.11864004                0.16325974                0.50792532                0.20605499                0.10460901
               6.99954544                4.97883281               32.05429444                0.01000000               -0.16851842                0.26010555                0.16788333                0.41217915                0.15615241                0.15373705
               7.99728398                4.97899309               32.05601083                0.01000001               -0.29416021                0.56502676                0.17217825                0.39248903                0.15121369                0.26668634
               8.99366224                4.97981416               32.05782390                0.01000000               -0.43124508                0.85894433                0.17670680                0.25512971                0.09706887                0.34546677
               9.98865908                4.97869234               32.05877375                0.29668908               -0.50031567                0.97433876                0.17995883                0.07585129                0.03096884                0.34349076
               0.00184700                5.98075236               32.04297371                0.76520218               -0.04055567               -0.03573186                0.13390443               -0.00144390               -0.00247104                0.01680399
               1.00144145                5.97739380               32.04322529                0.01000001               -0.00185443               -0.04570305                0.13684203                0.03382843                0.04081246               -0.01535438
               2.00180991                5.97476721               32.04434221                0.01141681                0.05105736               -0.12102605                0.14124060                0.09217088                0.11211480               -0.11978942
               3.00246259                5.97357189               32.04590060                0.01000001                0.07540938               -0.16948463                0.14655058                0.22473819                0.20206431               -0.14688766
               4.00331810                5.97401446               32.04865971                0.01000001                0.07648589               -0.11013843                0.15434059                0.39998876                0.29416453               -0.03383912
               5.00399231                5.97602259               32.05186630                0.01175306                0.01784190               -0.03617651                0.16323081                0.48838295                0.29155865                0.01070682
               6.00367494                5.97862069               32.05437736                0.01000000               -0.08010545                0.07367623                0.17034318                0.51113161                0.27141993                0.07173373
               7.00239020                5.98157796               32.05711033                0.01000001               -0.19755795                0.34937574                0.17772445                0.57241061                0.30089788                0.21753843
               7.99972378                5.98581865               32.06023296                0.01000000               -0.35630913                0.69900097                0.18558043                0.52313798                0.26726985                0.35786888
               8.99526402                5.98860815               32.06244945                0.01064436               -0.45758605                0.90967685                0.19111789                0.28921432                0.14423597                0.38704632
               9.99057206                5.98909376               32.06348384                0.36457247               -0.46919596                0.96728626                0.19418656                0.11827793                0.06346310                0.37597080
               0.00524176                6.98036947               32.04435496                0.99999999               -0.04186834               -0.03968477                0.13829210               -0.00011488               -0.00229049                0.01764738
               1.00482308                6.97695046               32.04444680                0.29816967               -0.04253111               -0.04412977                0.14094724               -0.00293336               -0.01784337               -0.01581164
               2.00439114                6.97350202               32.04422740                0.01620791               -0.00539561               -0.08516892                0.14305268                0.04280727                0.05201411               -0.09969837
               3.00471517                6.97180432               32.04571670                0.01000001                0.05941664               -0.14176327                0.14819068                0.19946547                0.26589682               -0.11645389
               4.00557947                6.97271200               32.04964907                0.01174787                0.05381811               -0.15753748                0.15866728                0.36190349                0.36047680               -0.10577780
               5.00579153                6.97521485               32.05274898                0.01000000               -0.01289315               -0.08360929                0.16756574                0.46981685                0.34996930               -0.04590202
               6.00532161                6.97942918               32.05629304                0.01000001               -0.09979189                0.10394333                0.17783687                0.63026013                0.41702144                0.10507510
               7.00379569                6.98582032               32.06060883                0.01000000               -0.23025337                0.44136800                0.18944333                0.74042042                0.44840764                0.27235857
               8.00071654                6.99297311               32.06471470                0.01082321               -0.38121413                0.68387628                0.19960153                0.58345879                0.33905962                0.34709164
               8.99617141                6.99800770               32.06693801                0.01000002               -0.53315601                1.01665137                0.20602424                0.15102368                0.16255371                0.52950890
               9.99005342                6.99803807               32.06786557                0.48546348               -0.61179863                0.89381305                0.20865804                0.10162300                0.06834865                0.45713892
               0.00868273                7.97995867               32.04575314                0.99125311               -0.04325004               -0.04200640                0.14271745                0.00054841               -0.00451158                0.02115750
               1.00825023                7.97651121               32.04566008                0.89469961               -0.04352658               -0.04420353                0.14503241               -0.00074971               -0.01158261               -0.01058509
               2.00781220                7.97306383               32.04542562                0.01000000               -0.05041528               -0.04431396                0.14707596                0.05436209                0.05962783               -0.02679511
               3.00724192                7.97073662               32.04675696                0.01259998               -0.03332804               -0.13021233                0.15177731                0.19431517                0.21306044               -0.13162272
               4.00714564                7.97086371               32.04954654                0.01000000               -0.02852298               -0.15772515                0.15943833                0.38103190                0.35764536               -0.17888415
               5.00667147                7.97435040               32.05360993                0.01000001               -0.07354832               -0.05077468                0.17167241                0.51053464                0.47877846               -0.03008007
               6.00567467                7.98069955               32.05864405                0.01000000               -0.15083903                0.12337080                0.18640705                0.68937882                0.55462813                0.10492087
               7.00365468                7.99040532               32.06402836                0.01084682               -0.32345440                0.34967792                0.20097802                0.77717673                0.50124861                0.20627544
               7.99920558                7.99949617               32.06790286                0.01000002               -0.52175762                0.86287731                0.21241064                0.68505231                0.49153104                0.42222072
               8.99321953                8.00894118               32.07328821                0.43310752               -0.33309037                0.51251651                0.22625223                0.32469844                0.27692980                0.34638590
               9.99254378                8.00697002               32.07309268                0.96043145               -0.06757557                0.41276148                0.22426654                0.02559667               -0.00190564                0.27980770
               0.01214765                8.97952935               32.04720376                1.00000000               -0.04447287               -0.04380904                0.14724714                0.00072930               -0.00060377                0.01986752
               1.01170292                8.97606639               32.04698658                0.99999998               -0.04473427               -0.04499724                0.14934284                0.00003545               -0.00062197               -0.00242907
               2.01125297                8.97261574               32.04676920                0.10798588               -0.04506661               -0.04549072                0.15143851                0.00106314               -0.01006001               -0.01762645
               3.01080159                8.96920007               32.04636359                0.01421726               -0.08333175               -0.09994143                0.15297281                0.19547141                0.14635671               -0.10660947
               4.00958633                8.96955750               32.04927365                0.01000000               -0.23176087               -0.03087882                0.15770495                0.37507108                0.45310787               -0.13522547
               5.00616638                8.97419936               32.05490538                0.01000000               -0.32660311                0.06265830                0.17645922                0.38765334                0.58249632               -0.01910530
               6.00305427                8.98189660               32.06042984                0.01072135               -0.28118840                0.10741703                0.19347392                0.45298100                0.56610455                0.05271216
               7.00054261                8.99281388               32.06572750                0.01000002               -0.35862728                0.17871845                0.20973708                0.88371870                0.66659566                0.08675561
               7.99588173                9.01023065               32.07316868                0.44647918               -0.26755385                0.50184434                0.23115258                0.70473158                0.38085200                0.29288187
               8.99519153                9.00825803               32.07286379                0.99999998               -0.06870254               -0.06874334                0.22908520                0.00002896               -0.00472906                0.00547149
               9.99450767                9.00629330               32.07259161                0.99103301               -0.06838557               -0.06808680                0.22705477               -0.00043792               -0.00303605               -0.00494931
               0.01562323                9.97908249               32.04857582                0.99543232               -0.04586855               -0.04468588                0.15165336                0.00043498                0.01619863                0.01593479
               1.01516454                9.97561126               32.04836329                1.00000000               -0.04617250               -0.04551281                0.15375906               -0.00026184                0.01620201                0.00006212
               2.01469978                9.97215402               32.04815119                0.71212017               -0.04774716               -0.04617283                0.15586356                0.00100755                0.02053713               -0.01573664
               3.01420960                9.96873779               32.04802592                0.21687326               -0.25260020               -0.04622814                0.15790158                0.24540650                0.14124724               -0.00385673
               4.00964777                9.97024613               32.05023102                0.24994265               -0.60620844                0.06886342                0.16116834                0.34943277                0.43023385               -0.07361219
               5.00208543                9.97560357               32.05605400                0.29619035               -0.67640019                0.14042061                0.18085348                0.22199378                0.57489973               -0.02209030
               5.99611977                9.98284790               32.06167137                0.36371957               -0.45452135                0.09512973                0.19890991                0.22535591                0.51163138                0.02809649
               6.99299500                9.99397969               32.06651273                0.48577939                0.08681507                0.11658036                0.21568301                0.57949794                0.53418972                0.04418436
               7.99785607               10.00953306               32.07261979                0.97592991                0.20812321               -0.06975922                0.23388984                0.87676607                0.32493968                0.00216612
               8.99715747               10.00756631               32.07239283                0.99103270               -0.06957974               -0.06917118                0.23187441                0.00035504                0.00593300                0.00313400
               9.99646448               10.00560829               32.07212139                1.00000000               -0.06929911               -0.06850108                0.22984300               -0.00012259                0.00359544               -0.00345177
              -0.01490916               -0.01894530               33.03587200                0.90945413               -0.03203100               -0.03209143                0.10673587                0.00140551               -0.00608720                0.00655217
               0.98477053               -0.02113520               33.03691387                0.63768732               -0.03111019               -0.03436306                0.11068732                0.00175540               -0.00671333               -0.00451575
               1.98446864               -0.02327096               33.03794163                0.39572745               -0.02546184               -0.03498451                0.11466130                0.00594922                0.00222867               -0.00205522
               2.98426130               -0.02521181               33.03915742                0.36041654               -0.01923539               -0.03640131                0.11892390                0.00298476                0.01713767               -0.00103255
               3.98408393               -0.02681214               33.04046334                0.42749006               -0.02222198               -0.03760573                0.12329318               -0.00303691                0.01789381               -0.00013872
               4.98381686               -0.02810399               33.04166492                0.55345456               -0.03033696               -0.03884020                0.12750128               -0.00230168                0.00914590                0.00011269
               5.98347719               -0.02922384               33.04277626                0.75569206               -0.03611108               -0.04002580                0.13155797               -0.00087425                0.00264353                0.00027607
               6.98309464               -0.03026239               33.04383813                0.99999998               -0.03933584               -0.04123589                0.13551725                0.00006066               -0.00083864                0.00030574
               7.98269048               -0.03126342               33.04487701                0.99999998               -0.04110050               -0.04226334                0.13895402                0.00054407               -0.00237389                0.00093092
               8.98227263               -0.03224095               33.04590897                1.00000000               -0.04260826               -0.04347405                0.14305875                0.00068188               -0.00234059                0.00034353
               9.98183831               -0.03320316               33.04695103                0.99533144               -0.04343150               -0.04495435                0.14784504                0.00013005               -0.00200915               -0.00245613
              -0.01270520                0.98073379               33.03722416                0.63849783               -0.03438837               -0.03116470                0.11104029                0.00178350                0.00464825                0.00913181
               0.98695092                0.97852117               33.03826428                0.01427391               -0.03641839               -0.03655156                0.11498828                0.00378568                0.01061015               -0.00892187
               1.98656644                0.97637920               33.03942331                0.01000000               -0.04445924               -0.02320206                0.11903610                0.03188552                0.02450965               -0.00257461
               2.98606173                0.97442418               33.04074486                0.01000001               -0.05333893                0.00682804                0.12332465                0.07809899                0.03501174                0.00984405
               3.98549966                0.97281181               33.04213220                0.01000000               -0.05310205                0.02333693                0.12764790                0.10216937                0.03025831                0.01154514
               4.98499969                0.97150761               33.04338514                0.01000000               -0.04760017                0.02976987                0.13175169                0.10021827                0.01741657                0.01577202
               5.98454765                0.97037590               33.04453282                0.01000001               -0.04423298                0.04463426                0.13567352                0.05990669                0.00885220                0.01863244
               6.98411503                0.96932525               33.04562302                0.28109959               -0.04312292               -0.04192230                0.13945233               -0.00175827                0.00477793                0.00333921
               7.98368519                0.96831395               33.04669362                0.86452799               -0.04328589               -0.04282521                0.14282441               -0.00030631                0.00263916                0.00230921
               8.98324932                0.96732431               33.04774429                0.99999999               -0.04416846               -0.04404159                0.14693338               -0.00005103                0.00093624                0.00033390
               9.98280183                0.96634729               33.04878339                1.00000000               -0.04474904               -0.04546660                0.15140506               -0.00067366                0.00025779               -0.00255006
              -0.01044825                1.98043141               33.03862621                0.39692068               -0.03509134               -0.02486626                0.11541748                0.00622854                0.00180557                0.01215306
               0.98920084                1.97813377               33.03952630                0.01000000               -0.01742078               -0.04566593                0.11926733                0.02662376                0.02522495               -0.01316989
               1.98920334                1.97626500               33.04089407                0.01000001                0.00949139               -0.01276695                0.12415044                0.12816060                0.06601723                0.00772628
               2.98939067                1.97492476               33.04254986                0.01000000               -0.00797217                0.02289441                0.12861317                0.20161564                0.07401853                0.02012434
               3.98904389                1.97365460               33.04403487                0.01000000               -0.05667699                0.07557263                0.13303921                0.25328846                0.05967898                0.03457322
               4.98825713                1.97249141               33.04541880                0.01000001               -0.10931031                0.10148959                0.13710490                0.27340889                0.04414127                0.03616357
               5.98685769                1.97166884               33.04665694                0.01141544               -0.15678502                0.14112941                0.14059601                0.14667535                0.00924285                0.05084522
               6.98512143                1.96889916               33.04746972                0.01620592               -0.10862007                0.06105462                0.14291823                0.04922843               -0.00691090                0.03470714
               7.98468529                1.96788007               33.04853976                0.01000000               -0.04415853                0.04659672                0.14684092                0.06297903                0.00450594                0.03284023
               8.98423826                1.96687822               33.04958152                0.09671791               -0.04532077               -0.04382221                0.15089895                0.00112990                0.00275753                0.00257593
               9.98377887                1.96588751               33.05061632                0.70479290               -0.04593859               -0.04651125                0.15496569                0.00001625                0.00240248               -0.00258878
              -0.00798535                2.98023646               33.04003375                0.36173710               -0.03648518               -0.01708530                0.12001727                0.00301420                0.00007484                0.01412356
               0.99164980                2.97760785               33.04079475                0.01000001                0.01620026               -0.05651138                0.12373420                0.05888587                0.04859910               -0.01358867
               1.99233866                2.97612386               33.04252605                0.01000000                0.05273213               -0.04096237                0.12882950                0.17138621                0.10087954                0.00528082
               2.99270445                2.97488207               33.04421372                0.01000000                0.03300574               -0.01519169                0.13375103                0.25279756                0.10704701                0.01512885
               3.99299877                2.97432326               33.04598998                0.01197046               -0.01254085                0.02147897                0.13872041                0.30054323                0.09443500                0.02355669
               4.99245363                2.97353740               33.04736387                0.01000000               -0.09626834                0.08066037                0.14286262                0.34527038                0.07844596                0.04303689
               5.99107341                2.97319849               33.04885330                0.01000001               -0.17826277                0.16011830                0.14628120                0.30714512                0.05443142                0.08361594
               6.98888837                2.97054634               33.04988324                0.01000001               -0.20538458                0.30566978                0.14868621                0.28171276                0.02299256                0.12457314
               7.98696572                2.96924588               33.05096781                0.01261101               -0.18119450                0.25818475                0.15235022                0.17344745               -0.01240600                0.10872417
               8.98526448                2.96644787               33.05146220                0.01417180               -0.10910689                0.14384305                0.15405013                0.05204598               -0.02436220                0.07657032
               9.98478358                2.96541707               33.05244878                0.21648942               -0.04809048                0.09424429                0.15850637                0.00676225                0.00030484                0.06123628
              -0.00513074                3.98008970               33.04145835                0.42978127               -0.03781002               -0.01950103                0.12473821               -0.00422680               -0.00170995                0.01606977
               0.99449116                3.97700354               33.04206254                0.01000000                0.02437893               -0.05692297                0.12825641                0.07083459                0.06039861               -0.01447918
               1.99535684                3.97544575               33.04390868                0.01000000                0.08780272               -0.08339671                0.13346153                0.18086816                0.13415304               -0.02122892
               2.99624722                3.97462092               33.04584430                0.01197133                0.05212938               -0.05783347                0.13892996                0.25452534                0.13240987               -0.00441838
               3.99639943                3.97408418               33.04750957                0.01000000                0.00200433               -0.04314276                0.14373370                0.31343466                0.12971408               -0.00122451
               4.99628730                3.97410461               33.04933433                0.01000001               -0.02038892                0.05167704                0.14870592                0.43932013                0.15053717                0.06020731
               5.99599165                3.97487121               33.05139110                0.01000001               -0.07895055                0.17615689                0.15381360                0.51751100                0.15416757                0.12771301
               6.99470829                3.97501256               33.05328920                0.01174191               -0.18694713                0.35518132                0.15834611                0.43286254                0.08871434                0.16625275
               7.99225271                3.97304377               33.05415277                0.01000000               -0.28001530                0.42767572                0.16021911                0.23975950                0.01200708                0.18872810
               8.98910799                3.96975508               33.05477518                0.01000000               -0.31384989                0.60785711                0.16094806                0.13508499               -0.00723855                0.23655345
               9.98597571                3.96777239               33.05555827                0.25002273               -0.31322766                0.59515783                0.16352631               -0.03731648               -0.00716616                0.21996839
              -0.00189756                4.97984644               33.04288417                0.55798509               -0.03919980               -0.02861471                0.12932924               -0.00337879               -0.00214435                0.01684722
               0.99771044                4.97646939               33.04333038                0.01000000                0.01180996               -0.05033613                0.13260069                0.06343551                0.06033964               -0.01518112
               1.99833864                4.97445592               33.04502593                0.01000001                0.07230395               -0.10942564                0.13764891                0.17393674                0.14659208               -0.05659496
               2.99915652                4.97372540               33.04706790                0.01000000                0.07225668               -0.12907155                0.14327177                0.25346718                0.16204818               -0.07292984
               3.99978377                4.97346040               33.04891839                0.01000001                0.06482390               -0.07695037                0.14879846                0.38561654                0.19449114               -0.01288830
               5.00045300                4.97457094               33.05147849                0.01000001                0.03659559                0.02959708                0.15558121                0.55071528                0.24487599                0.06944518
               6.00051569                4.97672163               33.05419617                0.01174615               -0.05399681                0.12937794                0.16247068                0.54232560                0.20937865                0.10921812
               6.99937306                4.97764997               33.05596864                0.01000000               -0.17486530                0.27840169                0.16698304                0.44166626                0.15802236                0.15977857
               7.99701838                4.97779939               33.05772782                0.01000001               -0.30677522                0.59934668                0.17123710                0.42108715                0.15293501                0.27545002
               8.99323756                4.97860501               33.05958626                0.01000000               -0.45078771                0.90753176                0.17577489                0.27425527                0.09812810                0.35618544
               9.98800263                4.97732023               33.06056893                0.29683201               -0.52349342                1.02570920                0.17908524                0.08090612                0.03093488                0.35352064
               0.00155579                5.97951741               33.04431228                0.76493875               -0.04053983               -0.03554270                0.13381208               -0.00150535               -0.00251742                0.01709665
               1.00115039                5.97599682               33.04459350                0.01000001                0.00118877               -0.04582689                0.13680019                0.03621553                0.04145298               -0.01562963
               2.00157957                5.97325724               33.04575382                0.01141871                0.05808440               -0.12580893                0.14107964                0.09834320                0.11410063               -0.12167166
               3.00231208                5.97203949               33.04736468                0.01000001                0.08433271               -0.17686497                0.14627029                0.23912306                0.20599049               -0.14895486
               4.00326622                5.97254517               33.05020047                0.01000001                0.08641522               -0.11358586                0.15383087                0.42663181                0.30019589               -0.03326298
               5.00404039                5.97469656               33.05349499                0.01174767                0.02464585               -0.03533347                0.16253236                0.52115922                0.29765048                0.01266286
               6.00375914                5.97745877               33.05607636                0.01000000               -0.07882666                0.08038760                0.16948745                0.54627779                0.27691597                0.07568766
               7.00246385                5.98058059               33.05888273                0.01000001               -0.20198648                0.37101982                0.17679837                0.61325732                0.30689811                0.22520644
               7.99971941                5.98503070               33.06208393                0.01000000               -0.36957957                0.73990679                0.18464100                0.56241376                0.27239406                0.36867018
               8.99507226                5.98790572               33.06435618                0.01063864               -0.47780050                0.96320071                0.19026516                0.31199232                0.14676599                0.39849351
               9.99016340                5.98828658               33.06542136                0.36468708               -0.49088623                1.02308820                0.19337196                0.12841388                0.06474400                0.38601971
               0.00511352                6.97913559               33.04573758                0.99999999               -0.04185925               -0.03961046                0.13823475               -0.00013163               -0.00233363                0.01793004
               1.00469492                6.97555285               33.04585621                0.29797625               -0.04253415               -0.04417269                0.14093304               -0.00300589               -0.01816609               -0.01613726
               2.00426283                6.97193974               33.04565801                0.01621134               -0.00219364               -0.08779216                0.14306541                0.04518413                0.05287827               -0.10146546
               3.00465105                6.97018810               33.04719783                0.01000001                0.06982566               -0.14835428                0.14803812                0.21190099                0.27108731               -0.11853077
               4.00565935                6.97118869               33.05123312                0.01174553                0.06557698               -0.16536794                0.15815817                0.38484919                0.36821114               -0.10767673
               5.00596259                6.97386427               33.05442098                0.01000000               -0.00510681               -0.08735129                0.16685949                0.50028654                0.35806816               -0.04564265
               6.00555721                6.97832938               33.05806729                0.01000001               -0.09481559                0.11016361                0.17704606                0.67287333                0.42690446                0.10969403
               7.00406628                6.98507036               33.06249909                0.01000000               -0.23078402                0.46574220                0.18865150                0.79221010                0.45870798                0.28117387
               8.00094153                6.99259753               33.06670731                0.01081124               -0.39223716                0.72235767                0.19894596                0.62875852                0.34702440                0.35815846
               8.99622153                6.99786902               33.06899326                0.01000002               -0.55661722                1.07612945                0.20505417                0.17579963                0.16689282                0.54406831
               9.98980918                6.99778199               33.06994622                0.48563178               -0.64123500                0.95522418                0.20749539                0.11963532                0.07084812                0.46744351
               0.00871863                7.97872520               33.04718019                0.99123641               -0.04325110               -0.04197783                0.14269507                0.00055149               -0.00460392                0.02151182
               1.00828612                7.97511336               33.04711048                0.89478146               -0.04353148               -0.04422304                0.14504580               -0.00076619               -0.01181234               -0.01080910
               2.00784800                7.97150140               33.04689662                0.01000000               -0.04924801               -0.04433086                0.14712058                0.05747512                0.06052955               -0.02732161
               3.00730116                7.96907240               33.04827391                0.01261747               -0.02804827               -0.13567916                0.15161643                0.20438938                0.21689109               -0.13409865
               4.00728703                7.96923781               33.05113826                0.01000000               -0.01978681               -0.16770838                0.15892065                0.40288957                0.36570017               -0.18441855
               5.00690542                7.97294953               33.05532325                0.01000001               -0.06382609               -0.05512177                0.17102010                0.54360559                0.49114887               -0.02998655
               6.00601051                7.97966204               33.06050483                0.01000000               -0.14327593                0.12806602                0.18579063                0.73465149                0.56902385                0.10916123
               7.00403990                7.98989543               33.06603594                0.01083332               -0.32572978                0.36763586                0.20058363                0.82964657                0.51459653                0.21379288
               7.99949592                7.99947786               33.07002326                0.01000002               -0.53180553                0.90949408                0.21169667                0.73617413                0.50504282                0.43525336
               8.99340379                8.00942830               33.07554704                0.43312003               -0.33828736                0.54387989                0.22549727                0.35672550                0.28480390                0.35507840
               9.99273017                8.00739106               33.07533217                0.96048807               -0.06736229                0.44667275                0.22362049                0.04379472               -0.00191126                0.28620540
               0.01234821                8.97829603               33.04867629                1.00000000               -0.04448134               -0.04380407                0.14726092                0.00073581               -0.00062226                0.02021092
               1.01190340                8.97466839               33.04848023                0.99999998               -0.04474604               -0.04501447                0.14938681                0.00003656               -0.00064059               -0.00248663
               2.01145329                8.97105313               33.04828398                0.10821192               -0.04504911               -0.04551423                0.15151273                0.00114220               -0.01035641               -0.01794927
               3.01100242                8.96747452               33.04789389                0.01438147               -0.08066409               -0.10302316                0.15307889                0.20266331                0.14714580               -0.10848444
               4.00984001                8.96783452               33.05084658                0.01000000               -0.22959723               -0.03582995                0.15690396                0.39666804                0.46333827               -0.14014679
               5.00641047                8.97276184               33.05666710                0.01000000               -0.32678378                0.06295264                0.17591853                0.41303485                0.59989476               -0.01938041
               6.00330434                8.98089070               33.06236280                0.01071366               -0.27835400                0.11020768                0.19316109                0.48275414                0.58273439                0.05519092
               7.00084339                8.99242308               33.06782254                0.01000002               -0.35860982                0.18606092                0.20930387                0.93614283                0.68623452                0.09077310
               7.99613214                9.01078741               33.07547861                0.44606814               -0.27002762                0.53060913                0.23082098                0.75016603                0.39254147                0.30087429
               8.99544284                9.00874662               33.07515355                0.99999998               -0.06862847               -0.06867500                0.22886128                0.00002563               -0.00476782                0.00551621
               9.99475957                9.00671544               33.07486159                0.99122020               -0.06832717               -0.06805413                0.22693843               -0.00051981               -0.00305313               -0.00496590
               0.01598863                9.97784912               33.05009257                0.99533511               -0.04588711               -0.04469144                0.15169834                0.00043687                0.01648451                0.01621421
               1.01552975                9.97421307               33.04990126                1.00000000               -0.04619539               -0.04553172                0.15383426               -0.00026491                0.01648742                0.00005849
               2.01506472                9.97059111               33.04971038                0.71235353               -0.04783607               -0.04620151                0.15596910                0.00108579                0.02079425               -0.01602466
               3.01457303                9.96701194               33.04960573                0.21707921               -0.25658197               -0.04625762                0.15805033                0.25356665                0.14184867               -0.00391871
               4.00993308                9.96852122               33.05183898                0.25013900               -0.62315478                0.06866976                0.16045838                0.36913873                0.44089955               -0.07642164
               5.00210994                9.97420858               33.05785991                0.29626073               -0.69643631                0.14467476                0.18036787                0.23719531                0.59300696               -0.02278343
               5.99600435                9.98186620               33.06365966                0.36373018               -0.46219443                0.09754954                0.19880305                0.24040504                0.52855753                0.02937928
               6.99286605                9.99361665               33.06866721                0.48580137                0.10856721                0.11935723                0.21523279                0.61345765                0.55243098                0.04608012
               7.99817570               10.01009004               33.07495968                0.97554783                0.23051116               -0.06973724                0.23408459                0.92626337                0.33523020                0.00218352
               8.99747627               10.00805480               33.07471308                0.99122059               -0.06967856               -0.06918157                0.23217859                0.00033992                0.00596282                0.00315724
               9.99678213               10.00602998               33.07442184                1.00000000               -0.06941469               -0.06854683                0.23025484               -0.00022731                0.00361376               -0.00347035
              -0.01603181               -0.02025325               34.03693838                0.90896533               -0.03195138               -0.03200496                0.10653909                0.00142260               -0.00611691                0.00659154
               0.98364867               -0.02255242               34.03802005                0.63698414               -0.03094527               -0.03434962                0.11054828                0.00182456               -0.00672965               -0.00454103
               1.98334928               -0.02479514               34.03908785                0.39544701               -0.02482634               -0.03495826                0.11458137                0.00627278                0.00237170               -0.00206911
               2.98315215               -0.02683168               34.04034644                0.36035883               -0.01797588               -0.03640389                0.11887890                0.00309873                0.01750818               -0.00105033
               3.98298976               -0.02850431               34.04169618                0.42746404               -0.02096637               -0.03761620                0.12327539               -0.00338482                0.01829801               -0.00016476
               4.98273282               -0.02984454               34.04294020                0.55342888               -0.02957050               -0.03885304                0.12754193               -0.00259626                0.00944295                0.00008076
               5.98239835               -0.03099833               34.04409239                0.75576073               -0.03573206               -0.04007472                0.13170261               -0.00104563                0.00292576                0.00026708
               6.98201818               -0.03206445               34.04519560                0.99999998               -0.03926952               -0.04128583                0.13580172                0.00001157               -0.00090929                0.00021914
               7.98161296               -0.03308923               34.04626636                0.99056569               -0.04134750               -0.04257017                0.13995195                0.00053535               -0.00253074                0.00113429
               8.98119123               -0.03409058               34.04733936                1.00000000               -0.04295777               -0.04373825                0.14416963                0.00066687               -0.00176001                0.00080599
               9.98075381               -0.03507833               34.04843343                0.99522728               -0.04374194               -0.04504699                0.14830220                0.00018558               -0.00101119               -0.00248131
              -0.01371842                0.97942670               34.03833371                0.63776758               -0.03437179               -0.03099322                0.11086686                0.00185389                0.00467561                0.00920805
               0.98593786                0.97710409               34.03941359                0.01406876               -0.03649714               -0.03662107                0.11487210                0.00399248                0.01068306               -0.00895618
               1.98555164                0.97485528               34.04061330                0.01000000               -0.04500731               -0.02173868                0.11895892                0.03423150                0.02473233               -0.00220292
               2.98503772                0.97280428               34.04197773                0.01000001               -0.05446460                0.01009711                0.12324518                0.08271064                0.03532846                0.01026039
               3.98446235                0.97111953               34.04340819                0.01000000               -0.05419256                0.02773859                0.12754387                0.10801873                0.03045763                0.01202800
               4.98395387                0.96976693               34.04470227                0.01000000               -0.04822456                0.03437929                0.13165480                0.10583991                0.01742042                0.01628362
               5.98349786                0.96860093               34.04588930                0.01000001               -0.04450596                0.04976375                0.13562405                0.06309481                0.00877588                0.01899810
               6.98306375                0.96752269               34.04701859                0.28129135               -0.04332384               -0.04200342                0.13952244               -0.00221966                0.00439816                0.00299453
               7.98263138                0.96648506               34.04812116                0.86506951               -0.04356517               -0.04303386                0.14343414               -0.00056554                0.00230582                0.00245679
               8.98219244                0.96547204               34.04921366                0.99999999               -0.04439820               -0.04419123                0.14749682                0.00002403                0.00115662                0.00068752
               9.98174341                0.96447120               34.05029944                1.00000000               -0.04490291               -0.04553365                0.15163102               -0.00046638                0.00066538               -0.00255064
              -0.01134950                1.97912689               34.03977962                0.39659224               -0.03505496               -0.02430917                0.11526266                0.00653461                0.00181037                0.01238259
               0.98829995                1.97671516               34.04071856                0.01000000               -0.01583911               -0.04610299                0.11918234                0.02881570                0.02574818               -0.01313066
               1.98833371                1.97477009               34.04213552                0.01000001                0.01210804               -0.01034805                0.12412593                0.13617683                0.06704088                0.00845517
               2.98854211                1.97337027               34.04383528                0.01000000               -0.00731105                0.02806231                0.12845898                0.21341541                0.07469243                0.02105158
               3.98818749                1.97205047               34.04536426                0.01000000               -0.05869420                0.08409661                0.13282996                0.26806207                0.06009193                0.03587668
               4.98736822                1.97084305               34.04678866                0.01000001               -0.11414990                0.11117202                0.13686744                0.28906453                0.04398983                0.03756509
               5.98590449                1.96999695               34.04806184                0.01141681               -0.16392879                0.15238656                0.14037279                0.15467543                0.00807414                0.05211185
               6.98408965                1.96709548               34.04889810                0.01620849               -0.11260969                0.06700685                0.14286029                0.05148042               -0.00800587                0.03522841
               7.98365230                1.96605009               34.05000863                0.01000000               -0.04420377                0.05110657                0.14671671                0.06644711                0.00417096                0.03363424
               8.98320557                1.96502560               34.05109097                0.09676784               -0.04530719               -0.04368328                0.15080692                0.00131488                0.00241655                0.00240675
               9.98274616                1.96401100               34.05216587                0.70480454               -0.04594147               -0.04652398                0.15496416                0.00024002                0.00204142               -0.00257347
              -0.00876427                2.97894052               34.04123321                0.36161814               -0.03647482               -0.01613132                0.11987452                0.00313585                0.00005646                0.01455394
               0.99087098                2.97618203               34.04203174                0.01000001                0.01921728               -0.05731231                0.12366194                0.06300308                0.04923693               -0.01346837
               1.99162007                2.97464832               34.04381367                0.01000000                0.05773355               -0.04039600                0.12868294                0.18202253                0.10222630                0.00567372
               2.99202565                2.97336553               34.04555017                0.01000000                0.03653682               -0.01205282                0.13352714                0.26829879                0.10842220                0.01611503
               3.99235081                2.97280146               34.04737545                0.01197020               -0.01184870                0.02687462                0.13837819                0.31865794                0.09542994                0.02485025
               4.99178867                2.97199037               34.04879061                0.01000000               -0.10059363                0.08937324                0.14249658                0.36574837                0.07858331                0.04486648
               5.99033893                2.97164866               34.05031400                0.01000001               -0.18742294                0.17311651                0.14587275                0.32536497                0.05343880                0.08639149
               6.98804022                2.96886282               34.05136808                0.01000001               -0.21543670                0.32600136                0.14824993                0.29827799                0.02179261                0.12838195
               7.98603020                2.96750720               34.05248928                0.01263096               -0.18911916                0.27412912                0.15196084                0.18463801               -0.01418300                0.11148620
               8.98425783                2.96459837               34.05300039                0.01434325               -0.11263936                0.15053423                0.15370422                0.05691810               -0.02576668                0.07785145
               9.98377741                2.96354072               34.05403221                0.21668739               -0.04804188                0.09376004                0.15819169                0.01202224                0.00026619                0.06196617
              -0.00576980                3.97880426               34.04270505                0.42966222               -0.03779876               -0.01866953                0.12460314               -0.00440950               -0.00174812                0.01653538
               0.99385221                3.97556892               34.04334475                0.01000000                0.02802320               -0.05760426                0.12818545                0.07566587                0.06115947               -0.01446359
               1.99479066                3.97396217               34.04524237                0.01000000                0.09513642               -0.08514069                0.13327267                0.19301742                0.13601278               -0.02112206
               2.99575494                3.97312921               34.04723194                0.01197113                0.05725756               -0.05752482                0.13860297                0.27081511                0.13423951               -0.00379856
               3.99593581                3.97258796               34.04894484                0.01000000                0.00405299               -0.04176788                0.14333479                0.33300623                0.13134324               -0.00017334
               4.99583600                3.97263051               34.05081893                0.01000001               -0.01982348                0.05881289                0.14823261                0.46662428                0.15226225                0.06273678
               5.99553934                3.97345928               34.05292611                0.01000001               -0.08196639                0.19030521                0.15320470                0.54989168                0.15553013                0.13222102
               6.99419667                3.97361550               34.05486905                0.01174110               -0.19649152                0.37860137                0.15764262                0.46037093                0.08819974                0.17195388
               7.99160951                3.97153267               34.05575107                0.01000000               -0.29431305                0.45318669                0.15945386                0.25578182                0.00911722                0.19443025
               8.98831041                3.96803628               34.05638020                0.01000000               -0.32538027                0.63792492                0.16002764                0.14396889               -0.01018328                0.24292157
               9.98510191                3.96588620               34.05718918                0.25025980               -0.32085018                0.61794707                0.16264057               -0.03825757               -0.00843222                0.22509708
              -0.00238177                4.97856713               34.04417687                0.55780698               -0.03918391               -0.02816841                0.12921368               -0.00351753               -0.00218656                0.01722081
               0.99722639                4.97502994               34.04465607                0.01000000                0.01509492               -0.05067675                0.13253988                0.06775686                0.06113737               -0.01534891
               1.99792012                4.97294550               34.04640144                0.01000001                0.07948864               -0.11302349                0.13745267                0.18575893                0.14867911               -0.05717938
               2.99881616                4.97221503               34.04849887                0.01000000                0.07947524               -0.13331734                0.14292968                0.27007093                0.16458099               -0.07344404
               3.99950963                4.97196611               34.05040416                0.01000001                0.07168396               -0.07767467                0.14837113                0.41037447                0.19775796               -0.01186913
               5.00024984                4.97316663               34.05303118                0.01000001                0.04210733                0.03514236                0.15497832                0.58610440                0.24894246                0.07261575
               6.00035178                4.97545476               34.05581709                0.01174280               -0.05377989                0.14020245                0.16173241                0.57772005                0.21239413                0.11371214
               6.99917424                4.97643485               34.05763410                0.01000000               -0.18133585                0.29680644                0.16613460                0.47200476                0.15961903                0.16574552
               7.99672506                4.97657093               34.05943557                0.01000001               -0.31952795                0.63399468                0.17033903                0.45053625                0.15445501                0.28418043
               8.99278368                4.97735687               34.06133940                0.01000000               -0.47063156                0.95673714                0.17487119                0.29401154                0.09906853                0.36700089
               9.98731243                4.97589966               34.06235545                0.29698695               -0.54712546                1.07753349                0.17823193                0.08601261                0.03083236                0.36366885
               0.00123422                5.97824089               34.04564995                0.76470799               -0.04052485               -0.03534800                0.13372607               -0.00157083               -0.00256490                0.01739863
               1.00082897                5.97455538               34.04596129                0.01000001                0.00432639               -0.04596014                0.13675958                0.03868721                0.04200829               -0.01591206
               2.00132075                5.97170170               34.04716380                0.01142001                0.06533920               -0.13077989                0.14092319                0.10472207                0.11589531               -0.12348802
               3.00213575                5.97046286               34.04882600                0.01000001                0.09354804               -0.18452790                0.14600459                0.25392036                0.20965681               -0.15097127
               4.00319171                5.97103446               34.05173632                0.01000001                0.09668379               -0.11727198                0.15335864                0.45407081                0.30590298               -0.03276104
               5.00406943                5.97333336               34.05511695                0.01174394                0.03169071               -0.03464417                0.16188738                0.55488766                0.30341929                0.01454993
               6.00382552                5.97626333               34.05776711                0.01000000               -0.07744164                0.08699161                0.16869723                0.58240415                0.28212640                0.07960420
               7.00252060                5.97955163               34.06064629                0.01000001               -0.20636525                0.39278682                0.17594576                0.65524140                0.31266558                0.23289945
               7.99969822                5.98421256               34.06392578                0.01000000               -0.38293455                0.78130074                0.18376163                0.60285980                0.27736075                0.37954855
               8.99486190                5.98717102               34.06625476                0.01063899               -0.49808197                1.01706636                0.18947241                0.33554865                0.14922011                0.40988767
               9.98973658                5.98743687               34.06735128                0.36481059               -0.51253291                1.07882325                0.19263075                0.13918616                0.06603889                0.39589001
               0.00495783                6.97786017               34.04711965                0.99999999               -0.04185084               -0.03953476                0.13818289               -0.00014995               -0.00237769                0.01822429
               1.00453933                6.97411074               34.04726546                0.29781102               -0.04253752               -0.04421905                0.14091847               -0.00308412               -0.01849790               -0.01646659
               2.00410708                6.97032991               34.04708871                0.01621373                0.00112375               -0.09051376                0.14307188                0.04761753                0.05363410               -0.10316908
               3.00456180                6.96852448               34.04867746                0.01000001                0.08067327               -0.15521394                0.14789680                0.22465565                0.27597078               -0.12059648
               4.00572055                6.96962067               34.05281224                0.01174486                0.07784642               -0.17362924                0.15768289                0.40839327                0.37556665               -0.10963438
               5.00611873                6.97247375               34.05608617                0.01000000                0.00305180               -0.09144073                0.16621226                0.53161900                0.36588874               -0.04540038
               6.00578159                6.97719459               34.05983396                0.01000001               -0.08944485                0.11619675                0.17632977                0.71668870                0.43659136                0.11438575
               7.00432983                6.98429059               34.06438186                0.01000000               -0.23093612                0.49030454                0.18793139                0.84549693                0.46889671                0.29017018
               8.00116286                6.99219694               34.06869362                0.01080460               -0.40297406                0.76086852                0.19836149                0.67523705                0.35473077                0.36920339
               8.99627035                6.99769820               34.07103910                0.01000002               -0.57992002                1.13557161                0.20413414                0.20119890                0.17085283                0.55832804
               9.98956446                6.99747613               34.07201548                0.48581316               -0.67058886                1.01709480                0.20633721                0.13772883                0.07314992                0.47734357
               0.00873008                7.97745020               34.04860704                0.99121542               -0.04325283               -0.04194937                0.14267762                0.00055424               -0.00469745                0.02187815
               1.00829755                7.97367100               34.04856100                0.89486301               -0.04353592               -0.04424332                0.14505730               -0.00078427               -0.01204556               -0.01103508
               2.00785936                7.96989142               34.04836803                0.01000000               -0.04797212               -0.04434525                0.14715561                0.06063396                0.06131317               -0.02785550
               3.00733811                7.96735858               34.04978929                0.01263800               -0.02245277               -0.14129557                0.15146668                0.21452847                0.22039837               -0.13649950
               4.00741030                7.96756188               34.05272496                0.01000000               -0.01051122               -0.17834089                0.15843415                0.42526515                0.37343104               -0.19015742
               5.00712788                7.97150454               34.05703033                0.01000001               -0.05339251               -0.05993285                0.17042953                0.57773502                0.50336466               -0.02984822
               6.00634245                7.97858726               34.06235986                0.01000000               -0.13498486                0.13254949                0.18524686                0.78125559                0.58341280                0.11357201
               7.00442818                7.98935772               34.06804004                0.01082584               -0.32735539                0.38537449                0.20027085                0.88321645                0.52776369                0.22138355
               7.99979534                7.99942994               34.07213680                0.01000002               -0.54107426                0.95573883                0.21103156                0.78817077                0.51824314                0.44815004
               8.99360670                8.00988246               34.07779816                0.43313400               -0.34300250                0.57520570                0.22470974                0.38958393                0.29257832                0.36358905
               9.99293529                8.00777876               34.07756509                0.96053988               -0.06714044                0.48140879                0.22295026                0.06293481               -0.00191718                0.29257490
               0.01252731                8.97702118               34.05014897                1.00000000               -0.04449003               -0.04379986                0.14727908                0.00074236               -0.00064062                0.02056447
               1.01208241                8.97322587               34.04997431                0.99999998               -0.04475683               -0.04503122                0.14942788                0.00003781               -0.00065908               -0.00254414
               2.01163218                8.96944300               34.04979946                0.10840679               -0.04502507               -0.04553463                0.15157677                0.00122656               -0.01065254               -0.01827962
               3.01118191                8.96569857               34.04942517                0.01456129               -0.07761434               -0.10614171                0.15316694                0.20953591                0.14748499               -0.11025506
               4.01007989                8.96605385               34.05241173                0.01000000               -0.22669332               -0.04144880                0.15614427                0.41889019                0.47318416               -0.14523450
               5.00664805                8.97127509               34.05842375                0.01000000               -0.32631868                0.06288666                0.17544720                0.43943708                0.61745519               -0.01961047
               6.00355352                8.97984558               34.06429306                0.01071183               -0.27482790                0.11272533                0.19293018                0.51320788                0.59930182                0.05787246
               7.00115149                8.99199808               34.06991358                0.01000002               -0.35759866                0.19271126                0.20892630                0.98907799                0.70567798                0.09455577
               7.99640154                9.01131172               34.07778510                0.44566625               -0.27191444                0.55923344                0.23046770                0.79618501                0.40420332                0.30877035
               8.99571320                9.00920231               34.07744101                0.99999998               -0.06855011               -0.06860255                0.22862396                0.00002201               -0.00480656                0.00556287
               9.99503054                9.00710430               34.07713038                0.99140394               -0.06826573               -0.06802010                0.22681708               -0.00060466               -0.00307062               -0.00498237
               0.01633554                9.97657420               34.05160979                0.99522990               -0.04590561               -0.04469803                0.15174674                0.00043991                0.01677756                0.01650127
               1.01587648                9.97277037               34.05143997                1.00000000               -0.04621718               -0.04554977                0.15390585               -0.00026663                0.01677994                0.00005524
               2.01541120                9.96898073               34.05127057                0.71255114               -0.04792535               -0.04622710                0.15606399                0.00117048                0.02106469               -0.01631945
               3.01491798                9.96523575               34.05118693                0.21729772               -0.25998065               -0.04628159                0.15818129                0.26121498                0.14204216               -0.00398195
               4.01021158                9.96673290               34.05344018                0.25035055               -0.63965442                0.06790551                0.15981540                0.38949552                0.45120186               -0.07919236
               5.00212489                9.97276228               34.05966136                0.29633892               -0.71639809                0.14871888                0.17996133                0.25312737                0.61134422               -0.02346260
               5.99588362                9.98084177               34.06564743                0.36374505               -0.46906406                0.09961856                0.19879586                0.25549385                0.54543115                0.03082598
               6.99274361                9.99321195               34.07081739                0.48583302                0.13155941                0.12138712                0.21481844                0.64785351                0.57075863                0.04770758
               7.99851481               10.01061460               34.07730148                0.97517210                0.25354747               -0.06971169                0.23427704                0.97624928                0.34577886                0.00220129
               8.99781456               10.00851041               34.07703640                0.99140396               -0.06977946               -0.06919072                0.23248876                0.00032355                0.00599491                0.00318117
               9.99711922               10.00641836               34.07672649                1.00000000               -0.06953362               -0.06859411                0.23068104               -0.00033659                0.00363289               -0.00348941
              -0.01719483               -0.02160412               35.03800278                0.90846662               -0.03186990               -0.03191685                0.10634112                0.00143962               -0.00614088                0.00662367
               0.98248647               -0.02401310               35.03912483                0.63626132               -0.03077404               -0.03433648                0.11040682                0.00189691               -0.00673932               -0.00456222
               1.98218969               -0.02636323               35.04023326                0.39515778               -0.02416657               -0.03493057                0.11449792                0.00661041                0.00251249               -0.00208213
               2.98200314               -0.02849540               35.04153499                0.36030607               -0.01667772               -0.03640555                0.11883330                0.00321607                0.01786035               -0.00107150
               3.98185613               -0.03023945               35.04292885                0.42744951               -0.01968135               -0.03762616                0.12326110               -0.00374110                0.01866453               -0.00019789
               4.98160951               -0.03162651               35.04421576                0.55342013               -0.02879126               -0.03886668                0.12758899               -0.00289628                0.00971932                0.00005315
               5.98128031               -0.03281234               35.04541031                0.75585198               -0.03535155               -0.04012538                0.13185510               -0.00121928                0.00306141                0.00021309
               6.98090248               -0.03390398               35.04655416                0.99999998               -0.03920991               -0.04133802                0.13610100               -0.00003310               -0.00043650                0.00025114
               7.98049611               -0.03495033               35.04767605                0.99057979               -0.04160640               -0.04288603                0.14095495                0.00053932               -0.00186324                0.00081830
               8.98007035               -0.03597345               35.04879237                1.00000000               -0.04330896               -0.04401050                0.14528568                0.00065857               -0.00185690                0.00033414
               9.97962993               -0.03698479               35.04991707                0.99511574               -0.04404213               -0.04513591                0.14875276                0.00023151               -0.00160711               -0.00205340
              -0.01477145                0.97807671               35.03944150                0.63701762               -0.03435563               -0.03081608                0.11069161                0.00192719                0.00469666                0.00927470
               0.98488499                0.97564353               35.04056172                0.01385420               -0.03658036               -0.03669461                0.11475288                0.00420929                0.01073930               -0.00898251
               1.98449694                0.97328747               35.04180249                0.01000000               -0.04557898               -0.02015204                0.11887826                0.03673793                0.02490271               -0.00180933
               2.98397341                0.97114054               35.04320977                0.01000001               -0.05563321                0.01343762                0.12316544                0.08747305                0.03553915                0.01065477
               3.98338428                0.96938428               35.04468308                0.01000000               -0.05532118                0.03221657                0.12744394                0.11402549                0.03051604                0.01250438
               4.98286699                0.96798482               35.04601823                0.01000000               -0.04887124                0.03904404                0.13156523                0.11159818                0.01728663                0.01681018
               5.98240685                0.96678641               35.04724530                0.01000001               -0.04479210                0.05493610                0.13558437                0.06636162                0.00847908                0.01939342
               6.98197115                0.96568264               35.04841347                0.28149478               -0.04353082               -0.04208880                0.13960909               -0.00267809                0.00432859                0.00289467
               7.98153623                0.96462081               35.04956230                0.86557255               -0.04384889               -0.04325185                0.14405949               -0.00082293                0.00234386                0.00198961
               8.98109417                0.96358645               35.05069422                0.99999999               -0.04463224               -0.04434633                0.14806430                0.00010193                0.00085603                0.00030316
               9.98064359                0.96256385               35.05181601                1.00000000               -0.04505784               -0.04559723                0.15185240               -0.00026127                0.00024893               -0.00213940
              -0.01228993                1.97777956               35.04093146                0.39625694               -0.03501725               -0.02372997                0.11510579                0.00685312                0.00181257                0.01259937
               0.98735990                1.97525300               35.04190995                0.01000000               -0.01413183               -0.04656158                0.11909342                0.03116328                0.02625834               -0.01309040
               1.98742743                1.97323373               35.04337659                0.01000001                0.01479414               -0.00784898                0.12408515                0.14440822                0.06796429                0.00916229
               2.98765578                1.97177335               35.04511904                0.01000000               -0.00675361                0.03335856                0.12829672                0.22544219                0.07517526                0.02192320
               3.98729236                1.97040488               35.04669147                0.01000000               -0.06082171                0.09276989                0.13262511                0.28318410                0.06034578                0.03711899
               4.98643935                1.96915437               35.04815615                0.01000001               -0.11913181                0.12098168                0.13664418                0.30506328                0.04369359                0.03894279
               5.98490973                1.96828639               35.04946440                0.01141790               -0.17124137                0.16378192                0.14016797                0.16288671                0.00691748                0.05336019
               6.98301452                1.96525424               35.05032692                0.01621018               -0.11669430                0.07301949                0.14282918                0.05380207               -0.00924580                0.03592100
               7.98257584                1.96418463               35.05147410                0.01000000               -0.04425841                0.05561774                0.14662287                0.06994437                0.00375984                0.03427235
               8.98212935                1.96313962               35.05259766                0.09676477               -0.04529687               -0.04353908                0.15072620                0.00153418                0.00230510                0.00211240
               9.98166990                1.96210326               35.05371561                0.70478992               -0.04594485               -0.04653812                0.15495578                0.00044769                0.00201700               -0.00227571
              -0.00958128                2.97760211               35.04243124                0.36150257               -0.03646355               -0.01514055                0.11973248                0.00326050                0.00003532                0.01497184
               0.99005408                2.97471230               35.04326799                0.01000001                0.02230199               -0.05815333                0.12358756                0.06727555                0.04979501               -0.01336671
               1.99086476                2.97313049               35.04509971                0.01000000                0.06285136               -0.03990954                0.12852690                0.19289410                0.10340317                0.00597460
               2.99131111                2.97180771               35.04688427                0.01000000                0.04010901               -0.00885491                0.13330016                0.28414739                0.10959836                0.01702193
               3.99166694                2.97123968               35.04875754                0.01197010               -0.01121831                0.03235642                0.13805678                0.33718441                0.09622840                0.02606934
               4.99108674                2.97040446               35.05021380                0.01000000               -0.10511117                0.09822031                0.14216021                0.38671518                0.07854718                0.04662573
               5.98956471                2.97006205               35.05177076                0.01000001               -0.19689010                0.18630781                0.14549335                0.34404865                0.05223434                0.08909368
               6.98714894                2.96714303               35.05284824                0.01000001               -0.22574887                0.34656841                0.14784104                0.31519615                0.02045700                0.13210599
               7.98504974                2.96573316               35.05400703                0.01265475               -0.19713599                0.29007266                0.15157742                0.19603541               -0.01596615                0.11437525
               8.98320622                2.96271566               35.05453629                0.01452939               -0.11622341                0.15674394                0.15353628                0.06183935               -0.02716805                0.07914406
               9.98272527                2.96163309               35.05561261                0.21689762               -0.04809528                0.09239152                0.15805689                0.01770263                0.00013395                0.06265342
              -0.00644510                3.97747675               35.04395041                0.42955731               -0.03778715               -0.01780795                0.12447266               -0.00460146               -0.00178818                0.01699488
               0.99317703                3.97408994               35.04462625                0.01000000                0.03174988               -0.05832171                0.12811524                0.08066686                0.06182595               -0.01447179
               1.99418990                3.97243554               35.04657413                0.01000000                0.10262507               -0.08697945                0.13308420                0.20554930                0.13765850               -0.02106334
               2.99522953                3.97159625               35.04861636                0.01197070                0.06247027               -0.05726279                0.13829700                0.28753898                0.13585686               -0.00325404
               3.99543931                3.97105201               35.05037627                0.01000000                0.00608741               -0.04040718                0.14296913                0.35311049                0.13276828                0.00082543
               4.99535128                3.97111878               35.05229899                0.01000001               -0.01935893                0.06603914                0.14780030                0.49463573                0.15372149                0.06516371
               5.99505213                3.97201254               35.05445519                0.01000001               -0.08519775                0.20464097                0.15264465                0.58313839                0.15659326                0.13661653
               6.99364733                3.97218561               35.05644205                0.01174163               -0.20641102                0.40223053                0.15699242                0.48857813                0.08741973                0.17757671
               7.99092391                3.96998609               35.05734184                0.01000000               -0.30905555                0.47875656                0.15873312                0.27206683                0.00592215                0.20002969
               8.98746622                3.96627450               35.05797573                0.01000000               -0.33673969                0.66774019                0.15911068                0.15289186               -0.01337421                0.24919725
               9.98418911                3.96395109               35.05881108                0.25051177               -0.32771018                0.63992078                0.16178756               -0.03924576               -0.00977609                0.23031173
              -0.00289969                4.97724595               35.04546845                0.55764998               -0.03916827               -0.02770738                0.12910400               -0.00366320               -0.00223004                0.01759816
               0.99670862                4.97354586               35.04598117                0.01000000                0.01845602               -0.05103760                0.13248030                0.07223108                0.06183972               -0.01553253
               1.99746943                4.97139090               35.04777499                0.01000001                0.08683997               -0.11676675                0.13726381                0.19797263                0.15054769               -0.05777788
               2.99844542                4.97066246               35.04992649                0.01000000                0.08685975               -0.13773915                0.14261335                0.28719015                0.16689229               -0.07395840
               3.99920662                4.97043154               35.05188581                0.01000001                0.07867478               -0.07850667                0.14798330                0.43584066                0.20076347               -0.01091673
               5.00001892                4.97172524               35.05457806                0.01000001                0.04770131                0.04068960                0.15442985                0.62250166                0.25268763                0.07568741
               6.00016065                4.97415487               35.05743082                0.01174054               -0.05359795                0.15107165                0.16105440                0.61412934                0.21509122                0.11810757
               6.99894696                4.97518764               35.05929133                0.01000000               -0.18792357                0.31526058                0.16535264                0.50322983                0.16092927                0.17166459
               7.99640218                4.97530829               35.06113460                0.01000001               -0.33239548                0.66887704                0.16950132                0.48085423                0.15574333                0.29291268
               8.99229905                4.97607047               35.06308368                0.01000000               -0.49075012                1.00646361                0.17401054                0.31440762                0.09984987                0.37798044
               9.98658718                4.97443150               35.06413357                0.29715467               -0.57118759                1.12966271                0.17742015                0.09120423                0.03065286                0.37401092
               0.00088181                5.97692260               35.04698680                0.76450760               -0.04051062               -0.03514812                0.13364629               -0.00163992               -0.00261365                0.01771054
               1.00047671                5.97306918               35.04732869                0.01000001                0.00754737               -0.04610236                0.13671984                0.04124440                0.04248535               -0.01620258
               2.00103276                5.97010021               35.04857228                0.01142114                0.07279946               -0.13593809                0.14077677                0.11131852                0.11751524               -0.12523911
               3.00193270                5.96884147               35.05028477                0.01000001                0.10302886               -0.19247858                0.14576060                0.26915905                0.21308300               -0.15293468
               4.00309334                5.96948187               35.05326764                0.01000001                0.10726438               -0.12120855                0.15292834                0.48232266                0.31130746               -0.03232573
               5.00407798                5.97193257               35.05673274                0.01174210                0.03894893               -0.03411811                0.16129822                0.58959107                0.30888314                0.01637206
               6.00387232                5.97503398               35.05945030                0.01000000               -0.07597438                0.09347381                0.16797932                0.61954741                0.28705910                0.08349767
               7.00255850                5.97849082               35.06240165                0.01000001               -0.21070786                0.41461934                0.17517456                0.69836235                0.31819756                0.24063935
               7.99965816                5.98336363               35.06575916                0.01000000               -0.39636672                0.82311413                0.18294965                0.64448420                0.28214812                0.39053928
               8.99463116                5.98640378               35.06814563                0.01064507               -0.51835126                1.07108560                0.18873348                0.35991998                0.15156579                0.42121972
               9.98929113                5.98654435               35.06927397                0.36494238               -0.53400277                1.13417762                0.19194095                0.15066900                0.06730983                0.40549578
               0.00477434                6.97654299               35.04850124                0.99999999               -0.04184316               -0.03945796                0.13813655               -0.00016967               -0.00242262                0.01853056
               1.00435591                6.97262382               35.04867458                0.29767163               -0.04254117               -0.04426856                0.14090345               -0.00316731               -0.01883862               -0.01680079
               2.00392351                6.96867214               35.04851945                0.01621565                0.00455166               -0.09333328                0.14307058                0.05011381                0.05429562               -0.10481927
               3.00444694                6.96681289               35.05015576                0.01000001                0.09192314               -0.16233771                0.14776606                0.23773671                0.28057309               -0.12265701
               4.00576198                6.96800737               35.05438678                0.01174490                0.09058490               -0.18233495                0.15726031                0.43256326                0.38259441               -0.11165990
               5.00625864                6.97104288               35.05774522                0.01000000                0.01156841               -0.09587946                0.16562679                0.56384020                0.37348327               -0.04519118
               6.00599335                6.97602434               35.06159388                0.01000001               -0.08370399                0.12202037                0.17568719                0.76169473                0.44609051                0.11913767
               7.00458456                6.98348002               35.06625772                0.01000000               -0.23072197                0.51502809                0.18728115                0.90029884                0.47896837                0.29933902
               8.00137891                6.99177058               35.07067454                0.01080413               -0.41339136                0.79928731                0.19785652                0.72283272                0.36216410                0.38024089
               8.99631673                6.99749218               35.07307594                0.01000002               -0.60297463                1.19471975                0.20324300                0.22701922                0.17437621                0.57226978
               9.98931941                6.99711505               35.07407296                0.48600790               -0.69973169                1.07916574                0.20517760                0.15562924                0.07516051                0.48680370
               0.00871676                7.97613344               35.05003374                0.99119704               -0.04325496               -0.04192100                0.14266462                0.00055670               -0.00479284                0.02225723
               1.00828421                7.97218381               35.05001162                0.89493978               -0.04353975               -0.04426418                0.14506676               -0.00080349               -0.01228365               -0.01126372
               2.00784597                7.96823354               35.04983974                0.01000000               -0.04660072               -0.04435711                0.14718172                0.06383889                0.06199276               -0.02839896
               3.00735220                7.96559471               35.05130324                0.01266015               -0.01656781               -0.14705538                0.15133456                0.22472694                0.22362427               -0.13884680
               4.00751461                7.96583517               35.05430695                0.01000000               -0.00071949               -0.18963832                0.15800097                0.44816970                0.38090101               -0.19612911
               5.00733781                7.97001498               35.05873184                0.01000001               -0.04227740               -0.06521376                0.16990314                0.61294094                0.51546834               -0.02967602
               6.00666907                7.97747438               35.06420976                0.01000000               -0.12597849                0.13681190                0.18476049                0.82918022                0.59780937                0.11813945
               7.00481824                7.98879138               35.07004136                0.01082458               -0.32832043                0.40284113                0.20003021                0.93776727                0.54072152                0.22902775
               8.00010266                7.99934937               35.07424389                0.01000002               -0.54955848                1.00137775                0.21038828                0.84083289                0.53102938                0.46080332
               8.99382707                8.01029817               35.08004124                0.43314771               -0.34723409                0.60637294                0.22388867                0.42314992                0.30021182                0.37187052
               9.99315798                8.00812766               35.07979117                0.96058643               -0.06690963                0.51696719                0.22225506                0.08294977               -0.00192331                0.29891335
               0.01268472                8.97570457               35.05162187                1.00000000               -0.04449882               -0.04379636                0.14730123                0.00074891               -0.00065938                0.02092829
               1.01223974                8.97173853               35.05146879                0.99999998               -0.04476666               -0.04504748                0.14946616                0.00003906               -0.00067797               -0.00260181
               2.01178939                8.96778499               35.05131552                0.10857208               -0.04499455               -0.04555219                0.15163125                0.00131640               -0.01094839               -0.01861738
               3.01133984                8.96387178               35.05095723                0.01475610               -0.07421421               -0.10929697                0.15323806                0.21608347                0.14740445               -0.11193706
               4.01030511                8.96421460               35.05396946                0.01000000               -0.22307996               -0.04773546                0.15542912                0.44174486                0.48270777               -0.15050038
               5.00687825                8.96973860               35.06017605                0.01000000               -0.32522802                0.06245720                0.17504362                0.46688750                0.63520991               -0.01979977
               6.00380055                8.97876058               35.06622141                0.01071495               -0.27066662                0.11498022                0.19278859                0.54430635                0.61581506                0.06076773
               7.00146491                8.99153685               35.07200107                0.01000002               -0.35558858                0.19859047                0.20859190                1.04232372                0.72488105                0.09805815
               7.99668877                9.01179813               35.08008797                0.44527530               -0.27317370                0.58759671                0.23009270                0.84261987                0.41579981                0.31653017
               8.99600144                9.00961964               35.07972603                0.99999998               -0.06846737               -0.06852592                0.22837307                0.00001804               -0.00484641                0.00561189
               9.99531943                9.00745440               35.07939793                0.99158340               -0.06820120               -0.06798473                0.22669061               -0.00069267               -0.00308867               -0.00499840
               0.01666381                9.97525751               35.05312751                0.99511868               -0.04592421               -0.04470569                0.15179898                0.00044408                0.01707850                0.01679564
               1.01620457                9.97128286               35.05297938                1.00000000               -0.04623800               -0.04556702                0.15397430               -0.00026727                0.01708031                0.00005227
               2.01573905                9.96732250               35.05283166                0.71271440               -0.04801541               -0.04624979                0.15614877                0.00126181                0.02134934               -0.01662086
               3.01524426                9.96340878               35.05276935                0.21752895               -0.26281831               -0.04630030                0.15829543                0.26834022                0.14187248               -0.00404650
               4.01048269                9.96488046               35.05503528                0.25057550               -0.65573425                0.06658632                0.15922537                0.41052542                0.46121293               -0.08191669
               5.00212958                9.97126412               35.06145914                0.29642594               -0.73628699                0.15255214                0.17963197                0.26980946                0.62993845               -0.02413337
               5.99575695                9.97977399               35.06763558                0.36376445               -0.47512065                0.10134048                0.19890187                0.27059355                0.56224108                0.03244132
               6.99262717                9.99276319               35.07296358                0.48587369                0.15576564                0.12263455                0.21444190                0.68259118                0.58914626                0.04902948
               7.99887226               10.01110131               35.07964522                0.97480031                0.27720011               -0.06968259                0.23446792                1.02657163                0.35656396                0.00221955
               8.99817117               10.00892765               35.07936285                0.99158430               -0.06988267               -0.06919870                0.23280543                0.00030587                0.00602820                0.00320587
               9.99747461               10.00676797               35.07903546                1.00000000               -0.06965608               -0.06864298                0.23112220               -0.00045058                0.00365265               -0.00350890
              -0.01839873               -0.02299821               36.03906520                0.90795628               -0.03178609               -0.03182697                0.10614255                0.00145676               -0.00615932                0.00664947
               0.98128341               -0.02551744               36.04022819                0.63551941               -0.03059516               -0.03432386                0.11026244                0.00197393               -0.00674219               -0.00457951
               1.98098937               -0.02797524               36.04137781                0.39486313               -0.02348247               -0.03490035                0.11441006                0.00696744                0.00265480               -0.00209434
               2.98081376               -0.03020265               36.04272310                0.36025796               -0.01535392               -0.03640145                0.11878841                0.00334017                0.01820210               -0.00109600
               3.98068229               -0.03201672               36.04416140                0.42744225               -0.01840097               -0.03762780                0.12325720               -0.00409779                0.01902667               -0.00023311
               4.98044574               -0.03344843               36.04549198                0.55342410               -0.02805574               -0.03888271                0.12765539               -0.00320141                0.00998595                0.00001817
               5.98012118               -0.03466403               36.04672949                0.75595861               -0.03510158               -0.04012571                0.13200974               -0.00137892                0.00331147                0.00017963
               6.97974371               -0.03577805               36.04791762                0.99999998               -0.03918399               -0.04141294                0.13643661               -0.00010620               -0.00007861                0.00022538
               7.97933750               -0.03684537               36.04908546                0.99059046               -0.04153221               -0.04278251                0.14092318                0.00052261               -0.00146111                0.00067660
               8.97891307               -0.03788761               36.05024507                1.00000000               -0.04326206               -0.04395810                0.14528321                0.00068255               -0.00158728                0.00018819
               9.97847226               -0.03891728               36.05140849                0.99499884               -0.04408118               -0.04528419                0.14933370                0.00028934               -0.00142705               -0.00174070
              -0.01586493                0.97668352               36.04054754                0.63624899               -0.03434080               -0.03063247                0.11051608                0.00200461                0.00471207                0.00933309
               0.98379166                0.97413932               36.04170865                0.01363050               -0.03667119               -0.03677364                0.11463107                0.00444041                0.01078103               -0.00900132
               1.98340165                0.97167576               36.04299086                0.01000000               -0.04618784               -0.01843254                0.11879643                0.03942766                0.02502928               -0.00139660
               2.98286791                0.96943333               36.04444104                0.01000001               -0.05687238                0.01684419                0.12309670                0.09241042                0.03566278                0.01102453
               3.98226420                0.96760700               36.04595707                0.01000000               -0.05652624                0.03675526                0.12737666                0.12022113                0.03047822                0.01296906
               4.98173738                0.96616274               36.04733357                0.01000000               -0.04960014                0.04373841                0.13153053                0.11755696                0.01706478                0.01732825
               5.98127220                0.96493471               36.04860099                0.01000001               -0.04520330                0.06013613                0.13561443                0.06979831                0.00820760                0.01980186
               6.98083332                0.96380782               36.04981077                0.28173488               -0.04373472               -0.04214094                0.13977058               -0.00282923                0.00414855                0.00271558
               7.98039750                0.96272681               36.05100235                0.86614092               -0.04387337               -0.04319146                0.14394897               -0.00078762                0.00222884                0.00181169
               8.97995585                0.96167281               36.05217495                0.99999999               -0.04463438               -0.04433028                0.14806341                0.00000829                0.00075350                0.00022973
               9.97950482                0.96062988               36.05333649                1.00000000               -0.04510331               -0.04569172                0.15217044               -0.00037528                0.00016690               -0.00182488
              -0.01327023                1.97638914               36.04208173                0.39591530               -0.03497864               -0.02312592                0.11494987                0.00718684                0.00181225                0.01280614
               0.98637998                1.97374708               36.04310043                0.01000000               -0.01229295               -0.04704621                0.11900125                0.03368560                0.02675634               -0.01304842
               1.98648391                1.97165611               36.04461723                0.01000001                0.01753758               -0.00527432                0.12404572                0.15286793                0.06879937                0.00985037
               2.98673073                1.97013423               36.04640122                0.01000000               -0.00633030                0.03876609                0.12815422                0.23770704                0.07549596                0.02274268
               3.98635730                1.96871838               36.04801676                0.01000000               -0.06307815                0.10155297                0.13245504                0.29868758                0.06046487                0.03830208
               4.98546917                1.96742634               36.04952154                0.01000001               -0.12426174                0.13086513                0.13646214                0.32146653                0.04328912                0.04027296
               5.98387207                1.96653869               36.05086520                0.01141845               -0.17870698                0.17525122                0.14000427                0.17148857                0.00570871                0.05456414
               6.98189503                1.96337913               36.05175469                0.01621085               -0.12076544                0.07909968                0.14272313                0.05659398               -0.01040331                0.03654384
               7.98145676                1.96229080               36.05294109                0.01000000               -0.04424331                0.06000735                0.14667260                0.07359872                0.00339253                0.03498385
               8.98101016                1.96122578               36.05410549                0.09679952               -0.04530757               -0.04348113                0.15079403                0.00155605                0.00205164                0.00200973
               9.98055061                1.96016888               36.05526498                0.70477106               -0.04595565               -0.04657790                0.15499022                0.00044178                0.00179346               -0.00185061
              -0.01043708                2.97622100               36.04362786                0.36139449               -0.03645157               -0.01410963                0.11959329                0.00338912                0.00001126                0.01538067
               0.98919840                2.97319839               36.04450349                0.01000001                0.02544701               -0.05903934                0.12351119                0.07171513                0.05027770               -0.01328185
               1.99007186                2.97157027               36.04638421                0.01000000                0.06806874               -0.03952444                0.12838216                0.20400373                0.10442635                0.00619680
               2.99055978                2.97020865               36.04821617                0.01000000                0.04369919               -0.00561657                0.13310019                0.30034947                0.11060049                0.01786853
               3.99094584                2.96963806               36.05013658                0.01196971               -0.01066876                0.03789089                0.13778480                0.35613187                0.09685773                0.02723074
               4.99034640                2.96878005               36.05163381                0.01000000               -0.10983326                0.10715926                0.14187556                0.40820035                0.07834883                0.04831936
               5.98874918                2.96843974               36.05322387                0.01000001               -0.20666605                0.19964284                0.14515992                0.36329186                0.05086312                0.09170354
               6.98621308                2.96538981               36.05432490                0.01000001               -0.23631757                0.36724086                0.14753184                0.33253011                0.01897089                0.13575335
               7.98402283                2.96392695               36.05552083                0.01267996               -0.20520968                0.30574468                0.15129854                0.20754423               -0.01776340                0.11707914
               8.98210889                2.96080318               36.05607112                0.01473043               -0.11976912                0.16235258                0.15339871                0.06674446               -0.02846912                0.08021478
               9.98162745                2.95969832               36.05719335                0.21711914               -0.04814443                0.09012947                0.15805125                0.02376800                0.00011137                0.06324196
              -0.00715724                3.97610695               36.04519450                0.42946334               -0.03777515               -0.01691486                0.12434714               -0.00480236               -0.00183029                0.01745021
               0.99246501                3.97256630               36.04590705                0.01000000                0.03554793               -0.05907721                0.12804485                0.08584565                0.06240480               -0.01450270
               1.99355372                3.97086562               36.04790405                0.01000000                0.11024628               -0.08892384                0.13291258                0.21847500                0.13911355               -0.02104056
               2.99466994                3.97002190               36.04999788                0.01197069                0.06774124               -0.05706015                0.13803010                0.30469882                0.13728592               -0.00276020
               3.99490855                3.96947620               36.05180422                0.01000000                0.00807804               -0.03908293                0.14265544                0.37375584                0.13399711                0.00179046
               4.99483150                3.96956953               36.05377494                0.01000001               -0.01902044                0.07332878                0.14742965                0.52337641                0.15492743                0.06750265
               5.99452814                3.97053155               36.05597900                0.01000001               -0.08865429                0.21910346                0.15215227                0.61727863                0.15736192                0.14091455
               6.99305841                3.97072395               36.05800890                0.01174375               -0.21669324                0.42593686                0.15641462                0.51750579                0.08636541                0.18308577
               7.99019427                3.96840570               36.05892573                0.01000000               -0.32423620                0.50424573                0.15811054                0.28868146                0.00240296                0.20553891
               8.98657369                3.96447283               36.05956241                0.01000000               -0.34792891                0.69717033                0.15829874                0.16192971               -0.01682192                0.25533386
               9.98323570                3.96197147               36.06042493                0.25077826               -0.33379931                0.66093334                0.16103636               -0.04022277               -0.01120438                0.23548607
              -0.00345183                4.97588270               36.04675895                0.55750852               -0.03915306               -0.02723163                0.12900053               -0.00381521               -0.00227474                0.01798055
               0.99615664                4.97201685               36.04730568                0.01000000                0.02187927               -0.05141855                0.13242158                0.07686386                0.06245575               -0.01573167
               1.99698576                4.96979180               36.04914671                0.01000001                0.09432691               -0.12065839                0.13709415                0.21059243                0.15222133               -0.05838187
               2.99804318                4.96906745               36.05135114                0.01000000                0.09437890               -0.14235006                0.14233791                0.30483596                0.16900031               -0.07446092
               3.99887334                4.96885640               36.05336382                0.01000001                0.08577019               -0.07946083                0.14764783                0.46202553                0.20351871               -0.01001617
               4.99975858                4.97024662               36.05611978                0.01000001                0.05334966                0.04620559                0.15395450                0.65991679                0.25612242                0.07866672
               5.99994033                4.97282180               36.05903818                0.01173962               -0.05347676                0.16193366                0.16046530                0.65157929                0.21747952                0.12244206
               6.99868905                4.97390855               36.06094115                0.01000000               -0.19463786                0.33370414                0.16465520                0.53536720                0.16194339                0.17753899
               7.99604757                4.97401187               36.06282560                0.01000001               -0.34536711                0.70388583                0.16872927                0.51204818                0.15676891                0.30163240
               8.99178171                4.97474659               36.06481961                0.01000000               -0.51109324                1.05651640                0.17321446                0.33549162                0.10043777                0.38915133
               9.98582571                4.97291699               36.06590385                0.29733419               -0.59559996                1.18179590                0.17667181                0.09655858                0.03037921                0.38449315
               0.00049817                5.97556231               36.04832288                0.76433470               -0.04049701               -0.03494319                0.13357238               -0.00171232               -0.00266367                0.01803345
               1.00009320                5.97153793               36.04869569                0.01000001                0.01084007               -0.04625296                0.13668028                0.04389202                0.04289163               -0.01650118
               2.00071497                5.96845246               36.04997934                0.01142207                0.08044285               -0.14128653                0.14064328                0.11815109                0.11897588               -0.12692860
               3.00170205                5.96717490               36.05174122                0.01000001                0.11274588               -0.20072931                0.14554828                0.28486382                0.21629412               -0.15484239
               4.00296989                5.96788698               36.05479489                0.01000001                0.11811870               -0.12541193                0.15255868                0.51141917                0.31642615               -0.03193993
               5.00406443                5.97049364               36.05834291                0.01174137                0.04639550               -0.03378996                0.16078799                0.62529739                0.31404533                0.01812262
               6.00389780                5.97377022               36.06112670                0.01000000               -0.07443684                0.09980409                0.16735901                0.65774816                0.29171093                0.08736910
               7.00257569                5.97739803               36.06414979                0.01000001               -0.21502991                0.43645510                0.17449983                0.74263455                0.32345984                0.24838338
               7.99959720                5.98248341               36.06758477                0.01000000               -0.40986436                0.86525811                0.18221419                0.68727401                0.28671031                0.40162435
               8.99437840                5.98560316               36.07002943                0.01065628               -0.53855616                1.12506977                0.18808705                0.38508593                0.15377342                0.43243945
               9.98882607                5.98560739               36.07119010                0.36508378               -0.55523292                1.18890083                0.19134622                0.16281915                0.06853140                0.41480848
               0.00456270                6.97518384               36.04988238                0.99999999               -0.04183604               -0.03938022                0.13809537               -0.00019051               -0.00246873                0.01884875
               1.00414434                6.97109179               36.05008353                0.29755261               -0.04254474               -0.04432081                0.14088758               -0.00325464               -0.01918991               -0.01714061
               2.00371181                6.96696607               36.04995012                0.01621689                0.00807940               -0.09625417                0.14306277                0.05268494                0.05487164               -0.10642486
               3.00430593                6.96505287               36.05163279                0.01000001                0.10355869               -0.16973597                0.14764816                0.25117098                0.28494275               -0.12470051
               4.00578298                6.96634816               36.05595744                0.01174673                0.10376820               -0.19151843                0.15690450                0.45738991                0.38933557               -0.11372476
               5.00638129                6.96957082               36.05939870                0.01000000                0.02039587               -0.10067185                0.16510259                0.59698651                0.38085777               -0.04504479
               6.00619090                6.97481789               36.06334771                0.01000001               -0.07763738                0.12761533                0.17513529                0.80790747                0.45541708                0.12392443
               7.00482855                6.98263765               36.06812748                0.01000000               -0.23014883                0.53984493                0.18671140                0.95659719                0.48891417                0.30865463
               8.00158792                6.99131703               36.07265075                0.01080921               -0.42345498                0.83745786                0.19743301                0.77145964                0.36927754                0.39122295
               8.99635945                6.99724799               36.07510396                0.01000002               -0.62571474                1.25333087                0.20240223                0.25316084                0.17742944                0.58583850
               9.98907363                6.99669500               36.07611903                0.48621422               -0.72858196                1.14123384                0.20406910                0.17324551                0.07687947                0.49578059
               0.00867846                7.97477471               36.05146033                0.99117316               -0.04325765               -0.04189305                0.14265637                0.00055903               -0.00488953                0.02264885
               1.00824588                7.97065151               36.05146233                0.89501607               -0.04354315               -0.04428557                0.14507448               -0.00082384               -0.01252586               -0.01149564
               2.00780759                7.96652737               36.05131166                0.01000000               -0.04512500               -0.04436680                0.14719922                0.06708150                0.06258660               -0.02895169
               3.00734338                7.96378018               36.05281598                0.01268612               -0.01039332               -0.15295772                0.15122091                0.23496846                0.22662419               -0.14114662
               4.00759973                7.96405661               36.05588498                0.01000000                0.00955265               -0.20163280                0.15766223                0.47161372                0.38816841               -0.20230842
               5.00753443                7.96848020               36.06042840                0.01000001               -0.03053048               -0.07095149                0.16940750                0.64924615                0.52750544               -0.02952556
               6.00698912                7.97632253               36.06605507                0.01000000               -0.11629713                0.14086198                0.18433329                0.87843141                0.61225016                0.12286081
               7.00520849                7.98819493               36.07204064                0.01082897               -0.32865291                0.41996846                0.19987966                0.99320245                0.55344905                0.23669378
               8.00041606                7.99923257               36.07634456                0.01000002               -0.55724198                1.04619825                0.20978865                0.89397528                0.54334619                0.47316242
               8.99406365                8.01066978               36.08227593                0.43316156               -0.35095539                0.63724741                0.22303309                0.45731811                0.30768150                0.37988738
               9.99339695                8.00843207               36.08201019                0.96062879               -0.06666993                0.55325215                0.22153428                0.10379650               -0.00192948                0.30517957
               0.01282028                8.97434598               36.05309500                1.00000000               -0.04450790               -0.04379379                0.14732782                0.00075554               -0.00067769                0.02130351
               1.01237520                8.97020608               36.05296364                0.99999998               -0.04477570               -0.04506334                0.14950210                0.00004037               -0.00069651               -0.00265960
               2.01192477                8.96607873               36.05283208                0.10870914               -0.04495730               -0.04556695                0.15167659                0.00141228               -0.01124434               -0.01896393
               3.01147606                8.96199371               36.05248993                0.01496636               -0.07047665               -0.11248018                0.15329234                0.22225983                0.14694224               -0.11354982
               4.01051523                8.96231550               36.05552031                0.01000000               -0.21878769               -0.05468415                0.15478325                0.46522073                0.49193966               -0.15593236
               5.00710030                8.96815179               36.06192463                0.01000000               -0.32352190                0.06166123                0.17469314                0.49542775                0.65320751               -0.01998251
               6.00404480                8.97763513               36.06814884                0.01072482               -0.26588762                0.11698650                0.19273269                0.57600560                0.63226906                0.06390136
               7.00178255                8.99103702               36.07408542                0.01000002               -0.35261094                0.20362918                0.20831236                1.09571366                0.74378945                0.10125657
               7.99699258                9.01224100               36.08238696                0.44489272               -0.27381201                0.61559615                0.22969541                0.88933343                0.42729485                0.32412953
               8.99630631                9.00999293               36.08200847                0.99999998               -0.06838014               -0.06844501                0.22810820                0.00001355               -0.00488661                0.00566268
               9.99562498                9.00776005               36.08166419                0.99176076               -0.06813351               -0.06794796                0.22655891               -0.00078385               -0.00310712               -0.00501454
               0.01697337                9.97389883               36.05464577                0.99500081               -0.04594296               -0.04471450                0.15185518                0.00044933                0.01738741                0.01709912
               1.01651394                9.96975024               36.05451946                1.00000000               -0.04625798               -0.04558358                0.15403995               -0.00026674                0.01738864                0.00004988
               2.01604821                9.96561603               36.05439355                0.71284503               -0.04810677               -0.04626967                0.15622398                0.00136045                0.02164844               -0.01693020
               3.01555180                9.96153058               36.05435284                0.21777155               -0.26510740               -0.04631355                0.15839281                0.27491930                0.14137236               -0.00411228
               4.01074606                9.96296293               36.05662469                0.25081503               -0.67142179                0.06474266                0.15866498                0.43222478                0.47097777               -0.08459161
               5.00212337                9.96971342               36.06325400                0.29652040               -0.75610289                0.15616307                0.17938975                0.28727252                0.64882522               -0.02480631
               5.99562400                9.97866226               36.06962546                0.36378801               -0.48032367                0.10271312                0.19912190                0.28562478                0.57892655                0.03425024
               6.99251689                9.99226751               36.07510622                0.48592398                0.18114075                0.12304911                0.21408283                0.71754598                0.60748933                0.05001455
               7.99924682               10.01154449               36.08199084                0.97443713                0.30139900               -0.06965022                0.23465768                1.07709199                0.36755882                0.00223866
               8.99854487               10.00930088               36.08169251                0.99176192               -0.06998831               -0.06920551                0.23312908                0.00028692                0.00606337                0.00323133
               9.99784705               10.00707311               36.08134893                1.00000000               -0.06978224               -0.06869354                0.23157905               -0.00056944                0.00367315               -0.00352892
              -0.01964399               -0.02443580               37.04012563                0.90743413               -0.03169987               -0.03173549                0.10594466                0.00147400               -0.00617278                0.00667005
               0.98003901               -0.02706562               37.04133008                0.63476024               -0.03040746               -0.03431219                0.11011525                0.00205684               -0.00673857               -0.00459354
               1.97974786               -0.02963121               37.04252146                0.39456357               -0.02277124               -0.03486662                0.11431631                0.00734782                0.00280200               -0.00210559
               2.97958359               -0.03195320               37.04391076                0.36021587               -0.01400369               -0.03638849                0.11874175                0.00347508                0.01855115               -0.00112164
               3.97946779               -0.03383545               37.04539399                0.42744753               -0.01712245               -0.03762445                0.12325828               -0.00445476                0.01941170               -0.00027050
               4.97924114               -0.03530933               37.04676887                0.55344393               -0.02734484               -0.03888415                0.12771551               -0.00349298                0.01032623               -0.00001602
               5.97892089               -0.03655175               37.04805051                0.75608470               -0.03481019               -0.04015126                0.13214543               -0.00153090                0.00365306                0.00014925
               6.97854494               -0.03768577               37.04928290                0.99999998               -0.03907273               -0.04143449                0.13655457               -0.00015879                0.00031869                0.00017734
               7.97813944               -0.03877058               37.05049451                0.99060226               -0.04146822               -0.04280123                0.14093328                0.00053521               -0.00105675                0.00064292
               8.97771557               -0.03982945               37.05169803                1.00000000               -0.04324465               -0.04399347                0.14535866                0.00070147               -0.00131432                0.00018992
               9.97727455               -0.04087560               37.05290375                0.99487506               -0.04410267               -0.04535465                0.14963790                0.00031643               -0.00123455               -0.00150454
              -0.01699943                0.97524684               37.04165182                0.63546439               -0.03432806               -0.03044174                0.11034174                0.00208707                0.00472314                0.00938465
               0.98265729                0.97259126               37.04285434                0.01339817               -0.03677185               -0.03685950                0.11450712                0.00468977                0.01081216               -0.00901412
               1.98226513                0.97002012               37.04417842                0.01000000               -0.04684141               -0.01656954                0.11871404                0.04232138                0.02512688               -0.00096339
               2.98172046                0.96768292               37.04567170                0.01000001               -0.05819108                0.02031351                0.12304213                0.09753789                0.03573979                0.01136904
               3.98110131                0.96578830               37.04723061                0.01000000               -0.05780502                0.04134279                0.12734600                0.12662284                0.03040659                0.01340396
               4.98056436                0.96430183               37.04864884                0.01000000               -0.05037528                0.04844616                0.13154006                0.12369935                0.01687196                0.01781010
               5.98009380                0.96304674               37.04995758                0.01000001               -0.04557987                0.06532722                0.13568457                0.07339585                0.00800496                0.02012129
               6.97965276                0.96189988               37.05120888                0.28201408               -0.04385876               -0.04216188                0.13981624               -0.00298500                0.00398828                0.00248543
               7.97921663                0.96080141               37.05244128                0.86674386               -0.04388319               -0.04318004                0.14388466               -0.00079114                0.00209430                0.00159812
               8.97877510                0.95973062               37.05365549                0.99999999               -0.04463852               -0.04434505                0.14807888                0.00001792                0.00066972                0.00018483
               9.97832386                0.95867086               37.05485942                1.00000000               -0.04512395               -0.04575082                0.15236856               -0.00036383                0.00013178               -0.00155144
              -0.01429108                1.97495536               37.04323046                0.39556913               -0.03493879               -0.02249418                0.11479610                0.00753820                0.00180968                0.01300438
               0.98535953                1.97219719               37.04428998                0.01000000               -0.01031429               -0.04756078                0.11890540                0.03640173                0.02725085               -0.01300587
               1.98550263                1.97003739               37.04585751                0.01000001                0.02033165               -0.00262607                0.12401623                0.16156770                0.06957188                0.01052627
               2.98576616                1.96845307               37.04768213                0.01000000               -0.00606475                0.04427521                0.12804633                0.25021450                0.07568894                0.02351309
               3.98538134                1.96699140               37.04934057                0.01000000               -0.06547357                0.11042656                0.13233488                0.31458320                0.06048536                0.03942078
               4.98445669                1.96565959               37.05088539                0.01000001               -0.12952923                0.14078109                0.13633695                0.33827347                0.04279509                0.04153057
               5.98279075                1.96475479               37.05226448                0.01141922               -0.18630650                0.18677889                0.13986518                0.18042428                0.00444741                0.05564015
               6.98073056                1.96147099               37.05318139                0.01621167               -0.12489356                0.08519964                0.14260875                0.05948302               -0.01158641                0.03703710
               7.98029288                1.96036582               37.05440755                0.01000000               -0.04420378                0.06443448                0.14658292                0.07721376                0.00291375                0.03555885
               8.97984649                1.95928365               37.05561354                0.09686683               -0.04530461               -0.04337879                0.15079105                0.00163928                0.00171932                0.00184962
               9.97938679                1.95820939               37.05681541                0.70475168               -0.04596970               -0.04664373                0.15508719                0.00053257                0.00150244               -0.00146317
              -0.01133233                2.97479696               37.04482310                0.36129361               -0.03643847               -0.01303517                0.11945756                0.00352253               -0.00001542                0.01578212
               0.98830329                2.97164004               37.04573822                0.01000001                0.02864654               -0.05997469                0.12343208                0.07633438                0.05069937               -0.01321236
               1.98924060                2.96996760               37.04766735                0.01000000                0.07337264               -0.03925869                0.12826170                0.21535433                0.10532548                0.00634993
               2.98977074                2.96856842               37.04954627                0.01000000                0.04729258               -0.00234932                0.13294691                0.31690758                0.11146596                0.01866399
               3.99018646                2.96799683               37.05151324                0.01197020               -0.01021521                0.04345861                0.13757874                0.37549420                0.09734396                0.02834715
               4.98956644                2.96711745               37.05305131                0.01000000               -0.11477825                0.11616359                0.14165962                0.43019210                0.07799588                0.04995402
               5.98789089                2.96678232               37.05467396                0.01000001               -0.21675216                0.21308650                0.14488970                0.38305369                0.04934206                0.09419826
               6.98523139                2.96360388               37.05579888                0.01000001               -0.24713229                0.38800386                0.14727559                0.35025641                0.01743155                0.13922467
               7.98294824                2.96209010               37.05703300                0.01270835               -0.21335361                0.32131367                0.15111303                0.21923699               -0.01961904                0.11964200
               8.98096432                2.95886304               37.05760426                0.01494619               -0.12326030                0.16745188                0.15316775                0.07159880               -0.02985625                0.08103378
               9.98048304                2.95773798               37.05877364                0.21735197               -0.04812830                0.08704611                0.15794999                0.03015453                0.00006626                0.06355874
              -0.00790680                3.97469466               37.04643736                0.42938276               -0.03776206               -0.01598863                0.12422608               -0.00501183               -0.00187419                0.01790377
               0.99171558                3.97099770               37.04718715                0.01000000                0.03940716               -0.05987251                0.12797290                0.09121263                0.06291140               -0.01455382
               1.99288134                3.96925222               37.04923238                0.01000000                0.11797510               -0.09098127                0.13277129                0.23180918                0.14040871               -0.02104557
               2.99407508                3.96840609               37.05137696                0.01197080                0.07304271               -0.05692583                0.13782164                0.32229677                0.13855200               -0.00230517
               3.99434220                3.96786058               37.05322937                0.01000000                0.00999867               -0.03781432                0.14241429                0.39493387                0.13505255                0.00273319
               4.99427505                3.96798286               37.05524758                0.01000001               -0.01883982                0.08065755                0.14713782                0.55282641                0.15588205                0.06976203
               5.99396540                3.96901652               37.05749824                0.01000001               -0.09235741                0.23368493                0.15175106                0.65230894                0.15782561                0.14511452
               6.99242790                3.96923107               37.05957035                0.01174677               -0.22734710                0.44968292                0.15590551                0.54712923                0.08502345                0.18837958
               7.98941846                3.96679210               37.06050405                0.01000000               -0.33986607                0.52959016                0.15766062                0.30562356               -0.00139371                0.21101617
               8.98563058                3.96263269               37.06114171                0.01000000               -0.35892289                0.72617206                0.15765804                0.17117200               -0.02047645                0.26142067
               9.98224000                3.95995031               37.06203181                0.25105866               -0.33905840                0.68091061                0.16035121               -0.04107603               -0.01267130                0.24047305
              -0.00403864                4.97447718               37.04804846                0.55738461               -0.03913806               -0.02674107                0.12890300               -0.00397311               -0.00232082                0.01836888
               0.99556998                4.97044259               37.04862961                0.01000000                0.02535203               -0.05181950                0.13236289                0.08166455                0.06300008               -0.01594570
               1.99646840                4.96814797               37.05051687                0.01000001                0.10191725               -0.12469979                0.13695469                0.22363618                0.15372995               -0.05898948
               2.99760832                4.96742990               37.05277325                0.01000000                0.10199789               -0.14715575                0.14212028                0.32302618                0.17093350               -0.07494769
               3.99850836                4.96724055               37.05483877                0.01000001                0.09293468               -0.08055616                0.14739035                0.48893333                0.20605460               -0.00914325
               4.99946702                4.96873060               37.05765715                0.01000001                0.05902540                0.05166164                0.15358772                0.69837494                0.25925895                0.08158528
               5.99968886                4.97145601               37.06064013                0.01174154               -0.05343048                0.17276499                0.15997091                0.69005986                0.21950764                0.12671606
               6.99839841                4.97259753               37.06258443                0.01000000               -0.20148844                0.35205463                0.16402726                0.56838032                0.16253277                0.18336832
               7.99565910                4.97268190               37.06450918                0.01000001               -0.35844279                0.73894323                0.16806667                0.54416078                0.15738340                0.31021923
               8.99122955                4.97338648               37.06654797                0.01000000               -0.53164092                1.10677673                0.17252953                0.35725051                0.10079848                0.40005816
               9.98502628                4.97135619               37.06766701                0.29752582               -0.62032734                1.23375153                0.17596004                0.10199237                0.03005572                0.39512705
               0.00008292                5.97415984               37.04965825                0.76418601               -0.04048397               -0.03473352                0.13350407               -0.00178767               -0.00271510                0.01836660
               0.99967808                5.96996131               37.05006230                0.01000001                0.01419164               -0.04641139                0.13664041                0.04663904                0.04323799               -0.01680889
               2.00036675                5.96675822               37.05138515                0.01142233                0.08824740               -0.14683293                0.14053426                0.12524804                0.12031073               -0.12857005
               3.00144303                5.96546297               37.05319574                0.01000001                0.12267077               -0.20928969                0.14538478                0.30106892                0.21932940               -0.15670394
               4.00282017                5.96624945               37.05631881                0.01000001                0.12920285               -0.12988801                0.15227954                0.54137705                0.32129731               -0.03158320
               5.00402708                5.96901609               37.05994850                0.01174207                0.05397464               -0.03370515                0.16041053                0.66204424                0.31892843                0.01982542
               6.00389966                5.97247182               37.06279748                0.01000000               -0.07287322                0.10592228                0.16685868                0.69700550                0.29604732                0.09123073
               7.00256962                5.97627216               37.06589164                0.01000001               -0.21934680                0.45823632                0.17391672                0.78802654                0.32839192                0.25614002
               7.99951272                5.98157096               37.06940344                0.01000000               -0.42341580                0.90766695                0.18154707                0.73124742                0.29103074                0.41273610
               8.99410130                5.98476822               37.07190737                0.01067375               -0.55861510                1.17879812                0.18749643                0.41109318                0.15578589                0.44341682
               9.98834042                5.98462534               37.07310090                0.36523332               -0.57608818                1.24271905                0.19080822                0.17574027                0.06961285                0.42373946
               0.00432266                6.97378251               37.05126314                0.99999999               -0.04182944               -0.03930169                0.13805911               -0.00021229               -0.00251580                0.01917920
               1.00390437                6.96951436               37.05149233                0.29745437               -0.04254840               -0.04437541                0.14087055               -0.00334583               -0.01954985               -0.01748658
               2.00347169                6.96521131               37.05138070                0.01621690                0.01170523               -0.09928393                0.14304833                0.05535224                0.05537875               -0.10799928
               3.00413847                6.96324411               37.05310873                0.01000001                0.11555387               -0.17741643                0.14756023                0.26499096                0.28912967               -0.12673023
               4.00578277                6.96464279               37.05752487                0.01174976                0.11735273               -0.20116586                0.15661987                0.48288921                0.39579142               -0.11578550
               5.00648553                6.96805650               37.06104727                0.01000000                0.02950682               -0.10587755                0.16469252                0.63112060                0.38800541               -0.04500633
               6.00637291                6.97357446               37.06509659                0.01000001               -0.07128642                0.13293240                0.17471590                0.85539637                0.46456853                0.12872035
               7.00505980                6.98176226               37.06999195                0.01000000               -0.22924639                0.56475803                0.18624750                1.01444464                0.49869883                0.31811866
               8.00178798                6.99083524               37.07462320                0.01082102               -0.43313815                0.87527254                0.19708088                0.82108734                0.37603650                0.40212700
               8.99639704                6.99696244               37.07712399                0.01000002               -0.64805659                1.31115900                0.20157504                0.27945518                0.17994744                0.59889424
               9.98882685                6.99621057               37.07815435                0.48643402               -0.75701871                1.20303794                0.20298354                0.19033579                0.07824355                0.50409011
               0.00861497                7.97337380               37.05288687                0.99115193               -0.04326094               -0.04186562                0.14265296                0.00056122               -0.00498836                0.02305397
               1.00818236                7.96907380               37.05291311                0.89508845               -0.04354606               -0.04430739                0.14508055               -0.00084513               -0.01277357               -0.01173107
               2.00774405                7.96477255               37.05278372                0.01000000               -0.04354947               -0.04437400                0.14720813                0.07036816                0.06310947               -0.02951679
               3.00731137                7.96191464               37.05432766                0.01271388               -0.00392419               -0.15900924                0.15112273                0.24527870                0.22946785               -0.14341421
               4.00766557                7.96222613               37.05746019                0.01000551                0.02032252               -0.21432750                0.15744302                0.49551653                0.39531454               -0.20862068
               5.00771782                7.96689854               37.06211999                0.01000001               -0.01818720               -0.07715729                0.16890338                0.68663421                0.53958710               -0.02952556
               6.00730182                7.97513047               37.06789643                0.01000000               -0.10600474                0.14468779                0.18402209                0.92905018                0.62679518                0.12772420
               7.00559773                7.98756732               37.07403895                0.01083985               -0.32837677                0.43670673                0.19984227                1.04943600                0.56592518                0.24437716
               8.00073429                7.99907641               37.07843966                0.01000002               -0.56413260                1.08996003                0.20922634                0.94738590                0.55508547                0.48514184
               8.99431508                8.01099140               37.08450190                0.43317656               -0.35417050                0.66769377                0.22213971                0.49195631                0.31492246                0.38756896
               9.99365088                8.00868610               37.08422186                0.96066923               -0.06641996                0.59023942                0.22078473                0.12541968               -0.00193524                0.31131637
               0.01293390                8.97294520               37.05456842                1.00000000               -0.04451735               -0.04379234                0.14735908                0.00076220               -0.00069651                0.02168982
               1.01248872                8.96862822               37.05445883                0.99999998               -0.04478404               -0.04507885                0.14953597                0.00004181               -0.00071551               -0.00271788
               2.01203821                8.96432383               37.05434905                0.10881892               -0.04491314               -0.04557906                0.15171308                0.00151497               -0.01154091               -0.01931888
               3.01159046                8.96006393               37.05402308                0.01519100               -0.06645068               -0.11569673                0.15333094                0.22807976                0.14615239               -0.11510931
               4.01070920                8.96035624               37.05706513                0.01000000               -0.21382923               -0.06231291                0.15425993                0.48924701                0.50083526               -0.16146760
               5.00731387                8.96651335               37.06366991                0.01000000               -0.32120325                0.06053552                0.17433141                0.52497318                0.67144131               -0.02018738
               6.00428514                8.97646822               37.07007606                0.01074008               -0.26056473                0.11876305                0.19278851                0.60822369                0.64865160                0.06727424
               7.00210258                8.99049639               37.07616731                0.01000002               -0.34867593                0.20772752                0.20811107                1.14900372                0.76231311                0.10409356
               7.99731162                9.01263444               37.08468187                0.44452342               -0.27380510                0.64309501                0.22927262                0.93613948                0.43863835                0.33150481
               8.99662648                9.01031632               37.08428819                0.99999998               -0.06828823               -0.06835967                0.22782873                0.00000939               -0.00492841                0.00571538
               9.99594585                9.00801536               37.08392911                0.99193757               -0.06806249               -0.06790969                0.22642182               -0.00087840               -0.00312620               -0.00503087
               0.01726419                9.97249796               37.05616461                0.99487693               -0.04596193               -0.04472463                0.15191552                0.00045568                0.01770508                0.01741057
               1.01680457                9.96817222               37.05606018                1.00000000               -0.04627722               -0.04559956                0.15410318               -0.00026500                0.01770565                0.00004765
               2.01633864                9.96386097               37.05595614                0.71294166               -0.04820005               -0.04628689                0.15629022                0.00146704                0.02196214               -0.01724703
               3.01584057                9.95960071               37.05593721                0.21802642               -0.26687791               -0.04632185                0.15847500                0.28095625                0.14056226               -0.00417979
               4.01100108                9.96097988               37.05820858                0.25106747               -0.68676282                0.06236392                0.15813188                0.45461562                0.48055281               -0.08721494
               5.00210531                9.96810925               37.06504693                0.29662457               -0.77589157                0.15959045                0.17924852                0.30543636                0.66802849               -0.02545035
               5.99548325                9.97750573               37.07161801                0.36381525               -0.48468671                0.10375178                0.19943396                0.30044244                0.59543972                0.03624531
               6.99241158                9.99172187               37.07724524                0.48598312                0.20769504                0.12254759                0.21376373                0.75252851                0.62572206                0.05059756
               7.99963715               10.01193831               37.08433837                0.97408313                0.32613857               -0.06961319                0.23484375                1.12767047                0.37876191                0.00225896
               8.99893435               10.00962421               37.08402543                0.99193754               -0.07009648               -0.06921107                0.23346004                0.00026647                0.00609901                0.00325752
               9.99823522               10.00732790               37.08366705                1.00000000               -0.06991235               -0.06874592                0.23205243               -0.00069347                0.00369415               -0.00354948
              -0.02093107               -0.02591719               38.04118409                0.90690014               -0.03161099               -0.03164237                0.10574778                0.00149143               -0.00618235                0.00668626
               0.97875282               -0.02865784               38.04243049                0.63398258               -0.03020985               -0.03430177                0.10996522                0.00214633               -0.00672937               -0.00460541
               1.97846473               -0.03133126               38.04366414                0.39425838               -0.02202818               -0.03482949                0.11421616                0.00775401                0.00295647               -0.00211570
               2.97831225               -0.03374696               38.04509794                0.36018084               -0.01261530               -0.03636866                0.11868961                0.00361976                0.01891239               -0.00114745
               3.97821242               -0.03569537               38.04662657                0.42746379               -0.01582486               -0.03761285                0.12324812               -0.00481040                0.01982837               -0.00030995
               4.97799575               -0.03720871               38.04804629                0.55347531               -0.02661075               -0.03888715                0.12774965               -0.00378188                0.01071441               -0.00005253
               5.97768021               -0.03847520               38.04937240                0.75623577               -0.03448371               -0.04016360                0.13220326               -0.00168375                0.00402359                0.00010396
               6.97730608               -0.03962648               38.05064871                0.99999998               -0.03894901               -0.04144808                0.13660283               -0.00021095                0.00067385                0.00013469
               7.97690123               -0.04072604               38.05190412                0.99061211               -0.04142663               -0.04282270                0.14100376                0.00054249               -0.00067494                0.00056324
               8.97647755               -0.04179874               38.05315224                1.00000000               -0.04325466               -0.04402703                0.14549641                0.00072097               -0.00098342                0.00016813
               9.97603613               -0.04285873               38.05440125                0.99474470               -0.04414137               -0.04540930                0.14985344                0.00034754               -0.00098089               -0.00123415
              -0.01817551                0.97376639               38.04275437                0.63466138               -0.03431778               -0.03024325                0.11016928                0.00217524                0.00473132                0.00943062
               0.98148132                0.97099914               38.04399879                0.01315777               -0.03688319               -0.03695321                0.11438136                0.00495942                0.01083710               -0.00902318
               1.98108683                0.96832044               38.04536514                0.01000000               -0.04754049               -0.01455195                0.11863096                0.04543379                0.02521108               -0.00050681
               2.98053051                0.96588935               38.04690188                0.01000001               -0.05958198                0.02384438                0.12299719                0.10286235                0.03580046                0.01169119
               3.97989519                0.96392850               38.04850399                0.01000000               -0.05913277                0.04597710                0.12733177                0.13321973                0.03033706                0.01380630
               4.97934785                0.96240242               38.04996437                0.01000000               -0.05114663                0.05315970                0.13155862                0.13000350                0.01670346                0.01823860
               5.97887226                0.96112316               38.05131468                0.01000001               -0.04592305                0.07051620                0.13571506                0.07707137                0.00780617                0.02037223
               6.97842939                0.95995904               38.05260709                0.28231399               -0.04397379               -0.04218187                0.13982210               -0.00316373                0.00375494                0.00219177
               7.97799278                0.95884573               38.05388004                0.86733096               -0.04391449               -0.04318514                0.14388314               -0.00081996                0.00190372                0.00137917
               8.97755110                0.95776099               38.05513653                0.99999999               -0.04465938               -0.04436279                0.14813541                0.00002946                0.00060078                0.00015924
               9.97709959                0.95668718               38.05638386                0.99999998               -0.04515058               -0.04579345                0.15250426               -0.00034149                0.00011500               -0.00127313
              -0.01535307                1.97347795               38.04437766                0.39522093               -0.03489769               -0.02183228                0.11464532                0.00790923                0.00180558                0.01319567
               0.98429795                1.97060310               38.04547854                0.01000000               -0.00818652               -0.04810828                0.11880619                0.03932892                0.02775336               -0.01296415
               1.98448320                1.96837770               38.04709755                0.01000001                0.02317483                0.00009760                0.12399812                0.17051580                0.07031370                0.01120242
               2.98476145                1.96672992               38.04896215                0.01000000               -0.00597251                0.04988758                0.12797741                0.26295861                0.07579183                0.02424723
               3.98436374                1.96522417               38.05066346                0.01000000               -0.06801419                0.11938500                0.13226812                0.33085291                0.06043681                0.04047905
               4.98340116                1.96385449               38.05224828                0.01000001               -0.13493630                0.15072584                0.13626479                0.35543539                0.04221206                0.04271754
               5.98166502                1.96293512               38.05366250                0.01141934               -0.19404636                0.19833913                0.13976006                0.18957943                0.00309676                0.05660447
               6.97952023                1.95952988               38.05460686                0.01621161               -0.12910712                0.09131545                0.14249018                0.06242079               -0.01285698                0.03742201
               7.97908288                1.95841026               38.05587275                0.01000000               -0.04417733                0.06887784                0.14647548                0.08082002                0.00237674                0.03610934
               8.97863669                1.95731400               38.05712131                0.09690988               -0.04529790               -0.04326481                0.15076518                0.00175887                0.00137122                0.00160222
               9.97817692                1.95622541               38.05836673                0.70471904               -0.04597690               -0.04670410                0.15515227                0.00066158                0.00120812               -0.00114896
              -0.01226762                2.97332974               38.04601701                0.36119829               -0.03642424               -0.01191410                0.11932580                0.00366206               -0.00004418                0.01617681
               0.98736814                2.97003698               38.04697213                0.01000001                0.03189660               -0.06096320                0.12335016                0.08114600                0.05107954               -0.01315776
               1.98837032                2.96832240               38.04894944                0.01000000                0.07875339               -0.03912536                0.12817334                0.22695071                0.10614178                0.00644894
               2.98894321                2.96688710               38.05087511                0.01000000                0.05086844                0.00094443                0.13285250                0.33381702                0.11222759                0.01943188
               3.98938768                2.96631620               38.05288816                0.01197044               -0.00988020                0.04905824                0.13745025                0.39525345                0.09770238                0.02943054
               4.98874561                2.96541694               38.05446700                0.01000000               -0.11996163                0.12522192                0.14152806                0.45264297                0.07749164                0.05154897
               5.98698845                2.96508994               38.05612166                0.01000001               -0.22714681                0.22662732                0.14468998                0.40326360                0.04765546                0.09660522
               6.98420267                2.96178535               38.05727041                0.01000001               -0.25816964                0.40880504                0.14704456                0.36830884                0.01578933                0.14254724
               7.98182506                2.96022329               38.05854309                0.01273833               -0.22157707                0.33697905                0.15089376                0.23112530               -0.02161082                0.12216651
               8.97977113                2.95689569               38.05913448                0.01517636               -0.12675192                0.17217667                0.15292128                0.07647655               -0.03134258                0.08165556
               9.97929002                2.95575310               38.06035235                0.21759325               -0.04811071                0.08310795                0.15782294                0.03699858               -0.00001856                0.06359744
              -0.00869430                3.97323967               38.04767902                0.42930991               -0.03774863               -0.01502772                0.12411071               -0.00522970               -0.00191965                0.01835578
               0.99092822                3.96938383               38.04846651                0.01000000                0.04331908               -0.06070951                0.12790001                0.09678080                0.06336841               -0.01462453
               1.99217208                3.96759519               38.05055948                0.01000000                0.12578841               -0.09315776                0.13266952                0.24556876                0.14159380               -0.02106777
               2.99344398                3.96674881               38.05275431                0.01197083                0.07834467               -0.05686913                0.13769611                0.34034406                0.13969446               -0.00186625
               3.99373898                3.96620533               38.05465251                0.01000000                0.01181454               -0.03660515                0.14226844                0.41664802                0.13595860                0.00368863
               4.99368027                3.96635893               38.05671769                0.01000001               -0.01885472                0.08802344                0.14694857                0.58295669                0.15661802                0.07200640
               5.99336188                3.96746767               38.05901402                0.01000001               -0.09636049                0.24834689                0.15146322                0.68809001                0.15796982                0.14924509
               6.99175307                3.96770598               38.06112701                0.01175036               -0.23834232                0.47346370                0.15548096                0.57750738                0.08339202                0.19344948
               7.98859504                3.96514984               38.06207895                0.01001727               -0.35583285                0.55467886                0.15725745                0.32290982               -0.00541617                0.21656467
               8.98463641                3.96075754               38.06271557                0.01000000               -0.36964802                0.75432013                0.15702743                0.18032253               -0.02440714                0.26754710
               9.98120208                3.95788756               38.06363195                0.25135308               -0.34343320                0.69986670                0.15974143               -0.04206082               -0.01433660                0.24526432
              -0.00466054                4.97302919               38.04933701                0.55727624               -0.03912295               -0.02623529                0.12881049               -0.00413685               -0.00236822                0.01876381
               0.99494823                4.96882279               38.04995294                0.01000000                0.02886244               -0.05224024                0.13230304                0.08664480                0.06349424               -0.01617347
               1.99591671                4.96645924               38.05188581                0.01000001                0.10958598               -0.12889861                0.13685639                0.23712958                0.15512187               -0.05959367
               2.99713995                4.96574972               38.05419354                0.01000000                0.10969116               -0.15217342                0.14198342                0.34179224                0.17274195               -0.07540834
               3.99811053                4.96558410               38.05631163                0.01000001                0.10012275               -0.08180584                0.14724776                0.51658901                0.20842137               -0.00825017
               4.99914241                4.96717741               38.05919153                0.01000001                0.06463318                0.05705471                0.15337193                0.73784192                0.26209913                0.08453347
               5.99940320                4.97005688               38.06223759                0.01174238               -0.05358794                0.18353532                0.15963619                0.72954649                0.22111961                0.13096511
               6.99807065                4.97125462               38.06422170                0.01000000               -0.20857478                0.37036680                0.16355007                0.60222451                0.16267715                0.18920636
               7.99523170                4.97131687               38.06618693                0.01000001               -0.37153974                0.77371432                0.16739157                0.57672636                0.15751215                0.31844234
               8.99063985                4.97198210               38.06827020                0.01000000               -0.55214757                1.15689732                0.17166472                0.37969119                0.10074466                0.41023744
               9.98418875                4.96975043               38.06942306                0.29772806               -0.64511027                1.28536393                0.17531716                0.10829343                0.02950165                0.40593395
              -0.00036423                5.97271496               38.05099296                0.76405895               -0.04047121               -0.03451920                0.13344079               -0.00186556               -0.00276787                0.01871048
               0.99923106                5.96833903               38.05142850                0.01000001                0.01759848               -0.04657715                0.13659957                0.04949068                0.04354419               -0.01712535
               1.99998774                5.96501722               38.05279003                0.01142286                0.09619575               -0.15258681                0.14045684                0.13262953                0.12155343               -0.13017855
               3.00115498                5.96370535               38.05464891                0.01000001                0.13276636               -0.21816911                0.14528935                0.31782004                0.22223621               -0.15851550
               4.00264307                5.96456922               38.05784048                0.01000001                0.14046758               -0.13465127                0.15213612                0.57222035                0.32597929               -0.03122255
               5.00396433                5.96750002               38.06155112                0.01174388                0.06162651               -0.03390995                0.16022020                0.69982181                0.32352988                0.02155387
               6.00387560                5.97113837               38.06446387                0.01000000               -0.07133783                0.11182321                0.16654859                0.73738486                0.30003250                0.09517594
               7.00253757                5.97511332               38.06762812                0.01000001               -0.22367553                0.47990466                0.17348406                0.83455092                0.33295147                0.26402198
               7.99940209                5.98062412               38.07121571                0.01000000               -0.43704528                0.95032422                0.18092548                0.77635385                0.29503177                0.42378043
               8.99379666                5.98389548               38.07377936                0.01069615               -0.57854105                1.23246220                0.18689215                0.43790559                0.15751619                0.45396772
               9.98783127                5.98359484               38.07500626                0.36539051               -0.59653970                1.29527048                0.19025798                0.18938738                0.07045702                0.43218917
               0.00405402                6.97233881               38.05264357                0.99999999               -0.04182334               -0.03922261                0.13802773               -0.00023486               -0.00256405                0.01952160
               1.00363578                6.96789124               38.05290094                0.29737532               -0.04255182               -0.04443214                0.14085227               -0.00344027               -0.01991984               -0.01783920
               2.00320298                6.96340751               38.05281109                0.01621618                0.01542855               -0.10242667                0.14302359                0.05812928                0.05584412               -0.10956177
               3.00394436                6.96138634               38.05458399                0.01000001                0.12786414               -0.18539008                0.14751328                0.27924266                0.29318155               -0.12876942
               4.00576026                6.96289107               38.05908984                0.01175361                0.13126647               -0.21126381                0.15646064                0.50917456                0.40204018               -0.11781491
               5.00656968                6.96649921               38.06269255                0.01000000                0.03886655               -0.11164833                0.16448891                0.66639430                0.39496295               -0.04507100
               6.00653760                6.97229335               38.06684203                0.01000001               -0.06468851                0.13795820                0.17448071                0.90419798                0.47347802                0.13362788
               7.00527591                6.98085271               38.07185243                0.01000000               -0.22804916                0.58968932                0.18593376                1.07380980                0.50822200                0.32780329
               8.00197661                6.99032335               38.07659237                0.01083840               -0.44243350                0.91263025                0.19676980                0.87156812                0.38228061                0.41284259
               8.99642724                6.99663134               38.07913546                0.01000002               -0.66994176                1.36807328                0.20070999                0.30578642                0.18181249                0.61135193
               9.98857778                6.99565584               38.08017870                0.48666425               -0.78494675                1.26443970                0.20187656                0.20680302                0.07921884                0.51175452
               0.00852620                7.97193051               38.05431339                0.99113144               -0.04326451               -0.04183867                0.14265371                0.00056338               -0.00508892                0.02347220
               1.00809356                7.96745038               38.05436394                0.89516137               -0.04354834               -0.04432938                0.14508452               -0.00086702               -0.01302609               -0.01197040
               2.00765523                7.96296869               38.05425583                0.01000000               -0.04186455               -0.04437867                0.14720856                0.07369403                0.06357645               -0.03009351
               3.00725626                7.95999754               38.05583844                0.01274430                0.00292279               -0.16521815                0.15104562                0.25569621                0.23220997               -0.14568045
               4.00771369                7.96034394               38.05903384                0.01002560                0.03168365               -0.22766552                0.15729681                0.51971788                0.40223688               -0.21502601
               5.00788994                7.96526705               38.06380646                0.01000001               -0.00538176               -0.08390535                0.16846616                0.72510556                0.55157142               -0.02966163
               6.00760605                7.97389754               38.06973551                0.01000000               -0.09530881                0.14828397                0.18392487                0.98114389                0.64141907                0.13281162
               7.00598376                7.98690710               38.07603749                0.01085600               -0.32756141                0.45299486                0.19996002                1.10631382                0.57802202                0.25206544
               8.00105483                7.99887673               38.08052909                0.01000002               -0.57019299                1.13245165                0.20870621                1.00088491                0.56614925                0.49671637
               8.99457990                8.01125695               38.08671873                0.43319090               -0.35682526                0.69761820                0.22120629                0.52700873                0.32191557                0.39491493
               9.99391832                8.00888364               38.08642588                0.96070538               -0.06615805                0.62791993                0.22000348                0.14781144               -0.00194190                0.31730925
               0.01302554                8.97150203               38.05604218                1.00000000               -0.04452700               -0.04379181                0.14739439                0.00076900               -0.00071516                0.02208783
               1.01258027                8.96700466               38.05595436                0.99999998               -0.04479164               -0.04509390                0.14956765                0.00004328               -0.00073436               -0.00277667
               2.01212970                8.96251993               38.05586634                0.10890270               -0.04486193               -0.04558857                0.15174121                0.00162508               -0.01183791               -0.01968330
               3.01168303                8.95808197               38.05555655                0.01543005               -0.06222953               -0.11894131                0.15335558                0.23360826                0.14512519               -0.11663141
               4.01088511                8.95833776               38.05860551                0.01000000               -0.20824139               -0.07061090                0.15384600                0.51364155                0.50933450               -0.16712559
               5.00751820                8.96482110               38.06541125                0.01000000               -0.31823447                0.05916569                0.17398151                0.55529171                0.68974506               -0.02027706
               6.00452042                8.97525903               38.07200461                0.01076091               -0.25475997                0.12028590                0.19301782                0.64099734                0.66498419                0.07087324
               7.00242300                8.98991261               38.07824764                0.01000002               -0.34379784                0.21082578                0.20803606                1.20202878                0.78034707                0.10657617
               7.99764447                9.01297238               38.08697241                0.44416133               -0.27312442                0.66999763                0.22882323                0.98290615                0.44977040                0.33863538
               8.99696051                9.01058370               38.08656505                0.99999997               -0.06819182               -0.06827004                0.22753508                0.00000667               -0.00496849                0.00577148
               9.99628063                9.00821424               38.08619262                0.99211230               -0.06798818               -0.06786986                0.22627927               -0.00097663               -0.00314569               -0.00504579
               0.01753633                9.97105467               38.05768408                0.99474686               -0.04598130               -0.04473595                0.15198037                0.00046314                0.01803153                0.01773123
               1.01707652                9.96654851               38.05760152                1.00000000               -0.04629588               -0.04561497                0.15416449               -0.00026229                0.01803142                0.00004569
               2.01661042                9.96205692               38.05751935                0.71300512               -0.04829595               -0.04630159                0.15634808                0.00158192                0.02229144               -0.01757235
               3.01611060                9.95761872               38.05752234                0.21829189               -0.26815116               -0.04632570                0.15854389                0.28649782                0.13947184               -0.00424842
               4.01124739                9.95893172               38.05978733                0.25133481               -0.70180480                0.05939631                0.15768137                0.47781060                0.48997461               -0.08985529
               5.00207451                9.96645037               38.06683897                0.29673755               -0.79564508                0.16292659                0.17919146                0.32420732                0.68761705               -0.02587969
               5.99533449                9.97630326               38.07361414                0.36384716               -0.48817640                0.10442304                0.19984868                0.31506948                0.61181104                0.03836329
               6.99231098                9.99112362               38.07938150                0.48605165                0.23536825                0.12110088                0.21353553                0.78746911                0.64379682                0.05080872
               8.00004186               10.01227668               38.08668772                0.97373688                0.35135995               -0.06957024                0.23502479                1.17813547                0.39012429                0.00227888
               8.99933818               10.00989155               38.08636171                0.99211362               -0.07020729               -0.06921552                0.23379904                0.00024444                0.00613848                0.00328435
               9.99863771               10.00752624               38.08598998                1.00000000               -0.07004660               -0.06880020                0.23254266               -0.00082271                0.00371618               -0.00357032
              -0.02226043               -0.02744264               39.04224059                0.90635728               -0.03151905               -0.03154721                0.10555117                0.00150924               -0.00618879                0.00669935
               0.97742438               -0.03029433               39.04352939                0.63318877               -0.03000148               -0.03429263                0.10981201                0.00224251               -0.00671526               -0.00461587
               1.97713955               -0.03307554               39.04480578                0.39395449               -0.02124874               -0.03478926                0.11410939                0.00818590                0.00311784               -0.00212493
               2.97699941               -0.03558404               39.04628455                0.36015423               -0.01117689               -0.03634284                0.11862744                0.00377342                0.01928182               -0.00117370
               3.97691601               -0.03759650               39.04785896                0.42749150               -0.01449057               -0.03759690                0.12322123               -0.00517008                0.02025927               -0.00035223
               4.97670960               -0.03914655               39.04932386                0.55352522               -0.02585329               -0.03888417                0.12775082               -0.00407376                0.01111520               -0.00009644
               5.97639894               -0.04043424               39.05069457                0.75640652               -0.03414553               -0.04016796                0.13222418               -0.00183806                0.00438390                0.00005419
               6.97602669               -0.04159984               39.05201495                0.99999998               -0.03882653               -0.04145889                0.13664839               -0.00026326                0.00101728                0.00008822
               7.97562241               -0.04271114               39.05331459                0.99062184               -0.04139542               -0.04284852                0.14109606                0.00054495               -0.00027725                0.00047436
               8.97519878               -0.04379466               39.05460796                1.00000000               -0.04327475               -0.04406121                0.14565159                0.00073401               -0.00061371                0.00014555
               9.97475692               -0.04486550               39.05590081                0.99460870               -0.04418632               -0.04545892                0.15006017                0.00037489               -0.00068583               -0.00093077
              -0.01939364                0.97224189               39.04385521                0.63383979               -0.03430993               -0.03003633                0.10999850                0.00226969                0.00473795                0.00947241
               0.98026326                0.96936275               39.04514197                0.01290947               -0.03700502               -0.03705543                0.11425379                0.00524976                0.01085966               -0.00903046
               1.97986626                0.96657657               39.04655103                0.01000000               -0.04828187               -0.01236583                0.11854572                0.04877716                0.02529159               -0.00002420
               2.97929762                0.96405253               39.04813164                0.01000001               -0.06103482                0.02744138                0.12295223                0.10838238                0.03585654                0.01200094
               3.97864556                0.96202753               39.04977725                0.01000000               -0.06049446                0.05066551                0.12731540                0.14000040                0.03026375                0.01418543
               4.97808773                0.96046461               39.05128002                0.01000000               -0.05191783                0.05789311                0.13155891                0.13644183                0.01651969                0.01863458
               5.97760721                0.95916408               39.05267189                0.01000001               -0.04626145                0.07570750                0.13571697                0.08080637                0.00755772                0.02057585
               6.97716250                0.95798557               39.05400533                0.28263018               -0.04409685               -0.04220209                0.13982493               -0.00336073                0.00345826                0.00185210
               7.97672527                0.95686037               39.05531894                0.86790568               -0.04396041               -0.04319499                0.14390241               -0.00086439                0.00168220                0.00113653
               8.97628330                0.95576473               39.05661820                0.99999999               -0.04468832               -0.04437965                0.14820039                0.00003462                0.00053498                0.00013178
               9.97583150                0.95467991               39.05790951                0.99999998               -0.04517937               -0.04582941                0.15262181               -0.00032103                0.00010788               -0.00096712
              -0.01645674                1.97195664               39.04552336                0.39486934               -0.03485598               -0.02113831                0.11449847                0.00830151                0.00180026                0.01338089
               0.98319470                1.96896456               39.04666610                0.01000000               -0.00589807               -0.04869138                0.11870508                0.04248480                0.02827432               -0.01292554
               1.98342530                1.96667715               39.04833747                0.01000001                0.02606949                0.00290405                0.12399168                0.17972144                0.07105816                0.01189715
               2.98371609                1.96496479               39.05024167                0.01000000               -0.00606798                0.05561783                0.12794394                0.27593098                0.07583956                0.02497243
               3.98330394                1.96341681               39.05198593                0.01000000               -0.07071000                0.12844298                0.13224849                0.34747859                0.06033682                0.04151828
               4.98230189                1.96201131               39.05361069                0.01000001               -0.14049171                0.16072033                0.13623809                0.37290636                0.04154142                0.04388739
               5.98049411                1.96107991               39.05505968                0.01141926               -0.20193569                0.20994105                0.13969392                0.19890965                0.00163249                0.05750862
               6.97826318                1.95755612               39.05603119                0.01621087               -0.13340715                0.09745493                0.14237741                0.06541471               -0.01421386                0.03773157
               7.97782596                1.95642496               39.05733706                0.01000000               -0.04416241                0.07334306                0.14639384                0.08441612                0.00181154                0.03661486
               8.97737993                1.95531775               39.05862885                0.09692431               -0.04529191               -0.04314183                0.15073957                0.00189368                0.00101464                0.00131297
               9.97692013                1.95421791               39.05991846                0.70465951               -0.04598043               -0.04676032                0.15518369                0.00078755                0.00090331               -0.00084056
              -0.01324346                2.97181913               39.04720962                0.36111103               -0.03640902               -0.01074338                0.11919811                0.00380770               -0.00007464                0.01656647
               0.98639245                2.96838892               39.04820522                0.01000001                0.03519617               -0.06200800                0.12326579                0.08616565                0.05144117               -0.01311701
               1.98746046                2.96663465               39.05023082                0.01000000                0.08420628               -0.03913243                0.12811762                0.23880413                0.10692154                0.00651746
               2.98807657                2.96516489               39.05220332                0.01000000                0.05440750                0.00427709                0.13281931                0.35107939                0.11293135                0.02021416
               3.98854861                2.96459639               39.05426225                0.01197052               -0.00969032                0.05470312                0.13741353                0.41540868                0.09796820                0.03053098
               4.98788277                2.96367901               39.05588187                0.01000000               -0.12540091                0.13435750                0.14148981                0.47552562                0.07684227                0.05316971
               5.98604059                2.96336290               39.05756776                0.01000001               -0.23785097                0.24027930                0.14456136                0.42385108                0.04577877                0.09898542
               6.98312575                2.95993467               39.05873977                0.01000001               -0.26943167                0.42963252                0.14684295                0.38659900                0.01397326                0.14578119
               7.98065196                2.95832723               39.06005088                0.01277074               -0.22987677                0.35272968                0.15065746                0.24314165               -0.02374274                0.12455485
               8.97852821                2.95490189               39.06066269                0.01542001               -0.13025202                0.17650766                0.15274590                0.08134891               -0.03286728                0.08201222
               9.97804692                2.95374471               39.06193010                0.21784521               -0.04812928                0.07834865                0.15774021                0.04430087               -0.00010876                0.06344651
              -0.00952017                3.97174177               39.04891957                0.42925233               -0.03773415               -0.01403021                0.12399962               -0.00545649               -0.00196684                0.01880675
               0.99010249                3.96772440               39.04974515                0.01000000                0.04727897               -0.06158921                0.12782499                0.10256718                0.06380055               -0.01471342
               1.99142541                3.96589450               39.05188577                0.01000000                0.13367227               -0.09545494                0.13261101                0.25978486                0.14272871               -0.02108809
               2.99277594                3.96505033               39.05413088                0.01197090                0.08362894               -0.05688747                0.13766609                0.35885723                0.14077500               -0.00139264
               3.99309799                3.96451088               39.05607474                0.01000000                0.01349821               -0.03544109                0.14223560                0.43891559                0.13676096                0.00471428
               4.99304590                3.96469846               39.05818655                0.01000001               -0.01912580                0.09544125                0.14688769                0.61374417                0.15716004                0.07432921
               5.99271547                3.96588549               39.06052750                0.01000001               -0.10075384                0.26312853                0.15130924                0.72454006                0.15778923                0.15342380
               6.99103082                3.96614877               39.06267997                0.01175516               -0.24969508                0.49729433                0.15515632                0.60854603                0.08138063                0.19852622
               7.98772157                3.96347955               39.06364920                0.01003995               -0.37206945                0.57933758                0.15679982                0.34040025               -0.00990960                0.22175768
               8.98358943                3.95884790               39.06428226                0.01000000               -0.38005298                0.78127786                0.15631519                0.18927214               -0.02866881                0.27318790
               9.98012051                3.95578489               39.06522663                0.25165918               -0.34689212                0.71779277                0.15921750               -0.04311701               -0.01609436                0.25007200
              -0.00531786                4.97153852               39.05062467                0.55718056               -0.03910772               -0.02571396                0.12872265               -0.00430602               -0.00241682                0.01916388
               0.99429107                4.96715713               39.05127567                0.01000000                0.03240445               -0.05268058                0.13224176                0.09182196                0.06396509               -0.01641565
               1.99533023                4.96472555               39.05325400                0.01000001                0.11731370               -0.13325622                0.13680649                0.25110012                0.15645424               -0.06018596
               2.99663734                4.96402714               39.05561292                0.01000000                0.11742808               -0.15740599                0.14194560                0.36116901                0.17448501               -0.07580551
               3.99767879                4.96388757               39.05778372                0.01000001                0.10728475               -0.08320434                0.14724939                0.54501269                0.21066544               -0.00725034
               4.99878303                4.96558784               39.06072459                0.01000001                0.07011481                0.06238447                0.15335544                0.77831450                0.26469072                0.08763647
               5.99908109                4.96862547               39.06383285                0.01174604               -0.05402117                0.19427086                0.15950650                0.77002766                0.22235409                0.13538081
               6.99770261                4.96988055               39.06585543                0.01000000               -0.21601289                0.38865499                0.16323306                0.63672506                0.16223976                0.19511965
               7.99476083                4.96991398               39.06785702                0.01000001               -0.38471459                0.80807916                0.16668468                0.60937232                0.15693131                0.32657899
               8.99000832                4.97052745               39.06998127                0.01000000               -0.57251126                1.20672116                0.17061437                0.40291111                0.10040071                0.42052850
               9.98331061                4.96810056               39.07117335                0.29794157               -0.66977126                1.33642934                0.17465397                0.11607323                0.02913726                0.41669175
              -0.00084351                5.97122749               39.05232706                0.76395191               -0.04045881               -0.03430023                0.13338226               -0.00194584               -0.00282202                0.01906460
               0.99875190                5.96667079               39.05279429                0.01000001                0.02104596               -0.04674985                0.13655752                0.05246322                0.04382896               -0.01745086
               1.99957741                5.96322937               39.05419428                0.01142215                0.10426978               -0.15856377                0.14042868                0.14033598                0.12276423               -0.13177738
               3.00083730                5.96190221               39.05610152                0.01000001                0.14300690               -0.22739710                0.14530083                0.33517151                0.22510677               -0.16026779
               4.00243755                5.96284679               39.05936153                0.01000001                0.15184991               -0.13972185                0.15219128                0.60400803                0.33055498               -0.03075210
               5.00387429                5.96594615               39.06315290                0.01174660                0.06928833               -0.03440528                0.16030566                0.73868440                0.32787572                0.02346804
               6.00382331                5.96977091               39.06612845                0.01000000               -0.06987424                0.11749535                0.16649254                0.77886089                0.30360629                0.09932080
               7.00247681                5.97392187               39.06936132                0.01000001               -0.22805936                0.50142026                0.17321325                0.88207559                0.33694192                0.27202090
               7.99926212                5.97964113               39.07302195                0.01000000               -0.45078650                0.99323665                0.18032541                0.82250962                0.29848421                0.43500075
               8.99346108                5.98298232               39.07564521                0.01072456               -0.59831865                1.28613308                0.18617461                0.46554858                0.15890376                0.46450897
               9.98729575                5.98251347               39.07690606                0.36555418               -0.61653274                1.34627410                0.18962504                0.20382136                0.07113288                0.44018046
               0.00375662                6.97085252               39.05402370                0.99999999               -0.04181762               -0.03914298                0.13800070               -0.00025801               -0.00261349                0.01987589
               1.00333845                6.96622214               39.05430937                0.29730736               -0.04255464               -0.04449063                0.14083244               -0.00353686               -0.02030153               -0.01819889
               2.00290553                6.96155428               39.05424118                0.01621588                0.01924521               -0.10569756                0.14299334                0.06103704                0.05629446               -0.11113330
               3.00372335                6.95947920               39.05605899                0.01000001                0.14047412               -0.19368664                0.14752699                0.29395643                0.29719345               -0.13082139
               4.00571501                6.96109314               39.06065408                0.01175908                0.14546246               -0.22184230                0.15652759                0.53626339                0.40819379               -0.11980568
               5.00663260                6.96489973               39.06433705                0.01000000                0.04837887               -0.11797705                0.16456585                0.70277615                0.40173923               -0.04510349
               6.00668259                6.97097538               39.06858620                0.01000001               -0.05793516                0.14266080                0.17452819                0.95425483                0.48204006                0.13880749
               7.00547390                6.97990896               39.07371062                0.01000000               -0.22660122                0.61457771                0.18581890                1.13455626                0.51731448                0.33780649
               8.00215057                6.98977872               39.07855859                0.01086043               -0.45134740                0.94947813                0.19653625                0.92275288                0.38786335                0.42351978
               8.99644695                6.99625011               39.08113819                0.01000002               -0.69129170                1.42388935                0.19982132                0.33214223                0.18297370                0.62327499
               9.98832473                6.99502604               39.08219188                0.48690454               -0.81222176                1.32524435                0.20065287                0.22269234                0.07980736                0.51876981
               0.00841209                7.97044463               39.05573994                0.99111004               -0.04326855               -0.04181243                0.14265886                0.00056560               -0.00519165                0.02390370
               1.00797940                7.96578098               39.05581480                0.89522853               -0.04355014               -0.04435158                0.14508694               -0.00088940               -0.01328448               -0.01221403
               2.00754109                7.96111542               39.05572789                0.01000000               -0.04009194               -0.04438158                0.14720147                0.07706173                0.06400771               -0.03068126
               3.00717756                7.95802848               39.05734857                0.01277685                0.01005959               -0.17159010                0.15101067                0.26624823                0.23484802               -0.14794713
               4.00774228                7.95840994               39.06060613                0.01004920                0.04350056               -0.24164514                0.15724230                0.54421499                0.40886420               -0.22159387
               5.00804758                7.96358661               39.06548931                0.01000001                0.00784519               -0.09122143                0.16832205                0.76456315                0.56335264               -0.02969165
               6.00789918                7.97262413               39.07157493                0.01000000               -0.08414918                0.15158366                0.18412873                1.03463272                0.65604330                0.13824253
               7.00636459                7.98621342               39.07803816                0.01087813               -0.32615753                0.46874735                0.20030014                1.16371940                0.58958691                0.25985850
               8.00137603                7.99863070               39.08261379                0.01000002               -0.57539977                1.17349038                0.20828687                1.05428701                0.57639266                0.50792001
               8.99485660                8.01146011               39.08892602                0.43319324               -0.35891500                0.72693292                0.22023983                0.56238042                0.32859151                0.40190668
               9.99419773                8.00901836               39.08862193                0.96072309               -0.06588656                0.66621528                0.21919587                0.17097757               -0.00195157                0.32314520
               0.01309524                8.97001627               39.05751631                1.00000000               -0.04453708               -0.04379245                0.14743427                0.00077588               -0.00073386                0.02249769
               1.01264987                8.96533510               39.05745019                0.99999998               -0.04479872               -0.04510867                0.14959774                0.00004478               -0.00075331               -0.00283582
               2.01219927                8.96066664               39.05738388                0.10896271               -0.04480378               -0.04559579                0.15176154                0.00174292               -0.01213454               -0.02005659
               3.01175379                8.95604740               39.05709019                0.01568177               -0.05790425               -0.12221620                0.15336555                0.23890239                0.14390090               -0.11813649
               4.01104118                8.95626023               39.06014205                0.01000000               -0.20220563               -0.07954028                0.15348295                0.53847883                0.51768327               -0.17299581
               5.00770968                8.96307530               39.06714954                0.01000000               -0.31463736                0.05748120                0.17386764                0.58650379                0.70824481               -0.02006117
               6.00474843                8.97400705               39.07393642                0.01078602               -0.24839831                0.12148985                0.19352059                0.67431812                0.68129627                0.07475719
               7.00274172                8.98928391               39.08032804                0.01000002               -0.33794088                0.21284531                0.20816478                1.25454113                0.79776767                0.10871859
               7.99798962                9.01324853               39.08925834                0.44379835               -0.27174109                0.69612907                0.22835589                1.02941296                0.46059471                0.34545356
               8.99730689                9.01078877               39.08883890                0.99999997               -0.06809169               -0.06817687                0.22722993                0.00000409               -0.00500573                0.00583396
               9.99662778                9.00835035               39.08845469                0.99228930               -0.06791109               -0.06782868                0.22613174               -0.00107827               -0.00316569               -0.00505656
               0.01778993                9.96956878               39.05920422                0.99461087               -0.04600106               -0.04474863                0.15204969                0.00047159                0.01836709                0.01806111
               1.01732992                9.96487881               39.05914347                1.00000000               -0.04631403               -0.04562993                0.15422408               -0.00025857                0.01836631                0.00004433
               2.01686365                9.96020351               39.05908310                0.71303893               -0.04839494               -0.04631393                0.15639803                0.00170607                0.02263732               -0.01790573
               3.01636202                9.95558415               39.05910809                0.21856913               -0.26898537               -0.04632421                0.15859866                0.29160460                0.13817621               -0.00431889
               4.01148395                9.95681914               39.06136221                0.25161495               -0.71655946                0.05589052                0.15734393                0.50188039                0.49928290               -0.09251101
               5.00203084                9.96473623               39.06863076                0.29685854               -0.81535019                0.16609291                0.17922204                0.34385456                0.70757157               -0.02598353
               5.99517694                9.97505392               39.07561499                0.36388316               -0.49084482                0.10468737                0.20045249                0.32955541                0.62806227                0.04065055
               6.99221394                9.99047033               39.08151595                0.48612738                0.26412431                0.11864203                0.21344270                0.82219004                0.66168346                0.05060166
               8.00045943               10.01255328               39.08903887                0.97338206                0.37704576               -0.06952473                0.23520857                1.22829343                0.40159586                0.00229653
               8.99975485               10.01009657               39.08870142                0.99228956               -0.07032121               -0.06921956                0.23414750                0.00022147                0.00618322                0.00331205
               9.99905300               10.00766179               39.08831790                1.00000000               -0.07018498               -0.06885622                0.23304886               -0.00095649                0.00373947               -0.00359105
              -0.02363244               -0.02901244               40.04329512                0.90579945               -0.03142424               -0.03144993                0.10535498                0.00152738               -0.00619260                0.00671079
               0.97605332               -0.03197533               40.04462673                0.63237816               -0.02978219               -0.03428510                0.10965631                0.00234531               -0.00669719               -0.00462525
               1.97577192               -0.03486426               40.04594633                0.39364633               -0.02043011               -0.03474632                0.11399672                0.00864282                0.00328369               -0.00213349
               2.97564471               -0.03746462               40.04747049                0.36013730               -0.00968060               -0.03631324                0.11855564                0.00393371                0.01965400               -0.00120035
               3.97557830               -0.03953900               40.04909099                0.42753242               -0.01311364               -0.03757690                0.12317947               -0.00553778                0.02069149               -0.00039866
               4.97538244               -0.04112295               40.05060131                0.55358882               -0.02507563               -0.03887617                0.12773408               -0.00437074                0.01151512               -0.00014512
               5.97507679               -0.04242875               40.05201688                0.75659492               -0.03380158               -0.04016863                0.13223731               -0.00199461                0.00474518                0.00000066
               6.97470641               -0.04360547               40.05338168                0.99999998               -0.03870576               -0.04146926                0.13670103               -0.00031671                0.00137253                0.00003854
               7.97430268               -0.04472526               40.05472604                0.99063496               -0.04136821               -0.04287488                0.14119905                0.00054500                0.00014755                0.00037758
               8.97387905               -0.04581631               40.05606527                1.00000000               -0.04329852               -0.04409486                0.14581405                0.00074526               -0.00021253                0.00012180
               9.97343671               -0.04689473               40.05740245                0.99446552               -0.04423409               -0.04550770                0.15026952                0.00040219               -0.00036387               -0.00060195
              -0.02065427                0.97067306               40.04495434                0.63300519               -0.03430442               -0.02982031                0.10982886                0.00237052                0.00474392                0.00951212
               0.97900268                0.96768182               40.04628387                0.01265365               -0.03713697               -0.03716664                0.11412443                0.00556119                0.01088178               -0.00903662
               1.97860299                0.96478828               40.04773606                0.01000000               -0.04906302               -0.00999395                0.11845717                0.05236493                0.02537118                0.00049018
               2.97802142                0.96217225               40.04936093                0.01000001               -0.06254473                0.03111581                0.12290138                0.11410043                0.03590657                0.01231294
               3.97735209                0.96008523               40.05105030                0.01000000               -0.06189079                0.05542699                0.12728685                0.14696011                0.03017151                0.01456454
               4.97678361                0.95848829               40.05259555                0.01000000               -0.05269957                0.06266675                0.13154052                0.14300690                0.01629912                0.01902648
               5.97629810                0.95716957               40.05402902                0.01000001               -0.04660532                0.08090848                0.13570614                0.08459644                0.00726200                0.02076151
               6.97585150                0.95597984               40.05540359                0.28294951               -0.04422755               -0.04222313                0.13982837               -0.00357026                0.00312027                0.00147342
               7.97541355                0.95484599               40.05675809                0.86847291               -0.04401339               -0.04320612                0.14392758               -0.00091655                0.00144073                0.00087555
               8.97497123                0.95374274               40.05810054                0.99999999               -0.04472059               -0.04439546                0.14826632                0.00003703                0.00046825                0.00010334
               9.97451914                0.95265020               40.05943629                0.99999998               -0.04520935               -0.04586339                0.15273450               -0.00030108                0.00010340               -0.00063758
              -0.01760254                1.97039116               40.04666762                0.39451887               -0.03481306               -0.02040990                0.11435364                0.00871608                0.00179381                0.01356150
               0.98204933                1.96728134               40.04785264                0.01000000               -0.00343387               -0.04931148                0.11860142                0.04588917                0.02882380               -0.01289123
               1.98232878                1.96493586               40.04957738                0.01000001                0.02902202                0.00580841                0.12399225                0.18920101                0.07183294                0.01262993
               2.98262977                1.96315770               40.05152102                0.01000000               -0.00636569                0.06149644                0.12793136                0.28913324                0.07586375                0.02572889
               3.98220147                1.96156954               40.05330843                0.01000000               -0.07357646                0.13763906                0.13225980                0.36445453                0.06020546                0.04260145
               4.98115824                1.96013038               40.05497304                0.01000001               -0.14621526                0.17080910                0.13624503                0.39066100                0.04078480                0.04510205
               5.97927716                1.95918942               40.05645638                0.01141867               -0.20998300                0.22161328                0.13966678                0.20838586                0.00003135                0.05841950
               6.97695858                1.95555007               40.05745441                0.01620955               -0.13778569                0.10361765                0.14227355                0.06843544               -0.01566047                0.03798866
               7.97652145                1.95441062               40.05880062                0.01000000               -0.04414996                0.07781253                0.14631803                0.08797180                0.00122029                0.03705869
               8.97607558                1.95329578               40.06013611                0.09691467               -0.04528433               -0.04301051                0.15070894                0.00203590                0.00064200                0.00100741
               9.97561576                1.95218801               40.06147040                0.70457044               -0.04598182               -0.04681717                0.15520090                0.00091755                0.00058230               -0.00051062
              -0.01426031                2.97026487               40.04840097                0.36103048               -0.03639249               -0.00952028                0.11907340                0.00396006               -0.00010649                0.01694969
               0.98537576                2.96669559               40.04943745                0.01000001                0.03854787               -0.06311106                0.12317888                0.09141368                0.05180356               -0.01309243
               1.98651065                2.96490444               40.05151179                0.01000000                0.08973226               -0.03928036                0.12808427                0.25093647                0.10770975                0.00658240
               2.98717041                2.96340218               40.05353150                0.01000000                0.05789264                0.00768301                0.13283258                0.36871540                0.11363295                0.02106919
               3.98766850                2.96283801               40.05563643                0.01196991               -0.00967345                0.06043016                0.13746384                0.43596733                0.09819406                0.03173676
               4.98697694                2.96190447               40.05729680                0.01000000               -0.13111847                0.14362051                0.14153448                0.49881490                0.07606743                0.05489752
               5.98504613                2.96160183               40.05901289                0.01000001               -0.24889631                0.25408131                0.14450145                0.44474071                0.04368661                0.10143379
               6.98199901                2.95805220               40.06020727                0.01000001               -0.28094234                0.45053834                0.14667502                0.40504026                0.01193019                0.14897136
               7.97942728                2.95640224               40.06155624                0.01280539               -0.23822258                0.36841174                0.15042557                0.25517164               -0.02601802                0.12678831
               8.97723456                2.95288253               40.06218939                0.01567807               -0.13371264                0.18034707                0.15259035                0.08608149               -0.03439989                0.08212179
               9.97675303                2.95171385               40.06350715                0.21810527               -0.04815326                0.07288721                0.15766605                0.05191627               -0.00018984                0.06314240
              -0.01038478                3.97020075               40.05015901                0.42920025               -0.03771894               -0.01299463                0.12389268               -0.00569170               -0.00201514                0.01925595
               0.98923803                3.96601912               40.05102301                0.01000000                0.05128537               -0.06251286                0.12774828                0.10859693                0.06423520               -0.01482090
               1.99064092                3.96415025               40.05321170                0.01000000                0.14162428               -0.09787161                0.13258980                0.27450679                0.14387964               -0.02107534
               2.99207051                3.96331136               40.05550764                0.01197134                0.08888015               -0.05696063                0.13772025                0.37787013                0.14184461               -0.00081280
               3.99241853                3.96277814               40.05749722                0.01000000                0.01501018               -0.03428563                0.14231223                0.46175557                0.13749170                0.00592605
               4.99237072                3.96300279               40.05965545                0.01000001               -0.01971372                0.10296576                0.14695583                0.64515314                0.15753883                0.07686558
               5.99202425                3.96427105               40.06204021                0.01000001               -0.10558695                0.27808571                0.15129482                0.76156727                0.15728103                0.15778531
               6.99025898                3.96456084               40.06423014                0.01176094               -0.26148499                0.52117303                0.15491713                0.64000329                0.07893004                0.20370569
               7.98679455                3.96177885               40.06521494                0.01006610               -0.38866880                0.60367285                0.15635598                0.35795450               -0.01494916                0.22667114
               8.98248560                3.95690272               40.06584188                0.01000000               -0.39015582                0.80735938                0.15557392                0.19819322               -0.03331305                0.27840936
               9.97899144                3.95364575               40.06681630                0.25197766               -0.34941653                0.73454962                0.15867560               -0.04398201               -0.01799258                0.25485742
              -0.00601087                4.97000497               40.05191146                0.55709775               -0.03909246               -0.02517646                0.12863905               -0.00448060               -0.00246666                0.01957047
               0.99359820                4.96544533               40.05259777                0.01000000                0.03597060               -0.05314066                0.13217889                0.09722161                0.06444175               -0.01667081
               1.99470854                4.96294701               40.05462194                0.01000001                0.12508608               -0.13778779                0.13681033                0.26562502                0.15779627               -0.06072462
               2.99609992                4.96226297               40.05703245                0.01000000                0.12518186               -0.16287209                0.14201174                0.38123158                0.17623848               -0.07605560
               3.99721218                4.96215230               40.05925662                0.01000001                0.11435851               -0.08471621                0.14741120                0.57425399                0.21287586               -0.00596830
               4.99838709                4.96396378               40.06225864                0.01000001                0.07536265                0.06770615                0.15358298                0.81977281                0.26704901                0.09114018
               5.99871943                4.96716355               40.06542772                0.01174917               -0.05479087                0.20501946                0.15960080                0.81134626                0.22309538                0.14012208
               6.99729128                4.96847566               40.06748636                0.01000000               -0.22374674                0.40688551                0.16303770                0.67180432                0.16115398                0.20120390
               7.99424449                4.96847570               40.06952063                0.01000001               -0.39798734                0.84218553                0.16603489                0.64236968                0.15567240                0.33481481
               8.98933153                4.96902971               40.07168249                0.01000000               -0.59285850                1.25630134                0.16959921                0.42670892                0.09961536                0.43116171
               9.98238732                4.96640485               40.07291613                0.29816465               -0.69442053                1.38670884                0.17381528                0.12455277                0.02863485                0.42731951
              -0.00135511                5.96969722               40.05366061                0.76386401               -0.04044660               -0.03407636                0.13332769               -0.00202844               -0.00287764                0.01942888
               0.99824042                5.96495630               40.05415965                0.01000001                0.02454512               -0.04692908                0.13651368                0.05556741                0.04413001               -0.01778541
               1.99913579                5.96139450               40.05559860                0.01142274                0.11247184               -0.16478904                0.14045769                0.14841626                0.12403428               -0.13336597
               3.00048986                5.96005392               40.05755493                0.01000001                0.15334994               -0.23700528                0.14545534                0.35323559                0.22804824               -0.16189717
               4.00220279                5.96108382               40.06088431                0.01000001                0.16325319               -0.14509671                0.15253530                0.63684527                0.33513380               -0.02995935
               5.00375492                5.96435692               40.06475723                0.01175017                0.07682583               -0.03515262                0.16078401                0.77864397                0.33195081                0.02581663
               6.00373931                5.96837144               40.06779372                0.01000000               -0.06860054                0.12297381                0.16675369                0.82135149                0.30661108                0.10391478
               7.00238291                5.97269855               40.07109238                0.01000001               -0.23257089                0.52281785                0.17311036                0.93048311                0.34016711                0.28037386
               7.99908789                5.97862256               40.07482222                0.01000000               -0.46461392                1.03631067                0.17972101                0.86960076                0.30113110                0.44658104
               8.99309063                5.98202874               40.07750285                0.01075792               -0.61778297                1.33931563                0.18527271                0.49396329                0.15983011                0.47508857
               9.98673223                5.98137993               40.07879876                0.36572307               -0.63584049                1.39552617                0.18878083                0.21907904                0.07167752                0.44768659
               0.00343040                6.96932345               40.05540358                0.99999999               -0.04181214               -0.03906270                0.13797748               -0.00028167               -0.00266415                0.02024167
               1.00301228                6.96450675               40.05571759                0.29725484               -0.04255741               -0.04455060                0.14081074               -0.00363610               -0.02069133               -0.01856585
               2.00257925                6.95965123               40.05567096                0.01621424                0.02315196               -0.10910675                0.14295901                0.06409683                0.05677623               -0.11275189
               3.00347532                6.95752286               40.05753453                0.01000001                0.15334163               -0.20232570                0.14766605                0.30921306                0.30132506               -0.13285464
               4.00564608                6.95925036               40.06222039                0.01176506                0.15985175               -0.23298596                0.15698052                0.56426582                0.41436919               -0.12163428
               5.00667235                6.96326073               40.06598387                0.01000000                0.05793718               -0.12480912                0.16507497                0.74029649                0.40832396               -0.04485472
               6.00680483                6.96962302               40.07033259                0.01000001               -0.05112684                0.14703674                0.17498035                1.00550262                0.49011781                0.14452336
               7.00564981                6.97893201               40.07556881                0.01000000               -0.22492556                0.63941556                0.18595441                1.19663089                0.52572621                0.34837866
               8.00230632                6.98920191               40.08052309                0.01088885               -0.45981908                0.98564097                0.19636467                0.97454689                0.39254865                0.43438116
               8.99645343                6.99581603               40.08313188                0.01000002               -0.71198874                1.47828144                0.19881555                0.35832055                0.18323062                0.63488358
               9.98806654                6.99431537               40.08419176                0.48715595               -0.83868924                1.38519010                0.19924041                0.23769660                0.07981415                0.52532520
               0.00827265                7.96891597               40.05716657                0.99108986               -0.04327309               -0.04178686                0.14266831                0.00056786               -0.00529611                0.02434856
               1.00783992                7.96406529               40.05726568                0.89530000               -0.04355151               -0.04437385                0.14508760               -0.00091244               -0.01354757               -0.01246190
               2.00740162                7.95921236               40.05719986                0.01000000               -0.03824642               -0.04438201                0.14718624                0.08049340                0.06443904               -0.03128357
               3.00707499                7.95600740               40.05885865                0.01281090                0.01743088               -0.17815660                0.15107979                0.27696449                0.23751590               -0.15024119
               4.00775023                7.95642410               40.06217868                0.01007498                0.05566021               -0.25643014                0.15746113                0.56933393                0.41549752               -0.22835777
               5.00818819                7.96186073               40.06717290                0.01000001                0.02139211               -0.09911517                0.16870699                0.80522268                0.57510990               -0.02940747
               6.00817808                7.97131217               40.07341809                0.01000000               -0.07257759                0.15455425                0.18480692                1.08945754                0.67051613                0.14426009
               7.00673664                7.98548686               40.08004349                0.01090557               -0.32416325                0.48385891                0.20098575                1.22149131                0.60038501                0.26799090
               8.00169481                7.99833538               40.08469483                0.01000002               -0.57965260                1.21272316                0.20798776                1.10733484                0.58555874                0.51874280
               8.99514359                8.01159437               40.09112352                0.43317729               -0.36036679                0.75544819                0.21925213                0.59794788                0.33487916                0.40853315
               9.99448748                8.00908373               40.09080980                0.96071846               -0.06561120                0.70508865                0.21837037                0.19489486               -0.00196270                0.32890680
               0.01314311                8.96848771               40.05899087                1.00000000               -0.04454762               -0.04379430                0.14747869                0.00078292               -0.00075242                0.02291958
               1.01269764                8.96361927               40.05894631                0.99999998               -0.04480528               -0.04512311                0.14962625                0.00004646               -0.00077205               -0.00289580
               2.01224701                8.95876359               40.05890158                0.10899917               -0.04473823               -0.04560053                0.15177416                0.00186897               -0.01243214               -0.02044016
               3.01180287                8.95395973               40.05862386                0.01594886               -0.05337876               -0.12554292                0.15336386                0.24390986                0.14251044               -0.11966213
               4.01117943                8.95412176               40.06167517                0.01000000               -0.19570712               -0.08914591                0.15321971                0.56394213                0.52613279               -0.17908860
               5.00788873                8.96127843               40.06888861                0.01000000               -0.31057901                0.05537575                0.17422145                0.61886589                0.72720587               -0.01952282
               6.00496785                8.97271411               40.07587502                0.01081765               -0.24161485                0.12234759                0.19450240                0.70816190                0.69748001                0.07913396
               7.00305643                8.98860919               40.08241093                0.01000002               -0.33111754                0.21364847                0.20864613                1.30631984                0.81429986                0.11064856
               7.99834550                9.01345638               40.09153953                0.44342681               -0.26961933                0.72130880                0.22788134                1.07546469                0.47097886                0.35188748
               8.99766404                9.01092499               40.09110965                0.99999997               -0.06798869               -0.06808110                0.22691586               -0.00000068               -0.00504150                0.00590045
               9.99698573                9.00841714               40.09071526                0.99246638               -0.06783186               -0.06778625                0.22597973               -0.00118198               -0.00318602               -0.00506543
               0.01802518                9.96804008               40.06072507                0.99446826               -0.04602129               -0.04476267                0.15212352                0.00048112                0.01871195                0.01840031
               1.01756496                9.96316283               40.06068600                1.00000000               -0.04633179               -0.04564450                0.15428237               -0.00025371                0.01871045                0.00004289
               2.01709854                9.95830035               40.06064731                0.71303989               -0.04849745               -0.04632394                0.15644090                0.00183933                0.02299918               -0.01824830
               3.01659502                9.95349654               40.06069431                0.21885723               -0.26940819               -0.04631837                0.15863952                0.29625583                0.13673444               -0.00439245
               4.01171038                9.95464118               40.06293421                0.25190877               -0.73109269                0.05194189                0.15708524                0.52667988                0.50851749               -0.09512958
               5.00197316                9.96296825               40.07042341                0.29698920               -0.83499130                0.16898210                0.17944008                0.36434062                0.72789016               -0.02584802
               5.99501055                9.97375913               40.07762319                0.36392259               -0.49261961                0.10450171                0.20136012                0.34384916                0.64417370                0.04323990
               6.99212077                9.98975983               40.08365035                0.48621164                0.29388771                0.11506391                0.21356234                0.85655545                0.67922557                0.05000308
               8.00088831               10.01276156               40.09139189                0.97301547                0.40310194               -0.06948169                0.23540418                1.27792664                0.41308786                0.00231362
               9.00018281               10.01023275               40.09104466                0.99246721               -0.07043864               -0.06922395                0.23450669                0.00019856                0.00623210                0.00334072
               9.99947953               10.00772800               40.09065096                1.00000000               -0.07032749               -0.06891383                0.23357028               -0.00109402                0.00376393               -0.00361194
              -0.02504750               -0.03062687               41.04434769                0.90523212               -0.03132646               -0.03135023                0.10515887                0.00154589               -0.00619472                0.00672060
               0.97463923               -0.03370110               41.04572251                0.63155333               -0.02955179               -0.03427931                0.10949848                0.00245489               -0.00667613               -0.00463448
               1.97436146               -0.03669767               41.04708572                0.39333663               -0.01957043               -0.03470163                0.11387979                0.00912464                0.00345321               -0.00214174
               2.97424782               -0.03938893               41.04865567                0.36013298               -0.00812213               -0.03628172                0.11847750                0.00409850                0.02002577               -0.00122826
               3.97419902               -0.04152308               41.05032255                0.42758901               -0.01169069               -0.03755329                0.12312776               -0.00591565                0.02112111               -0.00044862
               4.97401401               -0.04313794               41.05187854                0.55366491               -0.02427747               -0.03886544                0.12771192               -0.00467371                0.01191771               -0.00019750
               5.97371347               -0.04445851               41.05333932                0.75679934               -0.03345184               -0.04016784                0.13225216               -0.00215412                0.00511766               -0.00005647
               6.97334497               -0.04564290               41.05474897                0.99999998               -0.03858507               -0.04147957                0.13676043               -0.00037103                0.00174810               -0.00001431
               7.97294177               -0.04676768               41.05613857                0.99064596               -0.04134261               -0.04290191                0.14130915                0.00054453                0.00060175                0.00027469
               8.97251812               -0.04786275               41.05752424                1.00000000               -0.04332426               -0.04412884                0.14598234                0.00075636                0.00021779                0.00009736
               9.97207528               -0.04894522               41.05890620                0.99999999               -0.04428381               -0.04555697                0.15048426                0.00043043               -0.00001824               -0.00025108
              -0.02195781                0.96905963               41.04605179                0.63215655               -0.03430092               -0.02959455                0.10965939                0.00247782                0.00474968                0.00954941
               0.97769918                0.96595610               41.04742446                0.01239056               -0.03727855               -0.03728705                0.11399310                0.00589353                0.01090430               -0.00904361
               1.97729662                0.96295531               41.04892018                0.01000000               -0.04988336               -0.00741607                0.11836521                0.05621329                0.02544994                0.00103790
               2.97670151                0.96024825               41.05058967                0.01000001               -0.06411247                0.03488631                0.12284333                0.12002851                0.03594471                0.01263527
               3.97601437                0.95810139               41.05232299                0.01000000               -0.06332625                0.06028955                0.12724428                0.15410808                0.03005040                0.01496092
               4.97543499                0.95647340               41.05391083                0.01000000               -0.05349833                0.06750245                0.13150947                0.14970242                0.01604002                0.01943761
               5.97494440                0.95513981               41.05538601                0.01000001               -0.04695724                0.08614730                0.13568849                0.08844015                0.00692832                0.02096060
               6.97449585                0.95394231               41.05680189                0.28327775               -0.04436320               -0.04224444                0.13983068               -0.00378759                0.00275113                0.00106763
               7.97405714                0.95280330               41.05819749                0.86902967               -0.04406945               -0.04321730                0.14395333               -0.00097204                0.00118221                0.00059750
               8.97361446                0.95169596               41.05958353                0.99999999               -0.04475410               -0.04441065                0.14833183                0.00003888                0.00039890                0.00007353
               9.97316206                0.95059921               41.06096420                0.99989932               -0.04523978               -0.04589698                0.15284639               -0.00028035                0.00010014               -0.00028661
              -0.01879089                1.96878124               41.04781044                0.39416291               -0.03476871               -0.01964493                0.11420935                0.00915449                0.00178684                0.01373789
               0.98086142                1.96555315               41.04903813                0.01000000               -0.00077647               -0.04997004                0.11849509                0.04956430                0.02940643               -0.01286312
               1.98119358                1.96315401               41.05081731                0.01000001                0.03204521                0.00883360                0.12398406                0.19898164                0.07265469                0.01341409
               2.98150232                1.96130880               41.05280030                0.01000000               -0.00687708                0.06757036                0.12790931                0.30258915                0.07589080                0.02654415
               3.98105603                1.95968271               41.05463113                0.01000000               -0.07663424                0.14704752                0.13226990                0.38180642                0.06007385                0.04378958
               4.97996964                1.95821210               41.05633559                0.01000001               -0.15213343                0.18105791                0.13626966                0.40871950                0.03997901                0.04642394
               5.97801337                1.95726443               41.05785302                0.01141955               -0.21819559                0.23339693                0.13966545                0.21797822               -0.00169382                0.05940270
               6.97560573                1.95351222               41.05887666                0.01620849               -0.14223460                0.10980280                0.14217263                0.07143490               -0.01721431                0.03822004
               7.97516867                1.95236798               41.06026342                0.01000000               -0.04413671                0.08226886                0.14623830                0.09145782                0.00059315                0.03745529
               8.97472299                1.95124904               41.06164303                0.09688284               -0.04527465               -0.04287037                0.15067143                0.00218561                0.00024784                0.00068709
               9.97426318                1.95013684               41.06302248                0.70444886               -0.04598113               -0.04687780                0.15521035                0.00105758                0.00024180               -0.00015656
              -0.01531855                2.96866673               41.04959109                0.36096076               -0.03637519               -0.00824218                0.11895145                0.00411903               -0.00013956                0.01732976
               0.98431770                2.96495670               41.05066880                0.01000001                0.04195794               -0.06427455                0.12309043                0.09691749                0.05217830               -0.01308274
               1.98552061                2.96313199               41.05279250                0.01000000                0.09534488               -0.03955822                0.12804562                0.26338804                0.10853915                0.00667157
               2.98622460                2.96159966               41.05485997                0.01000000                0.06132914                0.01121609                0.13284534                0.38676661                0.11439404                0.02205112
               3.98674719                2.96104234               41.05701152                0.01197034               -0.00984692                0.06632492                0.13754364                0.45694393                0.09845337                0.03313754
               4.98602766                2.96009456               41.05871256                0.01000000               -0.13716674                0.15309134                0.14162282                0.52247317                0.07522419                0.05682893
               5.98400386                2.95980775               41.06045779                0.01000001               -0.26033300                0.26809654                0.14450665                0.46584204                0.04139872                0.10403286
               6.98082100                2.95613836               41.06167327                0.01000001               -0.29271920                0.47157865                0.14654080                0.42349501                0.00965725                0.15217244
               7.97814947                2.95444868               41.06305939                0.01284248               -0.24658472                0.38403065                0.15020857                0.26711846               -0.02844942                0.12890579
               8.97588930                2.95083856               41.06371450                0.01594910               -0.13709348                0.18369755                0.15241623                0.09058984               -0.03594925                0.08195953
               9.97540760                2.94966166               41.06508342                0.21837409               -0.04816995                0.06681062                0.15757436                0.05974172               -0.00027081                0.06265758
              -0.01128846                3.96861640               41.05139742                0.42916315               -0.03770297               -0.01191947                0.12378888               -0.00593602               -0.00206495                0.01970454
               0.98833451                3.96426766               41.05230011                0.01000000                0.05534176               -0.06348121                0.12766984                0.11490885                0.06469010               -0.01494641
               1.98981838                3.96236284               41.05453757                0.01000000                0.14963959               -0.10039138                0.13257679                0.28981613                0.14509950               -0.02098245
               2.99132730                3.96153312               41.05688529                0.01197084                0.09408192               -0.05704628                0.13782412                0.39745984                0.14298171               -0.00003151
               3.99170001                3.96100921               41.05892099                0.01000000                0.01631939               -0.03306077                0.14245560                0.48518715                0.13822784                0.00745098
               4.99165369                3.96127393               41.06112567                0.01000001               -0.02068070                0.11071476                0.14710409                0.67712026                0.15780756                0.07978185
               5.99128640                3.96262636               41.06355340                0.01000001               -0.11095001                0.29333254                0.15141568                0.79906388                0.15645663                0.16252934
               6.98943469                3.96294379               41.06577831                0.01176841               -0.27377747                0.54520114                0.15475778                0.67170091                0.07595637                0.20907238
               7.98581085                3.96004859               41.06677632                0.01009517               -0.40564384                0.62771606                0.15587891                0.37539373               -0.02062121                0.23141004
               8.98132181                3.95492299               41.06739374                0.01000000               -0.39995180                0.83255788                0.15472504                0.20701385               -0.03835405                0.28326962
               9.97781182                3.95147305               41.06840015                0.25230710               -0.35099986                0.75014179                0.15801823               -0.04457296               -0.01999283                0.25953129
              -0.00673981                4.96842834               41.05319745                0.55702810               -0.03907674               -0.02462212                0.12855810               -0.00466082               -0.00251784                0.01998137
               0.99286943                4.96368708               41.05391924                0.01000000                0.03956408               -0.05362008                0.13211346                0.10289069                0.06495645               -0.01694101
               1.99405148                4.96112416               41.05599020                0.01000001                0.13290010               -0.14249048                0.13685029                0.28080475                0.15922024               -0.06115965
               2.99552743                4.96045874               41.05845316                0.01000000                0.13293237               -0.16854647                0.14216577                0.40211055                0.17809231               -0.07601778
               3.99671012                4.96038112               41.06073195                0.01000001                0.12127398               -0.08626907                0.14772911                0.60440099                0.21516479               -0.00413144
               4.99795291                4.96230885               41.06379625                0.01000001                0.08025773                0.07316612                0.15405189                0.86217403                0.26923533                0.09539552
               5.99831528                4.96567440               41.06702487                0.01175407               -0.05600599                0.21589880                0.15992737                0.85337574                0.22328522                0.14549102
               6.99683279                4.96704239               41.06911619                0.01000000               -0.23185655                0.42515530                0.16295424                0.70727836                0.15923231                0.20767698
               7.99367815                4.96700300               41.07117771                0.01000001               -0.41138362                0.87608487                0.16532279                0.67553789                0.15349829                0.34313762
               8.98860512                4.96748971               41.07337325                0.01000000               -0.61310653                1.30558570                0.16838882                0.45104070                0.09824164                0.44186727
               9.98141602                4.96466449               41.07464966                0.29839827               -0.71891000                1.43592633                0.17265814                0.13376067                0.02792160                0.43788812
              -0.00189915                5.96812395               41.05499362                0.76379338               -0.04043426               -0.03384751                0.13327604               -0.00211314               -0.00293479                0.01980248
               0.99769651                5.96319526               41.05552456                0.01000001                0.02809814               -0.04711450                0.13646738                0.05884498                0.04447440               -0.01812976
               1.99866281                5.95951303               41.05700344                0.01142250                0.12080220               -0.17130888                0.14055108                0.15697859                0.12546306               -0.13493291
               3.00011255                5.95816219               41.05901063                0.01000001                0.16375516               -0.24701757                0.14579697                0.37218901                0.23125018               -0.16322393
               4.00193792                5.95928383               41.06241224                0.01000001                0.17456723               -0.15075228                0.15326194                0.67089995                0.33987025               -0.02840978
               5.00360390                5.96273725               41.06636858                0.01175500                0.08412332               -0.03609430                0.16175192                0.81972433                0.33573058                0.02910440
               6.00362038                5.96694434               41.06946353                0.01000000               -0.06761217                0.12835403                0.16738916                0.86471858                0.30886127                0.10933417
               7.00225165                5.97144689               41.07282353                0.01000001               -0.23730496                0.54415207                0.17316358                0.97955404                0.34233459                0.28934481
               7.99887428                5.97757029               41.07661637                0.01000000               -0.47852568                1.07953656                0.17903767                0.91740635                0.30268993                0.45862433
               8.99268114                5.98103470               41.07935066                0.01079536               -0.63684051                1.39186963                0.18410966                0.52295357                0.16008781                0.48575006
               9.98613747                5.98019158               41.08068167                0.36589779               -0.65436658                1.44285100                0.18759361                0.23494988                0.07194562                0.45487459
               0.00307531                6.96775139               41.05678325                0.99999999               -0.04180689               -0.03898182                0.13795776               -0.00030580               -0.00271584                0.02061919
               1.00265725                6.96274479               41.05712559                0.29722104               -0.04255974               -0.04461190                0.14078698               -0.00373772               -0.02108920               -0.01894040
               2.00222412                6.95769798               41.05710036                0.01621274                0.02715857               -0.11269519                0.14291138                0.06738415                0.05738328               -0.11444412
               3.00320042                6.95551838               41.05901231                0.01000001                0.16644696               -0.21139307                0.14803394                0.32523009                0.30586653               -0.13474349
               4.00555306                6.95736608               41.06379369                0.01177303                0.17432334               -0.24479086                0.15809663                0.59343208                0.42071484               -0.12293203
               5.00668688                6.96158697               41.06763855                0.01000000                0.06734751               -0.13217653                0.16629238                0.77909374                0.41457812               -0.04378868
               6.00690001                6.96824148               41.07208581                0.01000001               -0.04444814                0.15112811                0.17595962                1.05784987                0.49738331                0.15126165
               7.00579792                6.97792543               41.07742971                0.01000000               -0.22307718                0.66421091                0.18638281                1.25980778                0.53303039                0.35991171
               8.00243847                6.98859373               41.08248589                0.01092221               -0.46775131                1.02094145                0.19618253                1.02672821                0.39591444                0.44561229
               8.99644289                6.99532711               41.08511450                0.01000002               -0.73186023                1.53091540                0.19759587                0.38429234                0.18235113                0.64629136
               9.98780126                6.99352151               41.08617669                0.48741502               -0.86416340                1.44407092                0.19754254                0.25186325                0.07927076                0.53160112
               0.00810794                7.96734432               41.05859331                0.99107541               -0.04327765               -0.04176178                0.14268104                0.00057020               -0.00540313                0.02480692
               1.00767516                7.96230302               41.05871655                0.89536581               -0.04355202               -0.04439596                0.14508602               -0.00093555               -0.01381709               -0.01271438
               2.00723690                7.95725913               41.05867162                0.01000000               -0.03630522               -0.04437969                0.14716325                0.08401320                0.06495226               -0.03190104
               3.00694906                7.95393433               41.06037017                0.01284920                0.02505376               -0.18499461                0.15135750                0.28794347                0.24039843               -0.15255979
               4.00773797                7.95438801               41.06375535                0.01010379                0.06806554               -0.27215703                0.15823201                0.59527117                0.42234686               -0.23518580
               5.00831037                7.96009372               41.06886345                0.01000001                0.03504730               -0.10763120                0.16993884                0.84729806                0.58686503               -0.02842956
               6.00843892                7.96996690               41.07527106                0.01000000               -0.06074082                0.15715720                0.18629686                1.14565440                0.68454401                0.15142958
               7.00709555                7.98473111               41.08205787                0.01093952               -0.32158745                0.49822932                0.20213689                1.27937485                0.60990580                0.27684977
               8.00200717                7.99798912               41.08677354                0.01000002               -0.58281721                1.24977402                0.20782853                1.15969585                0.59323466                0.52930667
               8.99543921                8.01165301               41.09331107                0.43315430               -0.36106216                0.78292693                0.21824144                0.63356608                0.34070380                0.41486762
               9.99478593                8.00907300               41.09298934                0.96070386               -0.06532808                0.74431864                0.21751886                0.21957744               -0.00197346                0.33465469
               0.01316930                8.96691615               41.06046589                1.00000000               -0.04455834               -0.04379710                0.14752674                0.00079019               -0.00077134                0.02335314
               1.01272372                8.96185687               41.06044271                0.99999998               -0.04481125               -0.04513716                0.14965307                0.00004819               -0.00079114               -0.00295633
               2.01227308                8.95681039               41.06041936                0.10901408               -0.04466564               -0.04560321                0.15177986                0.00200272               -0.01272761               -0.02083255
               3.01183041                8.95181849               41.06015747                0.01622808               -0.04869957               -0.12894664                0.15335876                0.24866540                0.14104379               -0.12128655
               4.01129909                8.95192294               41.06320644                0.01000000               -0.18882269               -0.09947677                0.15325357                0.59015386                0.53484396               -0.18535552
               5.00805395                8.95943434               41.07063397                0.01000000               -0.30616900                0.05279738                0.17534714                0.65254850                0.74670475               -0.01850816
               6.00517571                8.97138462               41.07782646                0.01085371               -0.23453757                0.12277338                0.19636870                0.74251118                0.71329602                0.08431362
               7.00336320                8.98789002               41.08450096                0.01000002               -0.32326120                0.21302205                0.20974470                1.35693979                0.82947436                0.11259715
               7.99871048                9.01358921               41.09381597                0.44305781               -0.26664342                0.74528575                0.22739899                1.12076688                0.48067843                0.35786203
               8.99803033                9.01098564               41.09337721                0.99999997               -0.06788241               -0.06798247                0.22659136               -0.00000551               -0.00508213                0.00596446
               9.99735284                9.00840788               41.09297429                0.99264651               -0.06774986               -0.06774224                0.22582277               -0.00128812               -0.00320742               -0.00507661
               0.01824231                9.96646837               41.06224669                0.99431895               -0.04604213               -0.04477796                0.15220209                0.00049173                0.01906648                0.01874843
               1.01778189                9.96140028               41.06222911                1.00000000               -0.04634932               -0.04565874                0.15433985               -0.00024807                0.01906428                0.00004193
               2.01731533                9.95634707               41.06221192                0.71301143               -0.04860381               -0.04633202                0.15647739                0.00198073                0.02337722               -0.01859884
               3.01680982                9.95135540               41.06228088                0.21915686               -0.26950648               -0.04630965                0.15866170                0.30051139                0.13518378               -0.00446899
               4.01192520                9.95239847               41.06450392                0.25221517               -0.74550827                0.04755392                0.15692759                0.55232488                0.51777834               -0.09771485
               5.00189965                9.96114967               41.07221956                0.29712935               -0.85458631                0.17153262                0.17997251                0.38576455                0.74862140               -0.02546621
               5.99483347                9.97242237               41.07964219                0.36396691               -0.49349481                0.10377467                0.20273484                0.35787067                0.66006003                0.04624014
               6.99202976                9.98899155               41.08578719                0.48630342                0.32467034                0.11015384                0.21414299                0.89027851                0.69625136                0.04904545
               8.00132688               10.01289483               41.09374695                0.97265372                0.42953360               -0.06943828                0.23560614                1.32673003                0.42447641                0.00233197
               9.00062043               10.01029336               41.09339155                0.99264611               -0.07055968               -0.06922820                0.23487701                0.00017556                0.00628056                0.00336965
               9.99991569               10.00771815               41.09298930                1.00000000               -0.07047422               -0.06897299                0.23410912               -0.00123576                0.00378809               -0.00363435
              -0.02650598               -0.03228622               42.04539830                0.90465113               -0.03122557               -0.03124780                0.10496192                0.00156490               -0.00619538                0.00672902
               0.97318177               -0.03547192               42.04681670                0.63071650               -0.02930993               -0.03427522                0.10933837                0.00257095               -0.00665199               -0.00464375
               1.97290782               -0.03857602               42.04822392                0.39303142               -0.01866822               -0.03465460                0.11375866                0.00963122                0.00362645               -0.00214968
               2.97280840               -0.04135719               42.04984004                0.36013761               -0.00649853               -0.03624854                0.11839465                0.00426873                0.02039614               -0.00125776
               3.97277785               -0.04354886               42.05155355                0.42765583               -0.01021895               -0.03752831                0.12307295               -0.00630484                0.02155013               -0.00050148
               4.97260402               -0.04519148               42.05315554                0.55375478               -0.02345711               -0.03885318                0.12768922               -0.00498400                0.01232870               -0.00025326
               5.97230871               -0.04652326               42.05466192                0.75701804               -0.03309502               -0.04016646                0.13227068               -0.00231688                0.00550640               -0.00011718
               6.97194212               -0.04771159               42.05611689                0.99999998               -0.03846335               -0.04149002                0.13682540               -0.00042624                0.00214656               -0.00007037
               7.97153944               -0.04883761               42.05755223                0.99065928               -0.04131785               -0.04292961                0.14142554                0.00054414                0.00108562                0.00016583
               8.97111577               -0.04993294               42.05898492                1.00000000               -0.04335171               -0.04416353                0.14615715                0.00076796                0.00067587                0.00007181
               9.97067241               -0.05101573               42.06041214                0.99999999               -0.04433559               -0.04560728                0.15070595                0.00046025                0.00034919                0.00012143
              -0.02330463                0.96740131               42.04714753                0.63129011               -0.03429956               -0.02935843                0.10948965                0.00259220                0.00475541                0.00958537
               0.97635238                0.96418533               42.04856373                0.01212034               -0.03742991               -0.03741724                0.11386002                0.00624730                0.01092747               -0.00905138
               1.97594677                0.96107744               42.05010336                0.01000000               -0.05074339               -0.00460841                0.11826891                0.06034351                0.02552567                0.00161111
               2.97533751                0.95828032               42.05181780                0.01000001               -0.06574139                0.03877380                0.12277769                0.12618957                0.03596438                0.01295894
               3.97463195                0.95607586               42.05359518                0.01000000               -0.06480625                0.06528237                0.12719206                0.16147392                0.02989663                0.01537451
               4.97404138                0.95441999               42.05522574                0.01000000               -0.05431727                0.07243030                0.13146927                0.15655636                0.01574566                0.01988434
               5.97354560                0.95307508               42.05674279                0.01000001               -0.04731723                0.09144786                0.13566566                0.09235081                0.00656254                0.02118584
               6.97309504                0.95187351               42.05820021                0.28361853               -0.04450200               -0.04226536                0.13983040               -0.00401089                0.00235524                0.00063603
               7.97265556                0.95073309               42.05963715                0.86958617               -0.04412670               -0.04322791                0.14397740               -0.00102907                0.00090774                0.00030343
               8.97221251                0.94962542               42.06106717                0.99999999               -0.04478796               -0.04442533                0.14839638                0.00004105                0.00032568                0.00004229
               9.97175980                0.94852819               42.06249322                0.99976213               -0.04527034               -0.04593060                0.15295853               -0.00025815                0.00009656                0.00008567
              -0.02002218                1.96712662               42.04895181                0.39381062               -0.03472348               -0.01884161                0.11406581                0.00961751                0.00177937                0.01391243
               0.97963058                1.96377974               42.05022254                0.01000000                0.00209435               -0.05066902                0.11838786                0.05353673                0.03001474               -0.01284085
               1.98001970                1.96133181               42.05205707                0.01000001                0.03515939                0.01200922                0.12394175                0.20910127                0.07351694                0.01424025
               2.98033377                1.95941828               42.05407921                0.01000000               -0.00760211                0.07389476                0.12782610                0.31633700                0.07593651                0.02740342
               3.97986766                1.95775679               42.05595383                0.01000000               -0.07989181                0.15675210                0.13222382                0.39959398                0.06000273                0.04508001
               4.97873593                1.95625713               42.05769843                0.01000001               -0.15827241                0.19154873                0.13627985                0.42713431                0.03920317                0.04788629
               5.97670221                1.95530570               42.05924969                0.01141992               -0.22660196                0.24535154                0.13969329                0.22768820               -0.00350284                0.06050578
               6.97420389                1.95144310               42.06029786                0.01620668               -0.14676321                0.11602452                0.14205909                0.07438223               -0.01888234                0.03845048
               7.97376695                1.95029783               42.06172539                0.01000000               -0.04412053                0.08671823                0.14614879                0.09484777               -0.00007134                0.03781583
               8.97332148                1.94917855               42.06314953                0.09682604               -0.04526240               -0.04272071                0.15062547                0.00234348               -0.00017080                0.00034502
               9.97286170                1.94806565               42.06457461                0.70429410               -0.04597825               -0.04694301                0.15521309                0.00120894               -0.00012026                0.00021660
              -0.01641852                2.96702447               42.05078000                0.36090182               -0.03635648               -0.00690678                0.11883026                0.00428402               -0.00017406                0.01770541
               0.98321791                2.96317195               42.05189926                0.01000001                0.04543892               -0.06549991                0.12300003                0.10271260                0.05255445               -0.01309028
               1.98449026                2.96131762               42.05407270                0.01000000                0.10106801               -0.03994561                0.12794841                0.27621512                0.10940474                0.00679038
               2.98523927                2.95975822               42.05618840                0.01000000                0.06473620                0.01496305                0.13277219                0.40531195                0.11524792                0.02319433
               3.98578498                2.95921090               42.05838730                0.01197092               -0.01020552                0.07249709                0.13754797                0.47838952                0.09882511                0.03474993
               4.98503516                2.95825097               42.06012925                0.01000000               -0.14357917                0.16288066                0.14167571                0.54648643                0.07444324                0.05901022
               5.98291340                2.95798211               42.06190302                0.01000001               -0.27223024                0.28244272                0.14459442                0.48707801                0.03905649                0.10691231
               6.97959056                2.95419400               42.06313808                0.01000001               -0.30481646                0.49281330                0.14651681                0.44183158                0.00720380                0.15548496
               7.97681707                2.95246745               42.06456041                0.01288244               -0.25495041                0.39954502                0.15002811                0.27883802               -0.03105791                0.13091315
               8.97449155                2.94877101               42.06523772                0.01623386               -0.14036480                0.18654024                0.15221991                0.09475459               -0.03753303                0.08146316
               9.97400977                2.94758933               42.06665864                0.21865072               -0.04817780                0.06022406                0.15745759                0.06768560               -0.00035651                0.06192873
              -0.01223146                3.96698848               42.05263479                0.42913403               -0.03768573               -0.01080332                0.12368624               -0.00618880               -0.00211588                0.02015110
               0.98739169                3.96246974               42.05357641                0.01000000                0.05945980               -0.06449438                0.12758868                0.12155434                0.06516266               -0.01509276
               1.98895774                3.96053290               42.05586323                0.01000000                0.15775201               -0.10298360                0.13250855                0.30582904                0.14641908               -0.02077653
               2.99054673                3.95971754               42.05826412                0.01197156                0.09924812               -0.05704756                0.13785568                0.41772925                0.14426321                0.00104493
               3.99094270                3.95920673               42.06034633                0.01000000                0.01738646               -0.03162442                0.14253237                0.50923012                0.13906536                0.00939826
               4.99089446                3.95951474               42.06259753                0.01000001               -0.02209793                0.11889051                0.14724363                0.70957715                0.15815634                0.08327330
               5.99050074                3.96095456               42.06506852                0.01000001               -0.11696375                0.30905646                0.15165305                0.83682089                0.15546223                0.16780017
               6.98855518                3.96129937               42.06732530                0.01177565               -0.28670217                0.56949878                0.15474480                0.70333464                0.07244308                0.21472011
               7.98476670                3.95828873               42.06833252                0.01012487               -0.42302420                0.65154743                0.15536461                0.39251603               -0.02704548                0.23595668
               8.98009470                3.95290935               42.06893638                0.01000000               -0.40939705                0.85695628                0.15362970                0.21571389               -0.04383144                0.28762580
               9.97657876                3.94927014               42.06997667                0.25264649               -0.35159377                0.76458730                0.15704329               -0.04476316               -0.02207603                0.26388566
              -0.00750482                4.96680841               42.05448263                0.55696776               -0.03906041               -0.02405032                0.12847903               -0.00484621               -0.00256992                0.02039790
               0.99210458                4.96188206               42.05524004                0.01000000                0.04319262               -0.05411881                0.13204543                0.10889740                0.06552083               -0.01722558
               1.99335903                4.95925795               42.05735894                0.01000001                0.14077252               -0.14736076                0.13687155                0.29682222                0.16078246               -0.06140561
               2.99492003                4.95861727               42.05987577                0.01000000                0.14066751               -0.17436320                0.14230787                0.42398984                0.18014522               -0.07549365
               3.99617238                4.95857842               42.06221120                0.01000001                0.12794285               -0.08764292                0.14807959                0.63555247                0.21763583               -0.00140103
               4.99747888                4.96062878               42.06533968                0.01000001                0.08464044                0.07909782                0.15465172                0.90543076                0.27132883                0.10084279
               5.99786519                4.96416324               42.06862627                0.01175875               -0.05779034                0.22713123                0.16040817                0.89580180                0.22290373                0.15180803
               6.99632308                4.96558397               42.07074544                0.01000000               -0.24038964                0.44362794                0.16293727                0.74283715                0.15636808                0.21467097
               7.99305740                4.96549840               42.07282708                0.01000000               -0.42493286                0.90990749                0.16447051                0.70870065                0.15026453                0.35161724
               8.98782442                4.96591013               42.07505027                0.01000000               -0.63322269                1.35465726                0.16671693                0.47575327                0.09610008                0.45264284
               9.98039294                4.96288108               42.07636930                0.29863938               -0.74314746                1.48401270                0.17075248                0.14361272                0.02689194                0.44832015
              -0.00247569                5.96650747               42.05632613                0.76374053               -0.04042161               -0.03361330                0.13322641               -0.00219987               -0.00299319                0.02018621
               0.99712009                5.96138736               42.05688900                0.01000001                0.03173366               -0.04730569                0.13641819                0.06235120                0.04490720               -0.01848362
               1.99815898                5.95758569               42.05840962                0.01142295                0.12929828               -0.17818906                0.14068554                0.16620364                0.12720105               -0.13643919
               2.99970606                5.95623028               42.06047087                0.01000001                0.17416293               -0.25744065                0.14631933                0.39237350                0.23493571               -0.16393075
               4.00164224                5.95745388               42.06394955                0.01000001                0.18560946               -0.15649016                0.15438409                0.70640905                0.34489527               -0.02533444
               5.00341825                5.96109670               42.06799227                0.01176159                0.09096719               -0.03693433                0.16313942                0.86181099                0.33901802                0.03410396
               6.00346158                5.96549718               42.07114150                0.01000000               -0.06707437                0.13387399                0.16832335                0.90856834                0.30997091                0.11617247
               7.00207676                5.97017192               42.07455566                0.01000001               -0.24235152                0.56559677                0.17322636                1.02884839                0.34308569                0.29924856
               7.99861455                5.97648688               42.07840297                0.01000000               -0.49248367                1.12292928                0.17810047                0.96564970                0.30285243                0.47131660
               8.99222709                5.98000250               42.08118504                0.01083944               -0.65527174                1.44356602                0.18238213                0.55243736                0.15949282                0.49670306
               9.98550912                5.97895039               42.08255063                0.36607506               -0.67179674                1.48793249                0.18563306                0.25152067                0.07193518                0.46201147
               0.00269140                6.96613614               42.05816274                0.99999999               -0.04180159               -0.03890023                0.13794058               -0.00033004               -0.00276895                0.02100780
               1.00227339                6.96093595               42.05853333                0.29719208               -0.04256062               -0.04467417                0.14076076               -0.00383997               -0.02150100               -0.01932284
               2.00184019                6.95569417               42.05852918                0.01620996                0.03129614               -0.11651753                0.14285759                0.07102847                0.05826341               -0.11625554
               3.00289931                6.95346845               42.06049521                0.01000001                0.17969774               -0.22096133                0.14875490                0.34238036                0.31130821               -0.13618569
               4.00543414                6.95544861               42.06538233                0.01177956                0.18862452               -0.25731223                0.16029687                0.62416431                0.42749299               -0.12275080
               5.00667180                6.95989009               42.06930972                0.01000000                0.07635947               -0.13999868                0.16852872                0.81918190                0.42019048               -0.04082063
               6.00696133                6.96684072               42.07385178                0.01000001               -0.03807264                0.15514646                0.17747372                1.11093857                0.50327761                0.16001446
               7.00591035                6.97689591               42.07929646                0.01000000               -0.22107581                0.68903416                0.18702402                1.32358953                0.53865349                0.37300405
               8.00253982                6.98795699               42.08444674                0.01096130               -0.47503456                1.05522789                0.19585486                1.07886505                0.39749564                0.45755149
               8.99640965                6.99478145               42.08708380                0.01000002               -0.75061199                1.58132546                0.19591535                0.40987613                0.17999077                0.65768561
               9.98752758                6.99263973               42.08814261                0.48767927               -0.88820774                1.50144165                0.19515925                0.26494493                0.07803274                0.53774651
               0.00791809                7.96572947               42.06002019                0.99105506               -0.04328264               -0.04173750                0.14269738                0.00057287               -0.00551181                0.02527807
               1.00748527                7.96049388               42.06016740                0.89543041               -0.04355224               -0.04441815                0.14508328               -0.00095889               -0.01409153               -0.01297160
               2.00704705                7.95525534               42.06014312                0.01000000               -0.03430221               -0.04437659                0.14713456                0.08773397                0.06568690               -0.03252801
               3.00679922                7.95181105               42.06188580                0.01288733                0.03284207               -0.19225830                0.15209848                0.29948234                0.24389287               -0.15485492
               4.00770389                7.95230763               42.06534332                0.01013412                0.08052784               -0.28912642                0.16028722                0.62256702                0.42978015               -0.24156515
               5.00840978                7.95829673               42.07057168                0.01000000                0.04853247               -0.11689692                0.17271557                0.89117411                0.59848586               -0.02560771
               6.00867454                7.96860011               42.07714402                0.01000000               -0.04887491                0.15942683                0.18903194                1.20306640                0.69727544                0.16101138
               7.00743228                7.98395261               42.08408623                0.01097721               -0.31841141                0.51179510                0.20380972                1.33686994                0.61719838                0.28713048
               8.00230631                7.99759144               42.08885140                0.01000002               -0.58452059                1.28416096                0.20778981                1.21096988                0.59886930                0.53981196
               8.99574187                8.01162901               42.09548835                0.43311713               -0.36074232                0.80911716                0.21721542                0.66911072                0.34599025                0.42098260
               9.99509146                8.00897922               42.09516018                0.96068075               -0.06504048                0.78379563                0.21664872                0.24501420               -0.00198379                0.34057479
               0.01317404                8.96530139               42.06194140                1.00000000               -0.04456962               -0.04380115                0.14757904                0.00079756               -0.00078957                0.02379925
               1.01272834                8.96004759               42.06193937                0.99999998               -0.04481700               -0.04515112                0.14967914                0.00004995               -0.00080954               -0.00301733
               2.01227770                8.95480664               42.06193717                0.10901037               -0.04458390               -0.04560415                0.15177972                0.00214874               -0.01301483               -0.02123513
               3.01183666                8.94962329               42.06169103                0.01652278               -0.04389421               -0.13253547                0.15335191                0.25334594                0.13974228               -0.12312717
               4.01139981                8.94966608               42.06474024                0.01000000               -0.18169295               -0.11078471                0.15415032                0.61761182                0.54442604               -0.19192787
               5.00820280                8.95755215               42.07239555                0.01000000               -0.30165159                0.04955026                0.17817387                0.68803547                0.76662018               -0.01637553
               6.00536678                8.97002926               42.07980239                0.01089551               -0.22731923                0.12261841                0.19980419                0.77746208                0.72805686                0.09115146
               7.00365642                8.98713181               42.08660583                0.01000002               -0.31419831                0.21078297                0.21184708                1.40598550                0.84227160                0.11523278
               7.99908281                9.01364021               42.09608751                0.44268378               -0.26261679                0.76773975                0.22691744                1.16495776                0.48928591                0.36329969
               8.99840408                9.01096380               42.09564147                0.99999997               -0.06776903               -0.06787684                0.22624821               -0.00001851               -0.00513433                0.00601861
               9.99772743                9.00831564               42.09523171                0.99283053               -0.06766493               -0.06769721                0.22565765               -0.00139931               -0.00322729               -0.00508878
               0.01844165                9.96485345               42.06376911                0.99999999               -0.04606347               -0.04479455                0.15228490                0.00050308                0.01943039                0.01910708
               1.01798102                9.95959086               42.06377280                0.99999998               -0.04636664               -0.04567277                0.15439657               -0.00024160                0.01942754                0.00004155
               2.01751432                9.95434325               42.06377686                0.71295399               -0.04871631               -0.04633825                0.15650809                0.00213684                0.02376461               -0.01895871
               3.01700669                9.94916034               42.06386754                0.21946713               -0.26935308               -0.04629430                0.15864982                0.30443728                0.13358680               -0.00454348
               4.01212726                9.95009194               42.06607276                0.25253535               -0.75996886                0.04258530                0.15679180                0.57911419                0.52720867               -0.10040112
               5.00180732                9.95928773               42.07402286                0.29727832               -0.87415689                0.17355791                0.18100433                0.40847837                0.76942052               -0.02457364
               5.99464412                9.97105248               42.08167789                0.36401545               -0.49331394                0.10232220                0.20493343                0.37176099                0.67559034                0.04993096
               6.99194104                9.98816827               42.08793321                0.48640048                0.35646787                0.10364571                0.21571107                0.92314959                0.71213164                0.04807598
               8.00177348               10.01294623               42.09610401                0.97229599                0.45625134               -0.06939772                0.23582231                1.37422681                0.43543208                0.00235073
               9.00106606               10.01027147               42.09574220                0.99283025               -0.07068474               -0.06923237                0.23525596                0.00015057                0.00633001                0.00340176
              10.00035978               10.00762528               42.09533314                1.00000000               -0.07062797               -0.06903633                0.23466872               -0.00138419                0.00381578               -0.00365479
              -0.02800822               -0.03399076               43.04644693                0.90406256               -0.03112132               -0.03114211                0.10476298                0.00158477               -0.00619522                0.00673629
               0.97168057               -0.03728804               43.04790928                0.62985813               -0.02905635               -0.03427322                0.10917660                0.00269423               -0.00662619               -0.00465278
               1.97141065               -0.04049954               43.04936089                0.39272687               -0.01772223               -0.03460663                0.11363639                0.01016310                0.00380321               -0.00215736
               2.97132612               -0.04336960               43.05102356                0.36015810               -0.00480691               -0.03621410                0.11830896                0.00444385                0.02076915               -0.00128875
               3.97131452               -0.04561638               43.05278400                0.42774039               -0.00869581               -0.03750228                0.12301705               -0.00670589                0.02198113               -0.00055777
               4.97115221               -0.04728340               43.05443232                0.55385517               -0.02261316               -0.03883995                0.12766751               -0.00530198                0.01274938               -0.00031222
               5.97086225               -0.04862259               43.05598473                0.75725348               -0.03273029               -0.04016465                0.13229253               -0.00248308                0.00591353               -0.00018153
               6.97049760               -0.04981094               43.05748548                0.99999998               -0.03834015               -0.04150060                0.13689509               -0.00048221                0.00256842               -0.00012956
               7.97009545               -0.05093421               43.05896708                0.99067779               -0.04129355               -0.04295763                0.14154716                0.00054396                0.00159887                0.00004993
               8.96967173               -0.05202582               43.06044738                1.00000000               -0.04338069               -0.04419884                0.14633825                0.00078008                0.00116124                0.00004451
               9.96922784               -0.05310496               43.06192032                0.99999999               -0.04438944               -0.04565894                0.15093588                0.00049177                0.00073812                0.00051606
              -0.02469510                0.96569782               43.04824158                0.63040961               -0.03430030               -0.02911109                0.10931866                0.00271378                0.00476037                0.00961985
               0.97496190                0.96236923               43.04970166                0.01184344               -0.03759188               -0.03755788                0.11372577                0.00662313                0.01094922               -0.00905983
               1.97455307                0.95915439               43.05128556                0.01000000               -0.05164599               -0.00154937                0.11817099                0.06478101                0.02559532                0.00218755
               2.97392898                0.95626826               43.05304523                0.01000001               -0.06743541                0.04279282                0.12270593                0.13261856                0.03596256                0.01324233
               3.97320436                0.95400859               43.05486683                0.01000000               -0.06633443                0.07042866                0.12713226                0.16911439                0.02970765                0.01576678
               4.97260229                0.95232820               43.05654021                0.01000000               -0.05515847                0.07748593                0.13142191                0.16363985                0.01541622                0.02035548
               5.97210119                0.95097576               43.05809932                0.01000001               -0.04768524                0.09684570                0.13563776                0.09637435                0.00616747                0.02146916
               6.97164859                0.94977406               43.05959850                0.28396400               -0.04464302               -0.04228568                0.13982676               -0.00423853                0.00193357                0.00017587
               7.97120833                0.94863621               43.06107704                0.87013145               -0.04418425               -0.04323761                0.14399867               -0.00108684                0.00061699               -0.00000864
               8.97076490                0.94753219               43.06255146                0.99999999               -0.04482170               -0.04443946                0.14845954                0.00004340                0.00024880                0.00000913
               9.97031189                0.94643845               43.06402337                0.99961545               -0.04530085               -0.04596441                0.15307126               -0.00023469                0.00009319                0.00047996
              -0.02129677                1.96542702               43.05009175                0.39345674               -0.03467718               -0.01799812                0.11392216                0.01010622                0.00177141                0.01408359
               0.97835646                1.96196081               43.05140588                0.01000000                0.00520082               -0.05140995                0.11828014                0.05783169                0.03062497               -0.01282665
               1.97880725                1.95946947               43.05329615                0.01000001                0.03839162                0.01536174                0.12382622                0.21959713                0.07437265                0.01505501
               2.97912429                1.95748626               43.05535682                0.01000000               -0.00851906                0.08051902                0.12761071                0.33043483                0.07599059                0.02822234
               3.97863687                1.95579219               43.05727561                0.01000000               -0.08332257                0.16681170                0.13203478                0.41792722                0.06006057                0.04639077
               4.97745784                1.95426632               43.05906118                0.01000001               -0.16464924                0.20237362                0.13620976                0.44603200                0.03862160                0.04945146
               5.97534388                1.95331432               43.06064688                0.01141992               -0.23527303                0.25757005                0.13976524                0.23760018               -0.00528459                0.06184444
               6.97275238                1.94934335               43.06171784                0.01620493               -0.15141532                0.12232871                0.14193382                0.07729044               -0.02069613                0.03878366
               7.97231557                1.94820103               43.06318640                0.01000000               -0.04410114                0.09118015                0.14604854                0.09811986               -0.00077155                0.03818065
               8.97187036                1.94708539               43.06465554                0.09674258               -0.04524737               -0.04256101                0.15057052                0.00251157               -0.00061285               -0.00001872
               9.97141063                1.94597575               43.06612674                0.70410096               -0.04597293               -0.04701398                0.15520867                0.00137269               -0.00050311                0.00060389
              -0.01756055                2.96533786               43.05196769                0.36085122               -0.03633684               -0.00551137                0.11870950                0.00445603               -0.00020960                0.01807821
               0.98207608                2.96134103               43.05312880                0.01000001                0.04900534               -0.06678904                0.12290848                0.10883172                0.05288905               -0.01311609
               1.98341956                2.95946163               43.05535147                0.01000000                0.10694370               -0.04041977                0.12771779                0.28947024                0.11023706                0.00689271
               2.98421496                2.95787864               43.05751541                0.01000000                0.06816426                0.01901987                0.13248469                0.42441892                0.11619904                0.02441467
               3.98478284                2.95734483               43.05976248                0.01197067               -0.01070768                0.07905425                0.13732179                0.50040390                0.09943164                0.03649526
               4.98400080                2.95637567               43.06154607                0.01000000               -0.15033422                0.17313296                0.14157460                0.57095614                0.07403054                0.06140702
               5.98177616                2.95612716               43.06334967                0.01000001               -0.28465613                0.29723981                0.14482540                0.50844789                0.03706978                0.11015807
               6.97830768                2.95222063               43.06460360                0.01000001               -0.31737396                0.51437405                0.14681753                0.45999147                0.00475697                0.15910741
               7.97542868                2.95045981               43.06605995                0.01292529               -0.26336330                0.41500103                0.15001507                0.29018144               -0.03384387                0.13281375
               8.97304042                2.94668097               43.06675889                0.01653279               -0.14350256                0.18887808                0.15200695                0.09845214               -0.03918834                0.08047926
               9.97255863                2.94549817               43.06823257                0.21893622               -0.04817862                0.05321779                0.15730966                0.07567453               -0.00044388                0.06071888
              -0.01321400                3.96531679               43.05387115                0.42912209               -0.03766737               -0.00964466                0.12358385               -0.00645075               -0.00216810                0.02059793
               0.98640932                3.96062503               43.05485189                0.01000000                0.06365235               -0.06555291                0.12750477                0.12858634                0.06560660               -0.01525985
               1.98805904                3.95866107               43.05718774                0.01000000                0.16600714               -0.10559834                0.13228809                0.32267339                0.14775131               -0.02045788
               2.98972947                3.95786665               43.05964240                0.01197195                0.10444343               -0.05682631                0.13760321                0.43876603                0.14566086                0.00237576
               3.99014791                3.95737328               43.06177164                0.01000000                0.01825820               -0.02974699                0.14233243                0.53392035                0.14014073                0.01174520
               4.99009463                3.95772897               43.06407054                0.01000001               -0.02400177                0.12776478                0.14721496                0.74247251                0.15892454                0.08732970
               5.98966788                3.95925912               43.06658646                0.01000001               -0.12375382                0.32552073                0.15202131                0.87466409                0.15481630                0.17358773
               6.98761955                3.95963083               43.06887320                0.01178495               -0.30045096                0.59424077                0.15509555                0.73467994                0.06870811                0.22063486
               7.98365886                3.95650106               43.06988362                0.01015717               -0.44092575                0.67525400                0.15496019                0.40910296               -0.03422527                0.24039368
               8.97880104                3.95086296               43.07046633                0.01000000               -0.41845688                0.88064666                0.15195760                0.22417701               -0.05010684                0.29131126
               9.97528972                3.94704011               43.07154101                0.25299567               -0.35113184                0.77793763                0.15506029               -0.04442631               -0.02421161                0.26729674
              -0.00830603                4.96514496               43.05576703                0.55691425               -0.03904401               -0.02346111                0.12840190               -0.00503637               -0.00262304                0.02081894
               0.99130353                4.96002997               43.05656015                0.01000000                0.04687155               -0.05463642                0.13197541                0.11532647                0.06611179               -0.01752696
               1.99263140                4.95734966               43.05872764                0.01000001                0.14872752               -0.15235320                0.13676541                0.31390281                0.16244990               -0.06141002
               2.99427808                4.95674211               43.06129931                0.01000000                0.14837662               -0.18012599                0.14222185                0.44710512                0.18242028               -0.07434141
               3.99559893                4.95674989               43.06369354                0.01000001                0.13431684               -0.08836316                0.14814239                0.66776781                0.22042507                0.00250104
               4.99696441                4.95893097               43.06688928                0.01000001                0.08843280                0.08601595                0.15502042                0.94926765                0.27356801                0.10768504
               5.99736759                4.96263757               43.07023303                0.01176654               -0.06025368                0.23915803                0.16078204                0.93815096                0.22223476                0.15912576
               6.99575934                4.96410545               43.07237493                0.01000000               -0.24944864                0.46250078                0.16292350                0.77798313                0.15269378                0.22210049
               7.99237861                4.96396489               43.07446712                0.01000000               -0.43872196                0.94379511                0.16333642                0.74157755                0.14582692                0.36016877
               8.98698490                4.96429391               43.07670759                0.01000000               -0.65314092                1.40361384                0.16418250                0.50071637                0.09299212                0.46350926
               9.97931580                4.96105693               43.07806471                0.29888821               -0.76691058                1.53091933                0.16725068                0.15406521                0.02530293                0.45882888
              -0.00308475                5.96484757               43.05765815                0.76370014               -0.04040892               -0.03337393                0.13317877               -0.00228852               -0.00305295                0.02057888
               0.99651116                5.95953230               43.05825292                0.01000001                0.03548574               -0.04750248                0.13636661                0.06618457                0.04543210               -0.01884846
               1.99762496                5.95561401               43.05981715                0.01142278                0.13800908               -0.18551454                0.14076520                0.17639754                0.12934434               -0.13781314
               2.99927134                5.95426413               43.06193702                0.01000001                0.18447277               -0.26811870                0.14681327                0.41436817                0.23933216               -0.16356594
               4.00131442                5.95560601               43.06549992                0.01000001                0.19604792               -0.16163022                0.15557347                0.74373196                0.35032085               -0.01952059
               5.00319230                5.95944929               43.06963137                0.01176657                0.09709997               -0.03699091                0.16452040                0.90465429                0.34167779                0.04184244
               6.00325642                5.96404228               43.07282999                0.01000000               -0.06702000                0.14008365                0.16915392                0.95213893                0.30975182                0.12488353
               7.00185190                5.96888085               43.07628806                0.01000001               -0.24772346                0.58747469                0.17294780                1.07756858                0.34222891                0.31025787
               7.99830195                5.97537696               43.08017838                0.01000000               -0.50642817                1.16657227                0.17661120                1.01384077                0.30141313                0.48487100
               8.99172333                5.97893523               43.08299831                0.01088799               -0.67284788                1.49417990                0.17965995                0.58217396                0.15783069                0.50814649
               9.98484499                5.97765850               43.08439434                0.36625340               -0.68783446                1.53049870                0.18229588                0.26875124                0.07149563                0.46942862
               0.00227874                6.96447748               43.05954206                0.99999999               -0.04179628               -0.03881781                0.13792553               -0.00035453               -0.00282301                0.02140835
               1.00186078                6.95907993               43.05994080                0.29717656               -0.04256137               -0.04473722                0.14073221               -0.00394386               -0.02191966               -0.01971263
               2.00142751                6.95363937               43.05995751                0.01620779                0.03563312               -0.12067143                0.14280030                0.07535453                0.05963289               -0.11819051
               3.00257344                6.95137974               43.06198741                0.01000001                0.19304492               -0.23113632                0.14982799                0.36166458                0.31831091               -0.13641256
               4.00528841                6.95351728               43.06699963                0.01178786                0.20238985               -0.27036112                0.16377374                0.65723429                0.43464505               -0.11889535
               5.00662124                6.95819115               43.07100912                0.01000000                0.08452017               -0.14767785                0.17170498                0.86045244                0.42429516               -0.03391366
               6.00697881                6.96543925               43.07563528                0.01000001               -0.03226028                0.15971220                0.17913891                1.16386291                0.50689703                0.17217516
               7.00597603                6.97585494               43.08117019                0.01000000               -0.21888858                0.71417567                0.18742858                1.38686700                0.54192077                0.38837809
               8.00260104                6.98729634               43.08640298                0.01100439               -0.48145945                1.08838164                0.19507384                1.13015245                0.39679652                0.47073588
               8.99634684                6.99417751               43.08903280                0.01000002               -0.76783746                1.62898796                0.19347346                0.43487305                0.17587712                0.66989716
               9.98724429                6.99166690               43.09007987                0.48794892               -0.91025487                1.55684478                0.19165372                0.27682011                0.07593113                0.54500994
               0.00770328                7.96407121               43.06144726                0.99104556               -0.04328778               -0.04171363                0.14271652                0.00057557               -0.00562277                0.02576314
               1.00727040                7.95863755               43.06161822                0.89549658               -0.04355185               -0.04444008                0.14507864               -0.00098247               -0.01437167               -0.01323308
               2.00683224                7.95320058               43.06161431                0.01000000               -0.03218412               -0.04437108                0.14709912                0.09187330                0.06697818               -0.03317119
               3.00662672                7.94964141               43.06341214                0.01293011                0.04077285               -0.20027679                0.15359736                0.31234755                0.24916986               -0.15659374
               4.00764770                7.95019879               43.06696110                0.01016655                0.09263342               -0.30811717                0.16520242                0.65245042                0.43877885               -0.24509083
               5.00847938                7.95649574               43.07231776                0.01000000                0.06110937               -0.12677453                0.17805292                0.93703513                0.60853751               -0.01792407
               6.00886988                7.96723652               43.07905170                0.01000000               -0.03736186                0.16172687                0.19303626                1.26081869                0.70663321                0.17519177
               7.00773215                7.98316436               43.08613406                0.01101897               -0.31437262                0.52463734                0.20569771                1.39277785                0.62088056                0.30009387
               8.00258243                7.99714459               43.09092934                0.01000002               -0.58409557                1.31531279                0.20764878                1.26050741                0.60196315                0.55078851
               8.99605023                8.01151499               43.09765537                0.43306737               -0.35899126                0.83373328                0.21620334                0.70437004                0.35074829                0.42710506
               9.99540261                8.00879539               43.09732231                0.96064963               -0.06476298                0.82331232                0.21584453                0.27121560               -0.00201518                0.34707491
               0.01315757                8.96364321               43.06341747                1.00000000               -0.04458118               -0.04380621                0.14763474                0.00080509               -0.00080824                0.02425677
               1.01271176                8.95819112               43.06343629                0.99999998               -0.04482234               -0.04516477                0.14970404                0.00005182               -0.00082824               -0.00307951
               2.01226112                8.95275195               43.06345495                0.10898807               -0.04447877               -0.04560318                0.15177382                0.00233585               -0.01329058               -0.02164755
               3.01182218                8.94737420               43.06322451                0.01682880               -0.03890164               -0.13649542                0.15329360                0.25809662                0.13928368               -0.12548222
               4.01148309                8.94735494               43.06628945                0.01000000               -0.17489870               -0.12366851                0.15878081                0.64739082                0.55541150               -0.19813556
               5.00832421                8.95565566               43.07419744                0.01000000               -0.29782622                0.04539220                0.18483425                0.72611958                0.78630411               -0.01022172
               6.00552657                8.96867378               43.08182255                0.01094189               -0.22003457                0.12167348                0.20595688                0.81285364                0.73877084                0.10133475
               7.00392352                8.98634769               43.08873790                0.01000002               -0.30330041                0.20669742                0.21488034                1.45214659                0.85042202                0.11958169
               7.99946056                9.01360259               43.09835431                0.44230508               -0.25700382                0.78821252                0.22647472                1.20742944                0.49607693                0.36821054
               8.99878344                9.01085217               43.09790218                0.99999997               -0.06763762               -0.06775229                0.22586272               -0.00008916               -0.00522240                0.00604022
               9.99810780                9.00813315               43.09748744                0.99301660               -0.06756360               -0.06765909                0.22548780               -0.00152682               -0.00325859               -0.00510862
               0.01862355                9.96319509               43.06529239                0.99999999               -0.04608545               -0.04481239                0.15237191                0.00051537                0.01980426                0.01947392
               1.01816270                9.95773426               43.06531705                0.99999998               -0.04638395               -0.04568661                0.15445306               -0.00023432                0.01980073                0.00004070
               2.01769588                9.95228852               43.06534208                0.71286484               -0.04885230               -0.04634281                0.15653409                0.00233731                0.02414502               -0.01932735
               3.01718565                9.94691150               43.06545388                0.21979398               -0.26909082               -0.04627044                0.15862836                0.30819216                0.13189435               -0.00459699
               4.01231406                9.94772542               43.06763975                0.25287182               -0.77513613                0.03704789                0.15537116                0.60770092                0.53593899               -0.10397267
               5.00168293                9.95740358               43.07583965                0.29743602               -0.89395663                0.17479238                0.18396649                0.43310074                0.79091346               -0.02201116
               5.99443493                9.96966999               43.08374086                0.36406464               -0.49183314                0.09962047                0.20962356                0.38557237                0.68891844                0.05523942
               6.99184627                9.98729831               43.09010142                0.48650432                0.38958040                0.09506208                0.21846576                0.95421765                0.72521471                0.04758049
               8.00222653               10.01290884               43.09846340                0.97194078                0.48358161               -0.06937541                0.23613271                1.41967960                0.44525307                0.00234676
               9.00151790               10.01015995               43.09809667                0.99301843               -0.07082070               -0.06922256                0.23564716                0.00011441                0.00637534                0.00342360
              10.00081012               10.00744221               43.09768268                1.00000000               -0.07077804               -0.06909361                0.23527800               -0.00154211                0.00382508               -0.00369589
              -0.02955458               -0.03574079               44.04749356                0.90345790               -0.03101367               -0.03103301                0.10456210                0.00160556               -0.00619288                0.00674258
               0.97013528               -0.03914974               44.04900023                0.62899165               -0.02879053               -0.03427358                0.10901358                0.00282518               -0.00659646               -0.00466174
               1.96986961               -0.04246849               44.05049665                0.39242415               -0.01673044               -0.03455754                0.11351376                0.01072262                0.00398335               -0.00216514
               2.96980067               -0.04542630               44.05220622                0.36018981               -0.00304472               -0.03617947                0.11822383                0.00462374                0.02114289               -0.00132135
               3.96980871               -0.04772566               44.05401389                0.42784004               -0.00711941               -0.03747500                0.12295999               -0.00711974                0.02241596               -0.00061702
               4.96965828               -0.04941350               44.05570889                0.55396685               -0.02174434               -0.03882606                0.12764711               -0.00562758                0.01318276               -0.00037431
               5.96937383               -0.05075607               44.05730777                0.75750536               -0.03235695               -0.04016235                0.13231702               -0.00265291                0.00633986               -0.00024938
               6.96901114               -0.05194023               44.05885479                1.00000000               -0.03821525               -0.04151114                0.13696875               -0.00053873                0.00301355               -0.00019200
               7.96860952               -0.05305654               44.06038317                0.99069619               -0.04126991               -0.04298618                0.14167435                0.00054409                0.00214117               -0.00007223
               8.96818575               -0.05414020               44.06191169                1.00000000               -0.04341152               -0.04423502                0.14652646                0.00079258                0.00167438                0.00001638
               9.96774129               -0.05521150               44.06343085                1.00000000               -0.04444563               -0.04571198                0.15117446                0.00052490                0.00114963                0.00093282
              -0.02612958                0.96394888               44.04933390                0.62951362               -0.03430330               -0.02885168                0.10914620                0.00284323                0.00476533                0.00965364
               0.97352738                0.96050753               44.05083824                0.01156032               -0.03776511               -0.03770978                0.11359070                0.00702280                0.01097085               -0.00906892
               1.97311511                0.95718593               44.05246678                0.01000000               -0.05259472                0.00177467                0.11807206                0.06954942                0.02565583                0.00271842
               2.97247549                0.95421191               44.05427191                0.01000001               -0.06920008                0.04694204                0.12263148                0.13935579                0.03593220                0.01340429
               3.97173111                0.95189959               44.05613783                0.01000000               -0.06791381                0.07573040                0.12706541                0.17710686                0.02948120                0.01604854
               4.97111721                0.95019824               44.05785418                0.01000000               -0.05602262                0.08268977                0.13136845                0.17107599                0.01505274                0.02079817
               5.97061066                0.94884231               44.05945555                0.01000001               -0.04806104                0.10241523                0.13560448                0.10062281                0.00574374                0.02183673
               6.97015599                0.94764466               44.06099674                0.28431693               -0.04478567               -0.04230512                0.13981905               -0.00446965                0.00148651               -0.00031025
               7.96971495                0.94651360               44.06251713                0.87067169               -0.04424194               -0.04324658                0.14401744               -0.00114531                0.00030998               -0.00033724
               8.96927115                0.94541745               44.06403636                0.99999999               -0.04485537               -0.04445322                0.14852165                0.00004588                0.00016806               -0.00002511
               9.96881784                0.94433138               44.06555465                0.99946109               -0.04533134               -0.04599841                0.15318450               -0.00020984                0.00008984                0.00089632
              -0.02261502                1.96368218               44.05123025                0.39310867               -0.03462963               -0.01711186                0.11377740                0.01062215                0.00176245                0.01425383
               0.97703869                1.96009607               44.05258815                0.01000000                0.00856182               -0.05219502                0.11817206                0.06246757                0.03118831               -0.01281970
               1.97755622                1.95756700               44.05453359                0.01000001                0.04177188                0.01889781                0.12359478                0.23048680                0.07512120                0.01574635
               2.97787412                1.95551254               44.05663143                0.01000000               -0.00958528                0.08745144                0.12718859                0.34493537                0.07598647                0.02881350
               3.97736451                1.95378895               44.05859452                0.01000000               -0.08685175                0.17725932                0.13159683                0.43697990                0.06028403                0.04750290
               4.97613709                1.95224030               44.06042263                0.01000001               -0.17123252                0.21357543                0.13593973                0.46573264                0.03845421                0.05098096
               5.97393986                1.95129224               44.06204499                0.01141935               -0.24433137                0.27016928                0.13981856                0.24799859               -0.00678973                0.06361366
               6.97125046                1.94721367               44.06313654                0.01620382               -0.15630182                0.12880608                0.14179873                0.08028601               -0.02268094                0.03945991
               7.97081383                1.94607853               44.06464636                0.01000000               -0.04407877                0.09564546                0.14593783                0.10135084               -0.00151033                0.03869437
               8.97036889                1.94497074               44.06616094                0.09663238               -0.04522953               -0.04238271                0.15050640                0.00270046               -0.00108018               -0.00040386
               9.96990923                1.94386853               44.06767878                0.70387082               -0.04596501               -0.04709719                0.15519662                0.00156457               -0.00090833                0.00099489
              -0.01874493                2.96360664               44.05315419                0.36081380               -0.03631611               -0.00405375                0.11858854                0.00463512               -0.00024676                0.01844733
               0.98089191                2.95946363               44.05435743                0.01000001                0.05266528               -0.06814405                0.12281608                0.11528945                0.05309411               -0.01316399
               1.98230838                2.95756389               44.05662706                0.01000000                0.11301659               -0.04097085                0.12728065                0.30316700                0.11086450                0.00686653
               2.98315224                2.95596093               44.05883810                0.01000000                0.07172878                0.02343098                0.13184855                0.44414093                0.11713565                0.02549060
               3.98374295                2.95544478               44.06113374                0.01197178               -0.01118315                0.08608133                0.13663007                0.52308403                0.10032032                0.03812207
               4.98292858                2.95446975               44.06296075                0.01000000               -0.15728467                0.18389156                0.14107160                0.59609739                0.07440387                0.06380246
               5.98059726                2.95424570               44.06479953                0.01000001               -0.29765804                0.31253580                0.14516673                0.53027875                0.03639001                0.11388621
               6.97697542                2.95022078               44.06607443                0.01000001               -0.33061808                0.53635306                0.14791051                0.47812709                0.00314842                0.16353619
               7.97398490                2.94842651               44.06756071                0.01296917               -0.27201285                0.43054490                0.15068337                0.30121277               -0.03679017                0.13498977
               8.97153516                2.94456980               44.06827786                0.01684637               -0.14656784                0.19080736                0.15175257                0.10146018               -0.04103787                0.07860923
               9.97105354                2.94338944               44.06980483                0.21923259               -0.04816207                0.04577009                0.15713325                0.08376033               -0.00052154                0.05825023
              -0.01423629                3.96360110               44.05510647                0.42911639               -0.03764810               -0.00844261                0.12348158               -0.00672124               -0.00222132                0.02104323
               0.98538723                3.95873319               44.05612650                0.01000000                0.06792708               -0.06665719                0.12741881                0.13603877                0.06592153               -0.01545137
               1.98712225                3.95674758               44.05850900                0.01000000                0.17444088               -0.10817729                0.13180566                0.34042320                0.14887077               -0.02012473
               2.98887605                3.95598116               44.06101618                0.01197217                0.10975622               -0.05625574                0.13684436                0.46066401                0.14705115                0.00373863
               3.98931738                3.95551058               44.06319298                0.01000000                0.01910372               -0.02723162                0.14157252                0.55924659                0.14150947                0.01415747
               4.98925812                3.95591813               44.06554183                0.01000001               -0.02614859                0.13759468                0.14664970                0.77572742                0.16056031                0.09152124
               5.98879440                3.95754295               44.06810895                0.01000001               -0.13129667                0.34282623                0.15237405                0.91247872                0.15586392                0.17940550
               6.98663219                3.95794073               44.07042721                0.01179335               -0.31526680                0.61951722                0.15669434                0.76569568                0.06627232                0.22676226
               7.98248907                3.95468943               44.07143172                0.01019221               -0.45985124                0.69902517                0.15519957                0.42512668               -0.04220823                0.24477601
               8.97743516                3.94878688               44.07197553                0.01000000               -0.42719527                0.90392724                0.14935543                0.23230096               -0.05727068                0.29422806
               9.97394516                3.94478393               44.07307787                0.25335822               -0.34900000                0.79074488                0.15007454               -0.04373375               -0.02728861                0.26981781
              -0.00914353                4.96343779               44.05705066                0.55687575               -0.03902674               -0.02285395                0.12832444               -0.00523128               -0.00267737                0.02124630
               0.99046621                4.95813048               44.05787955                0.01000000                0.05061984               -0.05517217                0.13190161                0.12225280                0.06663141               -0.01784500
               1.99186887                4.95540034               44.06009425                0.01000001                0.15681606               -0.15740142                0.13637666                0.33224293                0.16402198               -0.06120433
               2.99360253                4.95483582               44.06272021                0.01000000                0.15610236               -0.18551494                0.14161963                0.47168432                0.18473009               -0.07268569
               3.99499092                4.95490015               44.06517405                0.01000001                0.14041137               -0.08766030                0.14750873                0.70113753                0.22348894                0.00731005
               4.99641075                4.95722164               44.06844009                0.01000001                0.09166579                0.09477871                0.15450491                0.99328404                0.27625702                0.11543392
               5.99682423                4.96110222               44.07184191                0.01177264               -0.06339478                0.25248216                0.16051610                0.97975067                0.22205998                0.16660877
               6.99514286                4.96261113               44.07400391                0.01000000               -0.25914757                0.48205467                0.16294404                0.81227785                0.14915509                0.22936563
               7.99164128                4.96240701               44.07609381                0.01000000               -0.45280901                0.97795052                0.16199451                0.77403563                0.14070726                0.36888862
               8.98608668                4.96264834               44.07833392                0.01000000               -0.67282562                1.45266659                0.15992088                0.52649508                0.08863630                0.47489835
               9.97818477                4.95920433               44.07971431                0.29914322               -0.79019093                1.57699327                0.16047008                0.16568968                0.02350759                0.47008043
              -0.00372631                5.96314402               44.05898970                0.76367186               -0.04039601               -0.03312946                0.13313214               -0.00237862               -0.00311417                0.02098073
               0.99586973                5.95762974               44.05961633                0.01000001                0.03940408               -0.04770415                0.13631217                0.07044358                0.04599780               -0.01922470
               1.99706178                5.95359955               44.06122492                0.01142297                0.14700958               -0.19335713                0.14061689                0.18792425                0.13180114               -0.13898996
               2.99880993                5.95227086               44.06340713                0.01000001                0.19462631               -0.27853696                0.14675914                0.43893476                0.24442773               -0.16189943
               4.00095430                5.95375737               44.06706102                0.01000001                0.20559026               -0.16453081                0.15566554                0.78286288                0.35608927               -0.01041606
               5.00292173                5.95781370               44.07128268                0.01177291                0.10228163               -0.03481090                0.16470438                0.94732600                0.34378008                0.05272946
               6.00299993                5.96259260               44.07452458                0.01000000               -0.06743895                0.14801463                0.16898790                0.99410489                0.30833003                0.13514293
               7.00157295                5.96758183               44.07801461                0.01000000               -0.25336832                0.61031676                0.17185216                1.12470230                0.34001395                0.32202982
               7.99793257                5.97424844               44.08193520                0.01000000               -0.52026035                1.21068684                0.17414036                1.06151214                0.29858282                0.49958268
               8.99116774                5.97784022               44.08477824                0.01094030               -0.68927979                1.54369937                0.17530530                0.61194947                0.15537687                0.52183706
               9.98414697                5.97632380               44.08619655                0.36643222               -0.70207725                1.57038098                0.17675886                0.28672312                0.07071885                0.47996645
               0.00183745                6.96277520               44.06092125                0.99999999               -0.04179093               -0.03873484                0.13791224               -0.00037910               -0.00287835                0.02181957
               1.00141954                6.95717640               44.06134798                0.29716880               -0.04256084               -0.04480078                0.14070128               -0.00404778               -0.02234872               -0.02011113
               2.00098624                6.95153320               44.06138519                0.01620637                0.04019289               -0.12525433                0.14273456                0.08097978                0.06164022               -0.12019720
               3.00222340                6.94926508               44.06349177                0.01000001                0.20595477               -0.24143887                0.15073011                0.38511198                0.32751845               -0.13458313
               4.00510533                6.95160953               44.06865780                0.01179829                0.21493238               -0.28206891                0.16740412                0.69399429                0.44259550               -0.10731331
               5.00652205                6.95652543               44.07274382                0.01000000                0.09164381               -0.15318895                0.17442736                0.90105849                0.42577323               -0.01999183
               6.00693821                6.96406251               44.07743456                0.01000000               -0.02704939                0.16620410                0.17972033                1.21415012                0.50726686                0.18850313
               7.00598106                6.97481746               44.08304504                0.01000000               -0.21625372                0.74024749                0.18673514                1.44787719                0.54238394                0.40615413
               8.00261313                6.98662075               44.08834822                0.01105405               -0.48653768                1.12037174                0.19340888                1.17982805                0.39362640                0.48556241
               8.99625031                6.99352233               44.09095327                0.01000002               -0.78305343                1.67307605                0.19025549                0.45936591                0.16965712                0.68439327
               9.98695207                6.99061195               44.09197569                0.48821797               -0.92982431                1.60946776                0.18721342                0.28747808                0.07274184                0.55570883
               0.00746371                7.96236932               44.06287452                0.99103216               -0.04329283               -0.04169022                0.14273770                0.00057864               -0.00573557                0.02626082
               1.00703078                7.95673373               44.06306897                0.89556035               -0.04355081               -0.04446162                0.14507212               -0.00100570               -0.01465701               -0.01349948
               2.00659269                7.95109447               44.06308510                0.01000000               -0.02974749               -0.04436429                0.14705819                0.09728945                0.06925993               -0.03382712
               3.00643583                7.94744208               44.06495775                0.01297386                0.04905743               -0.20965878                0.15554953                0.32929818                0.25743945               -0.15646998
               4.00757384                7.94811599               44.06864737                0.01020119                0.10270446               -0.32924086                0.17487259                0.68688060                0.44599531               -0.23828842
               5.00848992                7.95474992               44.07413274                0.01000000                0.07085297               -0.13497985                0.18470173                0.98372105                0.61259818                0.00091487
               6.00899090                7.96591668               44.08100475                0.01000000               -0.02588310                0.16521414                0.19679730                1.31501915                0.70887239                0.19700067
               7.00797226                7.98238678               44.08820018                0.01106665               -0.30833183                0.53693146                0.20660924                1.44456127                0.61963256                0.31627757
               8.00282426                7.99665587               44.09300437                0.01000002               -0.58041989                1.34248052                0.20667866                1.30709508                0.60249107                0.56259458
               8.99636386                8.01130174               44.09981242                0.43299753               -0.35534895                0.85604884                0.21545593                0.73867404                0.35516785                0.43360626
               9.99571728                8.00851315               44.09947707                0.96060078               -0.06465752                0.86205746                0.21557289                0.29812538               -0.00210290                0.35478027
               0.01312022                8.96194140               44.06489410                1.00000000               -0.04459300               -0.04381201                0.14769317                0.00081296               -0.00082617                0.02472673
               1.01267429                8.95628717               44.06493345                0.99999998               -0.04482737               -0.04517813                0.14972800                0.00005380               -0.00084627               -0.00314188
               2.01222367                8.95064591               44.06497265                0.10895156               -0.04432250               -0.04560074                0.15176318                0.00262179               -0.01359947               -0.02206967
               3.01178784                8.94507190               44.06475690                0.01715014               -0.03442834               -0.14162091                0.15293468                0.26449403                0.14268545               -0.12897039
               4.01153510                8.94502471               44.06791586                0.01000000               -0.16960256               -0.14020582                0.17450658                0.68201745                0.57673558               -0.19649633
               5.00839579                8.95382583               44.07609223                0.01000000               -0.29666813                0.04065854                0.20092522                0.76883199                0.79442053                0.00839452
               6.00560174                8.96736680               44.08392153                0.01099322               -0.21313470                0.12019832                0.21359322                0.84500439                0.73744282                0.11771457
               7.00413309                8.98555609               44.09090344                0.01000002               -0.28808332                0.20030348                0.21704262                1.49270510                0.85138115                0.12593168
               7.99984007                9.01347036               44.10061700                0.44190790               -0.24832912                0.80595647                0.22635065                1.24731186                0.50070033                0.37281473
               8.99916651                9.01064331               44.10015873                0.99999997               -0.06741680               -0.06753873                0.22523834               -0.00034153               -0.00554270                0.00583550
               9.99849174                9.00785310               44.09974147                0.99320944               -0.06747715               -0.06761366                0.22522883               -0.00167130               -0.00318798               -0.00534769
               0.01878842                9.96149308               44.06681655                1.00000000               -0.04610806               -0.04483111                0.15246270                0.00052843                0.02018778                0.01985149
               1.01832734                9.95583017               44.06686186                0.99999138               -0.04640140               -0.04570030                0.15450960               -0.00022643                0.02018369                0.00004090
               2.01786039                9.95018245               44.06690754                0.71275379               -0.04902158               -0.04634598                0.15655651                0.00264718                0.02453479               -0.01970504
               3.01734691                9.94460967               44.06704011                0.22014625               -0.27000638               -0.04622387                0.15870697                0.31237835                0.12875876               -0.00462158
               4.01246026                9.94531188               44.06918018                0.25323696               -0.79112146                0.02871637                0.14945663                0.64018758                0.54629307               -0.10249462
               5.00152448                9.95556310               44.07770219                0.29759692               -0.91497696                0.17372659                0.20089424                0.46330759                0.80290045               -0.00985050
               5.99416073                9.96832065               44.08587036                0.36411040               -0.49008422                0.09538501                0.21669538                0.39738589                0.69399257                0.06303348
               6.99172279                9.98639284               44.09230253                0.48660823                0.42612812                0.08367525                0.22103405                0.98168812                0.73287150                0.04758530
               8.00268329               10.01277500               44.10082667                0.97157661                0.51257465               -0.06953569                0.23700874                1.46222715                0.45341546                0.00227473
               9.00197429               10.00995096               44.10045514                0.99321130               -0.07095114               -0.06923437                0.23595691                0.00007158                0.00620326                0.00355273
              10.00126427               10.00716088               44.10003870                1.00000000               -0.07100225               -0.06922219                0.23594502               -0.00175550                0.00392852               -0.00364686
              -0.03114543               -0.03753661               45.04853817                0.90284436               -0.03090244               -0.03092020                0.10435907                0.00162745               -0.00618977                0.00674739
               0.96854554               -0.04105729               45.05008955                0.62810524               -0.02851162               -0.03427660                0.10884963                0.00296457               -0.00656475               -0.00467039
               1.96828434               -0.04448311               45.05163117                0.39212661               -0.01569006               -0.03450734                0.11339139                0.01131129                0.00416845               -0.00217295
               2.96823174               -0.04752742               45.05338804                0.36024274               -0.00120895               -0.03614422                0.11813929                0.00480884                0.02151946               -0.00135644
               3.96826016               -0.04987660               45.05524320                0.42795492               -0.00548843               -0.03744677                0.12290304               -0.00754582                0.02285347               -0.00067949
               4.96812197               -0.05158146               45.05698527                0.55409122               -0.02085024               -0.03881162                0.12762794               -0.00596093                0.01362879               -0.00043962
               5.96784315               -0.05292313               45.05863107                0.75777044               -0.03197496               -0.04015980                0.13234406               -0.00282622                0.00678549               -0.00032087
               6.96748248               -0.05409868               45.06022486                1.00000000               -0.03808873               -0.04152175                0.13704641               -0.00059584                0.00348262               -0.00025750
               7.96708138               -0.05520357               45.06180057                0.99072007               -0.04124706               -0.04301529                0.14180734                0.00054448                0.00271326               -0.00020148
               8.96665753               -0.05627485               45.06337791                1.00000000               -0.04344434               -0.04427216                0.14672222                0.00080551                0.00221502               -0.00001339
               9.96621249               -0.05733388               45.06494381                1.00000000               -0.04450430               -0.04576648                0.15142207                0.00055972                0.00158287                0.00137235
              -0.02760847                0.96215419               45.05042450                0.62860488               -0.03430896               -0.02857927                0.10897210                0.00298123                0.00476888                0.00968565
               0.97204844                0.95859994               45.05197347                0.01127151               -0.03795091               -0.03787392                0.11345516                0.00744851                0.01098940               -0.00907847
               1.97163251                0.95517182               45.05364700                0.01000000               -0.05359312                0.00536130                0.11797281                0.07466255                0.02570534                0.00313851
               2.97097658                0.95211114               45.05549786                0.01000001               -0.07103976                0.05118818                0.12255466                0.14642273                0.03587050                0.01332568
               3.97021172                0.94974893               45.05740813                0.01000000               -0.06954759                0.08114709                0.12699325                0.18552367                0.02921288                0.01607302
               4.96958563                0.94803043               45.05916758                0.01000000               -0.05691085                0.08804122                0.13130920                0.17904117                0.01465298                0.02107940
               5.96907350                0.94667527               45.06081141                0.01000001               -0.04844447                0.10828698                0.13556592                0.10533512                0.00529078                0.02225731
               6.96861674                0.94548610               45.06239488                0.28467695               -0.04492973               -0.04232331                0.13980719               -0.00470395                0.00101406               -0.00082270
               7.96817491                0.94436628               45.06395739                0.87120050               -0.04429961               -0.04325471                0.14403353               -0.00120439               -0.00001329               -0.00068381
               8.96773075                0.94328243               45.06552189                0.99999999               -0.04488892               -0.04446656                0.14858275                0.00004854                0.00008341               -0.00006109
               9.96727713                0.94220845               45.06708706                0.99929582               -0.04536184               -0.04603261                0.15329834               -0.00018351                0.00008647                0.00133544
              -0.02397730                1.96189181               45.05236730                0.39275807               -0.03458083               -0.01618018                0.11363159                0.01116735                0.00175293                0.01442114
               0.97567689                1.95818523               45.05376933                0.01000000                0.01218469               -0.05302711                0.11806431                0.06744814                0.03163687               -0.01282221
               1.97626639                1.95562412               45.05576804                0.01000001                0.04530993                0.02258667                0.12322184                0.24173903                0.07560785                0.01616021
               2.97658309                1.95349634               45.05790059                0.01000000               -0.01075246                0.09462786                0.12652004                0.35983173                0.07577334                0.02890929
               3.97605134                1.95174634               45.05990754                0.01000000               -0.09033173                0.18799408                0.13082156                0.45689540                0.06057546                0.04803094
               4.97477645                1.95017937               45.06177998                0.01000001               -0.17785825                0.22510480                0.13527119                0.48668682                0.03879409                0.05210159
               5.97249418                1.94924261               45.06344326                0.01141904               -0.25395296                0.28328282                0.13956837                0.25961306               -0.00768698                0.06592270
               6.96969739                1.94505486               45.06455382                0.01620013               -0.16166080                0.13572912                0.14164859                0.08407247               -0.02480623                0.04105191
               7.96926096                1.94393133               45.06610515                0.01000000               -0.04405317                0.10039846                0.14581571                0.10477580               -0.00228791                0.03991220
               8.96881633                1.94283582               45.06766566                0.09649403               -0.04520875               -0.04219298                0.15043260                0.00294606               -0.00157190               -0.00083462
               9.96835679                1.94174546               45.06923067                0.70360365               -0.04595444               -0.04721814                0.15517669                0.00181986               -0.00133524                0.00138809
              -0.01997196                2.96183059               45.05433946                0.36079048               -0.03629440               -0.00253139                0.11846707                0.00482152               -0.00028545                0.01881495
               0.97966510                2.95753940               45.05558512                0.01000001                0.05640696               -0.06956751                0.12272324                0.12206513                0.05305230               -0.01323523
               1.98115618                2.95562355               45.05789709                0.01000000                0.11929488               -0.04163646                0.12660845                0.31723411                0.11102699                0.00653508
               2.98205099                2.95400369               45.06015239                0.01000000                0.07552114                0.02814888                0.13079597                0.46443365                0.11777206                0.02607511
               3.98266660                2.95350881               45.06249508                0.01197121               -0.01139514                0.09348884                0.13530188                0.54649725                0.10125899                0.03917763
               4.98182309                2.95253252               45.06436750                0.01000000               -0.16381644                0.19503470                0.13987664                0.62227695                0.07577562                0.06568896
               5.97939027                2.95234093               45.06625301                0.01000001               -0.31068134                0.32811154                0.14496147                0.55368822                0.03834409                0.11790409
               6.97560946                2.94820069               45.06756181                0.01000001               -0.34504098                0.55908698                0.15001762                0.49790736                0.00517193                0.17019180
               7.97248945                2.94637425               45.06907362                0.01301332               -0.28169627                0.44660726                0.15340009                0.31216481               -0.03808146                0.13953414
               8.96997554                2.94243857               45.06979395                0.01717281               -0.14976041                0.19278162                0.15134854                0.10414950               -0.04367675                0.07551537
               9.96949425                2.94126409               45.07137523                0.21953951               -0.04812932                0.03907621                0.15703961                0.09167549               -0.00062956                0.05238529
              -0.01529849                3.96184118               45.05634078                0.42912611               -0.03762797               -0.00719658                0.12337867               -0.00699979               -0.00227598                0.02148832
               0.98432523                3.95679388               45.05740026                0.01000000                0.07226346               -0.06780753                0.12733072                0.14388396                0.06595060               -0.01566912
               1.98614678                3.95479139               45.05982385                0.01000000                0.18306366               -0.11069540                0.13101293                0.35902224                0.14939997               -0.01998464
               2.98798650                3.95405932               45.06237929                0.01197311                0.11528406               -0.05531222                0.13543770                0.48333081                0.14805404                0.00467381
               3.98845246                3.95361611               45.06460309                0.01000000                0.02016850               -0.02403766                0.14004422                0.58514835                0.14290640                0.01606061
               4.98838987                3.95408006               45.06700353                0.01000001               -0.02763411                0.14831345                0.14522156                0.80936635                0.16324800                0.09502057
               5.98789978                3.95580484               45.06963394                0.01000001               -0.13838234                0.36065921                0.15154844                0.95056098                0.16039376                0.18419556
               6.98562223                3.95623659               45.07200709                0.01180438               -0.33167035                0.64523332                0.15955326                0.79698594                0.07024272                0.23213843
               7.98126637                3.95286348               45.07298761                0.01023121               -0.48063738                0.72324732                0.16089321                0.44140813               -0.04685609                0.25266861
               8.97600948                3.94669146               45.07345344                0.01000000               -0.43635514                0.92752961                0.14379982                0.24125471               -0.06956672                0.29626236
               9.97253927                3.94252699               45.07454250                0.25373417               -0.34702106                0.80378828                0.13358966               -0.03990110               -0.02670430                0.26079797
              -0.01001735                4.96168666               45.05833352                0.55684712               -0.03900825               -0.02222894                0.12824517               -0.00543078               -0.00273265                0.02167796
               0.98959257                4.95618325               45.05919818                0.01000000                0.05442656               -0.05572512                0.13182328                0.12968247                0.06690213               -0.01818290
               1.99107118                4.95340964               45.06145517                0.01000001                0.16501577               -0.16240574                0.13559512                0.35188018                0.16504921               -0.06103375
               2.99289288                4.95289745               45.06413171                0.01000000                0.16388234               -0.19023688                0.14028686                0.49778571                0.18665305               -0.07117755
               3.99434883                4.95302806               45.06664372                0.01000001                0.14644035               -0.08510883                0.14579157                0.73547693                0.22636446                0.01161955
               4.99582169                4.95549879               45.06997938                0.01000001                0.09480649                0.10600461                0.15246063                1.03702587                0.27942632                0.12239376
               5.99624496                4.95955411               45.07344335                0.01177933               -0.06655728                0.26738216                0.15884738                1.01989352                0.22369636                0.17242685
               6.99449054                4.96110535               45.07563381                0.01000000               -0.26911017                0.50218624                0.16254072                0.84522076                0.14755214                0.23430360
               7.99086275                4.96083919               45.07770701                0.01000000               -0.46767098                1.01253603                0.16056113                0.80637098                0.13685032                0.37819949
               8.98513713                4.96098917               45.07990601                0.01000000               -0.69187974                1.50305830                0.15183709                0.55303507                0.08645700                0.49478797
               9.97702516                4.95733985               45.08127411                0.29940952               -0.81119650                1.62347316                0.14518814                0.17924258                0.02062742                0.49410203
              -0.00440029                5.96139660               45.06032079                0.76365788               -0.04038196               -0.03287982                0.13308437               -0.00246972               -0.00317656                0.02139196
               0.99519589                5.95567938               45.06097917                0.01000001                0.04352340               -0.04790951                0.13625322                0.07519807                0.04643469               -0.01961253
               1.99647018                5.95154327               45.06262948                0.01142213                0.15639554               -0.20171995                0.14004275                0.20102751                0.13403339               -0.13993656
               2.99832380                5.95025458               45.06487220                0.01000001                0.20452384               -0.28799925                0.14561267                0.46644892                0.24901766               -0.15982027
               4.00056066                5.95191394               45.06861323                0.01000001                0.21402646               -0.16216968                0.15381199                0.82425070                0.36173525                0.00031205
               5.00260433                5.95620015               45.07292546                0.01178058                0.10652145               -0.02787694                0.16217313                0.98883984                0.34578788                0.06452936
               6.00269109                5.96115249               45.07620975                0.01000000               -0.06813846                0.15875148                0.16677336                1.03290699                0.30665572                0.14477308
               7.00124156                5.96628032               45.07972510                0.01000000               -0.25905544                0.63435506                0.16964765                1.16906108                0.33684348                0.33262911
               7.99750998                5.97311420               45.08366119                0.01000000               -0.53360226                1.25496096                0.17088510                1.10874422                0.29358372                0.51539943
               8.99056952                5.97675262               45.08650441                0.01099789               -0.70436167                1.59210129                0.17054062                0.64288215                0.15079535                0.54158764
               9.98342274                5.97499645               45.08792951                0.36660716               -0.71467745                1.60803538                0.17036691                0.30583971                0.06997131                0.50098416
               0.00136771                6.96102906               45.06230030                0.99999999               -0.04178512               -0.03865115                0.13789944               -0.00040330               -0.00293475                0.02224210
               1.00094986                6.95522506               45.06275483                0.29717068               -0.04255923               -0.04486438                0.14066741               -0.00415184               -0.02278649               -0.02051755
               2.00051652                6.94937524               45.06281220                0.01620350                0.04506695               -0.13033464                0.14266254                0.08854461                0.06397674               -0.12210539
               3.00185120                6.94713746               45.06500201                0.01000001                0.21858738               -0.25038542                0.15038610                0.41494271                0.33919870               -0.13113995
               4.00488827                6.94978466               45.07034771                0.01180818                0.22543714               -0.28694876                0.16592172                0.73178703                0.45036846               -0.08722189
               5.00635994                6.95494125               45.07449767                0.01000000                0.09673294               -0.15172681                0.17353466                0.93570583                0.42520513               -0.00057754
               6.00682293                6.96272914               45.07922969                0.01000000               -0.02249446                0.17685401                0.17764286                1.25700027                0.50502812                0.20707132
               7.00591005                6.97379245               45.08490489                0.01000000               -0.21287973                0.76755959                0.18418883                1.50464390                0.54082987                0.42454017
               8.00256534                6.98593841               45.09027116                0.01110883               -0.48987664                1.15067491                0.19090468                1.22743871                0.38847893                0.50116998
               8.99611252                6.99283119               45.09283791                0.01000002               -0.79555201                1.71145188                0.18664314                0.48367657                0.16137800                0.70277522
               9.98665430                6.98950056               45.09382414                0.48848371               -0.94582212                1.65643808                0.18292212                0.29736248                0.06816185                0.57313726
               0.00719965                7.96062358               45.06430201                0.99102584               -0.04329806               -0.04166741                0.14276084                0.00058198               -0.00585031                0.02677171
               1.00676667                7.95478209               45.06451966                0.89562509               -0.04354937               -0.04448285                0.14506432               -0.00102889               -0.01494750               -0.01377022
               2.00632866                7.94893658               45.06455547                0.01000000               -0.02767166               -0.04435640                0.14701282                0.10569723                0.07256137               -0.03449670
               3.00621324                7.94524687               45.06652313                0.01301944                0.05319722               -0.22125167                0.15829949                0.35599332                0.26995126               -0.15738704
               4.00739261                7.94617496               45.07045855                0.01023734                0.10803649               -0.34462306                0.18563359                0.73564702                0.46033761               -0.20330262
               5.00837397                7.95316562               45.07601180                0.01000000                0.07936400               -0.13435766                0.18653465                1.01808058                0.60561713                0.04126208
               6.00897989                7.96468957               45.08298765                0.01000000               -0.01243973                0.17166600                0.19652514                1.35535924                0.70284224                0.22515769
               7.00812517                7.98163151               45.09026625                0.01111970               -0.29799380                0.54857604                0.20487762                1.48918746                0.61470930                0.33311317
               8.00302001                7.99612770               45.09506291                0.01000002               -0.57221375                1.36490934                0.20429881                1.35020418                0.60178712                0.57494961
               8.99668090                8.01098166               45.10196449                0.43289629               -0.34943798                0.87474844                0.21533863                0.77165574                0.35962973                0.44171738
               9.99603125                8.00812521               45.10163377                0.96047560               -0.06496454                0.89819996                0.21652224                0.32556835               -0.00191798                0.36490003
               0.01306233                8.96019571               45.06637133                1.00000000               -0.04460524               -0.04381878                0.14775420                0.00082097               -0.00084407                0.02520796
               1.01261628                8.95433540               45.06643085                0.99999999               -0.04483242               -0.04519134                0.14975154                0.00005589               -0.00086429               -0.00320511
               2.01216568                8.94848812               45.06649022                0.10890081               -0.04417989               -0.04559738                0.15174913                0.00283427               -0.01418915               -0.02250139
               3.01173268                8.94271243               45.06628320                0.01748521               -0.02416064               -0.14971117                0.15244862                0.28395178                0.15726995               -0.13430142
               4.01168247                8.94289220               45.06977958                0.01000000               -0.17628661               -0.15140411                0.19692978                0.73634516                0.53971643               -0.14750195
               5.00820695                8.95225410               45.07821595                0.01000000               -0.31091246                0.04105238                0.21931363                0.79735273                0.75672209                0.05716171
               6.00546422                8.96616246               45.08609441                0.01104773               -0.19756412                0.11717143                0.21469884                0.86222129                0.71760152                0.13788713
               7.00425567                8.98476397               45.09307875                0.01000002               -0.26224746                0.19101596                0.21563647                1.52481776                0.84746324                0.13247421
               8.00021927                9.01323660               45.10288133                0.44146927               -0.23537737                0.82036558                0.22693927                1.28422008                0.50521200                0.37756367
               8.99954812                9.01032616               45.10240694                0.99999997               -0.06703572               -0.06717440                0.22460253               -0.00115020               -0.00603231                0.00549563
               9.99887856                9.00746456               45.10199201                0.99340905               -0.06695614               -0.06751982                0.22532741               -0.00164390               -0.00370781               -0.00572234
               0.01893670                9.95974720               45.06834164                1.00000000               -0.04613101               -0.04485085                0.15255639                0.00054209                0.02058118                0.02023742
               1.01847538                9.95387826               45.06840724                0.99982831               -0.04641880               -0.04571391                0.15456624               -0.00021796                0.02057684                0.00004099
               2.01800832                9.94802463               45.06847321                0.71261082               -0.04935986               -0.04634833                0.15657635                0.00298306                0.02502598               -0.02009120
               3.01748819                9.94225265               45.06862802                0.22056191               -0.27152376               -0.04597803                0.15883052                0.33166303                0.12188316               -0.00496903
               4.01257784                9.94314688               45.07062889                0.25359323               -0.82187136                0.02546786                0.18195220                0.67623803                0.45141120               -0.05326498
               5.00105076                9.95398666               45.07985754                0.29771074               -0.94317026                0.17325653                0.22608422                0.47868683                0.78001295                0.01423292
               5.99371444                9.96703299               45.08807477                0.36414328               -0.47516829                0.08705301                0.21946770                0.39828006                0.67926055                0.07079025
               6.99154739                9.98545183               45.09452210                0.48671917                0.47138949                0.06878558                0.22072593                1.00427363                0.73647709                0.04743518
               8.00314223               10.01253501               45.10320357                0.97116556                0.54412686               -0.07015874                0.23924058                1.50161270                0.46167189                0.00250794
               9.00242993               10.00963817               45.10281581                0.99340921               -0.07103267               -0.06879888                0.23661798                0.00017156                0.00588525                0.00305332
              10.00172158               10.00677482               45.10240158                1.00000000               -0.07083567               -0.06897443                0.23728979               -0.00203380                0.00328677               -0.00431191
              -0.03278114               -0.03937851               46.04958074                0.90221669               -0.03078717               -0.03080307                0.10415311                0.00165073               -0.00618429                0.00675059
               0.96691099               -0.04301099               46.05117722                0.62721091               -0.02821864               -0.03428250                0.10868475                0.00311332               -0.00652876               -0.00467876
               1.96665449               -0.04654362               46.05276448                0.39183672               -0.01459839               -0.03445619                0.11327022                0.01193139                0.00435700               -0.00218080
               2.96661902               -0.04967307               46.05456900                0.36031308                0.00070316               -0.03610728                0.11805462                0.00499945                0.02189584               -0.00139363
               3.96666855               -0.05206911               46.05647195                0.42808443               -0.00380156               -0.03741781                0.12284698               -0.00798336                0.02329477               -0.00074521
               4.96654299               -0.05378692               46.05826145                0.55423243               -0.01993033               -0.03879618                0.12760898               -0.00630228                0.01408832               -0.00050824
               5.96626995               -0.05512316               46.05995466                0.75805184               -0.03158440               -0.04015649                0.13237278               -0.00300263                0.00725068               -0.00039599
               6.96591130               -0.05628543               46.06159572                1.00000000               -0.03796079               -0.04153229                0.13712798               -0.00065320                0.00397531               -0.00032631
               7.96551073               -0.05737421               46.06321932                0.99074554               -0.04122517               -0.04304486                0.14194606                0.00054521                0.00331494               -0.00033735
               8.96508680               -0.05842842               46.06484613                1.00000000               -0.04347926               -0.04431028                0.14692557                0.00081877                0.00278383               -0.00004411
               9.96464114               -0.05947054               46.06645930                1.00000000               -0.04456553               -0.04582245                0.15167901                0.00059618                0.00203894                0.00183467
              -0.02913215                0.96031346               46.05151335                0.62768080               -0.03431743               -0.02829264                0.10879598                0.00312876                0.00477161                0.00971648
               0.97052468                0.95664618               46.05310735                0.01097731               -0.03815057               -0.03805144                0.11331941                0.00790249                0.01100594               -0.00908825
               1.97010484                0.95311182               46.05482624                0.01000000               -0.05464577                0.00918657                0.11787427                0.08011471                0.02573983                0.00337257
               2.96943176                0.94996586               46.05672301                0.01000001               -0.07295975                0.05546313                0.12247509                0.15379809                0.03577011                0.01288450
               3.96864565                0.94755672               46.05867769                0.01000000               -0.07123828                0.08658647                0.12691678                0.19436719                0.02889891                0.01566055
               4.96800700                0.94582512               46.06048036                0.01000000               -0.05782351                0.09346630                0.13124322                0.18764119                0.01421558                0.02094691
               5.96748918                0.94447527               46.06216687                0.01000001               -0.04883500                0.11461287                0.13552116                0.11082323                0.00480757                0.02247187
               6.96703030                0.94329925               46.06379289                0.28503675               -0.04507493               -0.04233956                0.13979089               -0.00493988                0.00051553               -0.00136385
               7.96658768                0.94219534               46.06539780                0.87171932               -0.04435717               -0.04326204                0.14404701               -0.00126386               -0.00035302               -0.00104736
               8.96614315                0.94112848               46.06700802                0.99999999               -0.04492233               -0.04447965                0.14864293                0.00005117               -0.00000502               -0.00009823
               9.96568923                0.94007123               46.06862061                0.99911860               -0.04539230               -0.04606699                0.15341278               -0.00015587                0.00008319                0.00179729
              -0.02538401                1.96005564               46.05350289                0.39241582               -0.03453115               -0.01520003                0.11348506                0.01174407                0.00174201                0.01458777
               0.97427068                1.95622798               46.05494943                0.01000000                0.01605576               -0.05390980                0.11795771                0.07275664                0.03189525               -0.01283355
               1.97493711                1.95364011               46.05699803                0.01000001                0.04897056                0.02634795                0.12272358                0.25325136                0.07565870                0.01614099
               2.97525009                1.95143620               46.05916183                0.01000000               -0.01202338                0.10189418                0.12564426                0.37502164                0.07512491                0.02823500
               3.97469664                1.94966262               46.06121095                0.01000000               -0.09364163                0.19880382                0.12971652                0.47767897                0.06060338                0.04754208
               4.97337726                1.94808241               46.06312805                0.01000001               -0.18421778                0.23674279                0.13407624                0.50928218                0.03925025                0.05226096
               5.97101228                1.94716910               46.06483636                0.01142049               -0.26424091                0.29689095                0.13855447                0.27330148               -0.00805510                0.06789014
               6.96809244                1.94286778               46.06596951                0.01619833               -0.16780305                0.14360499                0.14148783                0.09097019               -0.02681266                0.04402266
               7.96765622                1.94176055               46.06756267                0.01000000               -0.04402549                0.10696998                0.14568299                0.11088354               -0.00310223                0.04334695
               8.96721193                1.94068199               46.06916960                0.09632350               -0.04518520               -0.04180747                0.15034939                0.00322143               -0.00208892               -0.00141842
               9.96675252                1.93960812               46.07078232                0.70328887               -0.04594121               -0.04729620                0.15514873                0.00207011               -0.00178452                0.00188474
              -0.02124195                2.96000946               46.05552353                0.36078498               -0.03627163               -0.00094144                0.11834451                0.00501476               -0.00032643                0.01917894
               0.97839533                2.95556799               46.05681189                0.01000001                0.06018003               -0.07106205                0.12263018                0.12909060                0.05264576               -0.01333324
               1.97996165                2.95363878               46.05915923                0.01000000                0.12571764               -0.04251546                0.12575598                0.33149385                0.11043435                0.00573663
               2.98090969                2.95200374               46.06145402                0.01000000                0.07956819                0.03295600                0.12939802                0.48509071                0.11771029                0.02580726
               3.98155301                2.95153279               46.06383978                0.01197269               -0.01117596                0.10102682                0.13334493                0.57054242                0.10171373                0.03922197
               4.98068617                2.95055997               46.06575828                0.01000000               -0.16915908                0.20621303                0.13786269                0.64976339                0.07735816                0.06650522
               5.97816983                2.95041309               46.06769876                0.01000001               -0.32139594                0.34337132                0.14316150                0.57989053                0.04285689                0.12098203
               6.97425825                2.94617135               46.06907479                0.01000001               -0.35893474                0.58218609                0.15021655                0.52562918                0.01393956                0.17798770
               7.97099114                2.94433474               46.07062872                0.01306437               -0.29491188                0.46744294                0.15687121                0.32851793               -0.02926943                0.15898594
               8.96836001                2.94029233               46.07130483                0.01751426               -0.15563828                0.19590410                0.15067797                0.10337859               -0.04911648                0.06782831
               9.96787837                2.93912531               46.07294563                0.21988616               -0.04816384                0.02464508                0.15680013                0.10731954               -0.00080306                0.03401640
              -0.01640077                3.96003681               46.05757404                0.42914633               -0.03760596               -0.00590603                0.12327292               -0.00728528               -0.00233173                0.02193086
               0.98322317                3.95480674               46.05867312                0.01000000                0.07659978               -0.06900341                0.12723902                0.15201295                0.06554395               -0.01591827
               1.98513123                3.95278981               46.06112925                0.01000000                0.19173614               -0.11323743                0.12998515                0.37816296                0.14891580               -0.02027364
               2.98705789                3.95209532               46.06372494                0.01197200                0.12100155               -0.05421950                0.13352261                0.50653540                0.14817901                0.00468160
               3.98755126                3.95168316               46.06599387                0.01000000                0.02171659               -0.02052000                0.13782632                0.61144346                0.14380190                0.01675534
               4.98749223                3.95220667               46.06844626                0.01000001               -0.02762675                0.15938093                0.14272893                0.84334191                0.16565343                0.09683687
               5.98699872                3.95403652               46.07113992                0.01000001               -0.14044244                0.37809268                0.14884628                0.98893613                0.16797452                0.18688074
               6.98468338                3.95451150               46.07361827                0.01181544               -0.34465618                0.67039217                0.15701257                0.83224369                0.08470289                0.23475631
               7.98010560                3.95110941               46.07464959                0.01026901               -0.50972223                0.74813418                0.17392545                0.46017627               -0.02892731                0.25975269
               8.97448893                3.94460007               46.07485153                0.01000000               -0.44363249                0.96003995                0.12938733                0.24401626               -0.04032303                0.34570806
               9.97123295                3.94010102               46.07574966                0.25417626               -0.32559834                0.82870281                0.10035426               -0.05076796               -0.05262876                0.33299165
              -0.01092751                4.95989134               46.05961557                0.55682487               -0.03898893               -0.02158679                0.12816427               -0.00563321               -0.00278851                0.02211446
               0.98868260                4.95418792               46.06051601                0.01000000                0.05819229               -0.05629446                0.13174126                0.13746269                0.06671589               -0.01854201
               1.99023633                4.95137403               46.06280615                0.01000001                0.17322219               -0.16730064                0.13448897                0.37248102                0.16502343               -0.06127883
               2.99214704                4.95091935               46.06552594                0.01000000                0.17171004               -0.19455846                0.13835220                0.52484981                0.18751085               -0.07070115
               3.99367053                4.95112239               46.06808988                0.01000001                0.15263012               -0.08117719                0.14318921                0.77063638                0.22826878                0.01398993
               4.99519964                4.95374759               46.07148930                0.01000001                0.09865949                0.11896651                0.14884798                1.08006484                0.28234199                0.12618427
               5.99564372                4.95797495               46.07501886                0.01178796               -0.06847022                0.28325996                0.15511880                1.05831407                0.22679188                0.17543754
               6.99383024                4.95957919               46.07725473                0.01000000               -0.27688142                0.52259149                0.16047155                0.87487428                0.14887526                0.23342469
               7.99010610                4.95929742               46.07930503                0.01000000               -0.47907579                1.04414383                0.15844046                0.84166351                0.12846771                0.38265113
               8.98424872                4.95949313               46.08137066                0.01000000               -0.71224900                1.55699967                0.15242085                0.59141682                0.06977380                0.53922954
               9.97586112                4.95569936               46.08261807                0.29968248               -0.83876085                1.68462162                0.13581374                0.19378612                0.01802086                0.57200486
              -0.00510659                5.95960507               46.06165139                0.76364985               -0.04036738               -0.03262589                0.13303583               -0.00256128               -0.00323986                0.02181279
               0.99448973                5.95368085               46.06234139                0.01000001                0.04780026               -0.04811816                0.13619076                0.08040208                0.04649418               -0.02001252
               1.99584941                5.94944379               46.06402578                0.01142240                0.16583990               -0.21044642                0.13905894                0.21527753                0.13501229               -0.14093614
               2.99780653                5.94820415               46.06631939                0.01000001                0.21431676               -0.29640012                0.14347955                0.49703211                0.25196984               -0.15923842
               4.00013575                5.95005962               46.07013726                0.01000001                0.22172192               -0.15513056                0.14982791                0.86641803                0.36594961                0.00607769
               5.00224097                5.95458600               46.07452614                0.01178935                0.10988304               -0.01600274                0.15716877                1.02933189                0.34772394                0.07211475
               6.00233341                5.95970172               46.07786005                0.01000000               -0.06912914                0.17255482                0.16231608                1.06825794                0.30627864                0.15040768
               7.00085839                5.96496333               46.08140757                0.01000000               -0.26542380                0.65939647                0.16660785                1.21082556                0.33328706                0.33977207
               7.99702493                5.97199228               46.08535290                0.01000000               -0.54715297                1.29725028                0.16913049                1.15601649                0.28573458                0.53214189
               8.98991533                5.97574006               46.08818905                0.01106172               -0.71643672                1.63123131                0.16832316                0.67386673                0.14356390                0.57210045
               9.98269620                5.97379345               46.08960389                0.36675560               -0.72191295                1.63355392                0.16825611                0.32942561                0.06732291                0.54150272
               0.00086971                6.95923882               46.06367923                0.99999999               -0.04177894               -0.03856710                0.13788671               -0.00042697               -0.00299206                0.02267592
               1.00045192                6.95322556               46.06416133                0.29717609               -0.04255622               -0.04492752                0.14063079               -0.00425411               -0.02323445               -0.02093164
               2.00001859                6.94716510               46.06423844                0.01620144                0.05099702               -0.13586393                0.14258512                0.09784187                0.06571409               -0.12366578
               3.00147186                6.94499135               46.06649949                0.01000001                0.22992293               -0.25954949                0.14852162                0.44899632                0.34734800               -0.12753128
               4.00461704                6.94801978               46.07197624                0.01181808                0.23361576               -0.27207707                0.15981723                0.77961820                0.45666494               -0.06822106
               5.00614418                6.95342754               46.07621451                0.01000000                0.10072529               -0.13645539                0.16644459                0.96192261                0.42736088                0.01293846
               6.00663155                6.96142604               46.08098742                0.01000000               -0.01939933                0.19266945                0.17304881                1.28997331                0.50402863                0.22111185
               7.00575619                6.97276712               46.08672881                0.01000000               -0.20909288                0.79559249                0.18020258                1.55745915                0.54036516                0.43968328
               8.00244969                6.98524243               46.09216631                0.01116366               -0.49156501                1.17762086                0.18866187                1.27437330                0.38308002                0.51574114
               8.99592489                6.99211775               46.09468613                0.01000002               -0.80534209                1.74134955                0.18547667                0.50991422                0.15200904                0.72363071
               9.98634285                6.98837044               46.09563413                0.48872303               -0.95820387                1.69249140                0.18219000                0.30747767                0.06344659                0.59602863
               0.00691140                7.95883373               46.06572974                0.99102305               -0.04330291               -0.04164494                0.14278437                0.00058573               -0.00596687                0.02729481
               1.00647837                7.95278230               46.06597026                0.89568653               -0.04354723               -0.04450331                0.14505483               -0.00105117               -0.01524286               -0.01404519
               2.00604045                7.94672651               46.06602536                0.01000000               -0.02732942               -0.04434798                0.14696454                0.11499064                0.07765914               -0.03517705
               3.00593178                7.94301316               46.06812374                0.01306969                0.06257357               -0.23551813                0.16114689                0.40317853                0.28768833               -0.16102383
               4.00729192                7.94461807               46.07236004                0.01027679                0.10706898               -0.30577215                0.17118207                0.73116857                0.47748901               -0.16318592
               5.00807316                7.95185689               46.07786343                0.01000000                0.07506844               -0.11521062                0.18265379                1.00041286                0.59489698                0.08322597
               6.00879329                7.96355511               46.08493525                0.01000000                0.00590119                0.18056898                0.18906096                1.37388541                0.70018717                0.24601598
               7.00819118                7.98087518               46.09229773                0.01117609               -0.28157650                0.55913051                0.20052344                1.52644214                0.61203532                0.34568518
               8.00316176                7.99554470               46.09709035                0.01000002               -0.56027937                1.38192733                0.20197308                1.39291522                0.60305573                0.58695760
               8.99698560                8.01056705               46.10411919                0.43269871               -0.34106957                0.88920754                0.21405933                0.80544333                0.36498955                0.44953130
               9.99634037                8.00764328               46.10380751                0.96024359               -0.06452242                0.93002014                0.21663862                0.35285204               -0.00159299                0.37519314
               0.01298429                8.95840592               46.06784918                1.00000000               -0.04461750               -0.04382604                0.14781624                0.00082925               -0.00086151                0.02570027
               1.01253812                8.95233549               46.06792848                0.99999999               -0.04483751               -0.04520420                0.14977449                0.00005793               -0.00088163               -0.00326871
               2.01208754                8.94627814               46.06800763                0.10883166               -0.04471217               -0.04559372                0.15173325                0.00225910               -0.01493243               -0.02294139
               3.01164387                8.94028099               46.06780588                0.01000001               -0.08454282               -0.15962508                0.15278029                0.36616553                0.18260537               -0.14142256
               4.01039668                8.94190434               46.07185445                0.01000000               -0.22142371               -0.10350508                0.24865710                0.69046902                0.48442540               -0.03883704
               5.00721540                8.95112333               46.08047851                0.01000000               -0.26528577                0.03538459                0.20487000                0.73693909                0.71026991                0.10753988
               6.00509097                8.96503742               46.08821551                0.01110693               -0.14599772                0.11103172                0.20639196                0.85572425                0.69786977                0.15162648
               7.00429544                8.98394973               46.09521616                0.01000002               -0.22374226                0.17898400                0.21039855                1.54879507                0.84938934                0.13580571
               8.00061612                9.01288097               46.10515579                0.44094063               -0.21801334                0.83179887                0.22641160                1.32067139                0.51017993                0.38336862
               8.99993518                9.00990190               46.10465078                0.98037858               -0.06843412               -0.06863749                0.22884527               -0.00008704               -0.00794689                0.00383756
               9.99924744                9.00697085               46.10424802                0.99361362               -0.06877357               -0.06938823                0.23126487               -0.00220168               -0.00469757               -0.00784955
               0.01906885                9.95795721               46.06986768                1.00000000               -0.04615423               -0.04487116                0.15265265                0.00055621                0.02098374                0.02063249
               1.01860731                9.95187822               46.06995319                0.99965839               -0.04643566               -0.04572747                0.15462330               -0.00020951                0.02097933                0.00004163
               2.01814014                9.94581464               46.07003907                0.71243452               -0.04892045               -0.04635042                0.15659421                0.00238154                0.02557655               -0.02048516
               3.01762890                9.93982066               46.07021672                0.22093612               -0.39405834               -0.04603335                0.15857849                0.43516915                0.15282052               -0.00535359
               4.01025897                9.94254797               46.07281923                0.25384616               -0.89750200                0.06436348                0.28116086                0.62342471                0.27827571                0.09109647
               4.99967886                9.95256458               46.08222387                0.29776060               -0.85887967                0.14412553                0.21772595                0.40773454                0.73109535                0.02943758
               5.99308137                9.96577574               46.09025972                0.36418496               -0.41776624                0.07383226                0.21511722                0.39355457                0.66159787                0.07725028
               6.99132353                9.98445486               46.09671705                0.48683591                0.52708205                0.05051303                0.21682069                1.02305553                0.74506680                0.04625033
               8.00362302               10.01218068               46.10561148                0.97063787                0.57852258               -0.07002977                0.24075934                1.53766151                0.47043114                0.00300367
               9.00289398               10.00919430               46.10518750                0.99361582               -0.07322804               -0.07076004                0.24338398               -0.00037736                0.00398504                0.00209184
              10.00215846               10.00625551               46.10478449                1.00000000               -0.07355286               -0.07153314                0.24580793               -0.00277749                0.00225775               -0.00567496
              -0.03446209               -0.04126681               47.05062123                0.90157677               -0.03066775               -0.03068154                0.10394458                0.00167548               -0.00617716                0.00675208
               0.96523123               -0.04501111               47.05226325                0.62630198               -0.02791038               -0.03429188                0.10851924                0.00327245               -0.00648960               -0.00468634
               1.96497970               -0.04865025               47.05389657                0.39155391               -0.01345198               -0.03440361                0.11315005                0.01258556                0.00454921               -0.00218869
               2.96496219               -0.05186330               47.05574913                0.36040514                0.00269518               -0.03606940                0.11797235                0.00519610                0.02227357               -0.00143276
               3.96503360               -0.05430300               47.05770014                0.42823808               -0.00205782               -0.03738706                0.12279086               -0.00843316                0.02373802               -0.00081439
               4.96492103               -0.05602944               47.05953745                0.55438283               -0.01898514               -0.03877942                0.12759002               -0.00665034                0.01455899               -0.00057977
               5.96465390               -0.05735547               47.06127853                0.75834555               -0.03118568               -0.04015262                0.13240335               -0.00318182                0.00773603               -0.00047470
               6.96429732               -0.05849954               47.06296742                1.00000000               -0.03783168               -0.04154270                0.13721327               -0.00071078                0.00449285               -0.00039820
               7.96389727               -0.05956728               47.06463949                0.99077849               -0.04120433               -0.04307491                0.14209060                0.00054627                0.00394689               -0.00047986
               8.96347323               -0.06059950               47.06631642                1.00000000               -0.04351633               -0.04434938                0.14713658                0.00083256                0.00338054               -0.00007605
               9.96302694               -0.06161982               47.06797739                1.00000000               -0.04462934               -0.04587994                0.15194537                0.00063449                0.00251715                0.00232006
              -0.03070104                0.95842637               47.05260042                0.62675009               -0.03432921               -0.02799043                0.10861789                0.00328666                0.00477245                0.00974572
               0.96895567                0.95464597               47.05423986                0.01067807               -0.03836560               -0.03824381                0.11318375                0.00838859                0.01101791               -0.00909746
               1.96853165                0.95100572               47.05600448                0.01000000               -0.05575715                0.01320949                0.11777648                0.08587534                0.02575637                0.00337054
               2.96784053                0.94777600               47.05794736                0.01000001               -0.07496545                0.05966675                0.12239516                0.16139410                0.03562784                0.01200010
               3.96703234                0.94532313               47.05994647                0.01000000               -0.07298805                0.09190467                0.12683507                0.20351702                0.02853329                0.01467055
               4.96638077                0.94358276               47.06179245                0.01000000               -0.05876058                0.09880552                0.13117025                0.19674453                0.01373584                0.02014005
               5.96585713                0.94224300               47.06352183                0.01000001               -0.04923245                0.12119955                0.13547014                0.11699952                0.00429331                0.02198975
               6.96539612                0.94108504               47.06519070                0.28540634               -0.04522083               -0.04235275                0.13976975               -0.00517624               -0.00000859               -0.00192910
               7.96495271                0.94000197               47.06683833                0.87223093               -0.04441426               -0.04326828                0.14405726               -0.00132355               -0.00070904               -0.00142797
               8.96450783                0.93895700               47.06849475                0.99999999               -0.04495541               -0.04449247                0.14870184                0.00005407               -0.00009754               -0.00013655
               9.96405360                0.93792138               47.07015531                0.99893081               -0.04542269               -0.04610154                0.15352801               -0.00012664                0.00007957                0.00228229
              -0.02683555                1.95817338               47.05463700                0.39208182               -0.03447934               -0.01416804                0.11333595                0.01235453                0.00172991                0.01475101
               0.97281965                1.95422401               47.05612848                0.01000000                0.02013620               -0.05484591                0.11785112                0.07836051                0.03191017               -0.01285605
               1.97356717                1.95161394               47.05822252                0.01000001                0.05265024                0.03006691                0.12216779                0.26485566                0.07512176                0.01557969
               2.97387266                1.94933003               47.06041348                0.01000000               -0.01349943                0.10903625                0.12469876                0.39026391                0.07383347                0.02662440
               3.97329718                1.94753510               47.06250187                0.01000000               -0.09683035                0.20936020                0.12845181                0.49904550                0.05993202                0.04568258
               4.97193605                1.94594667               47.06446150                0.01000001               -0.19027823                0.24808287                0.13251193                0.53319657                0.03896533                0.05088513
               5.96949162                1.94506852               47.06621435                0.01142025               -0.27506119                0.31070051                0.13680113                0.28902577               -0.00854528                0.06776590
               6.96643483                1.94065341               47.06738357                0.01619442               -0.17463943                0.15133214                0.14131174                0.10305069               -0.02821189                0.04602122
               7.96599883                1.93956736               47.06901881                0.01000000               -0.04399586                0.12325393                0.14553766                0.12892746               -0.00395783                0.04826025
               8.96555491                1.93851065               47.07067265                0.09611643               -0.04515856               -0.04218960                0.15025619                0.00296287               -0.00263120               -0.00229578
               9.96509566                1.93745814               47.07233364                0.70292740               -0.04592522               -0.04721545                0.15511286                0.00189906               -0.00225615                0.00225488
              -0.02255521                2.95814301               47.05670635                0.36079094               -0.03624744                0.00071916                0.11822034                0.00521801               -0.00036912                0.01953859
               0.97708231                2.95354905               47.05803772                0.01000001                0.06389768               -0.07263099                0.12253696                0.13626449                0.05181098               -0.01346187
               1.97872274                2.95160706               47.06041221                0.01000000                0.13211700               -0.04374772                0.12486359                0.34568894                0.10890011                0.00441538
               2.97972465                2.94995673               47.06274035                0.01000000                0.08369364                0.03754977                0.12788650                0.50580446                0.11652497                0.02453181
               3.98039661                2.94951034               47.06516198                0.01197349               -0.01066910                0.10830106                0.13106453                0.59488434                0.10095738                0.03795924
               4.97951127                2.94854442               47.06712476                0.01000000               -0.17328548                0.21695553                0.13530018                0.67837594                0.07754770                0.06567427
               5.97693090                2.94845701               47.06911624                0.01000001               -0.32764873                0.35769166                0.13984096                0.60814467                0.04550839                0.12213598
               6.97295830                2.94411168               47.07056614                0.01000001               -0.36284407                0.60491854                0.14522079                0.56909102                0.02258895                0.17993374
               7.96967402                2.94246705               47.07221104                0.01311500               -0.31409986                0.49074312                0.15465031                0.37286348               -0.01786013                0.18843924
               8.96667630                2.93811321               47.07280750                0.01000001               -0.17387174                0.25145696                0.15077311                0.15290231               -0.05641912                0.04962879
               9.96619659                2.93697707               47.07451124                0.22024904               -0.04797109                0.10281137                0.15660935                0.11612367               -0.00089566               -0.00448053
              -0.01754327                3.95818776               47.05880624                0.42918125               -0.03758323               -0.00457058                0.12316578               -0.00757715               -0.00238853                0.02237191
               0.98208090                3.95277139               47.05994504                0.01000000                0.08082713               -0.07024600                0.12714551                0.16026074                0.06462053               -0.01620111
               1.98407327                3.95073899               47.06242355                0.01000000                0.20022857               -0.11597580                0.12890670                0.39743089                0.14717558               -0.02110065
               2.98608547                3.95008103               47.06504974                0.01197184                0.12669520               -0.05338757                0.13147773                0.52984246                0.14709362                0.00362502
               3.98660718                3.94970112               47.06735961                0.01000000                0.02357114               -0.01729344                0.13531129                0.63794924                0.14339853                0.01606016
               4.98655689                3.95028578               47.06985811                0.01000001               -0.02599611                0.16990852                0.13964256                0.87747581                0.16632110                0.09657378
               5.98608725                3.95222236               47.07261087                0.01000001               -0.13751397                0.39428581                0.14408587                1.02752310                0.17055959                0.18707903
               6.98380661                3.95275178               47.07514734                0.01182658               -0.33163428                0.69364371                0.15036748                0.86917216                0.10223631                0.23627182
               7.97945457                3.94938222               47.07646612                0.01030867               -0.48518359                0.76609259                0.15793299                0.52150805               -0.02132537                0.25332972
               8.97410294                3.94353979               47.07604119                0.01000000               -0.48820756                1.01615109                0.19926852                0.33377068               -0.01463863                0.45194675
               9.96969042                3.93951437               47.07654959                0.25454598               -0.44125234                0.89743293                0.22924257                0.03216666               -0.12243510                0.64783740
              -0.01187401                4.95805160               47.06089680                0.55680991               -0.03896871               -0.02092850                0.12808090               -0.00583802               -0.00284514                0.02255561
               0.98773630                4.95214413               47.06183301                0.01000000                0.06178681               -0.05687881                0.13165529                0.14532152                0.06596240               -0.01892432
               1.98936172                4.94928754               47.06414495                0.01000001                0.18115380               -0.17233630                0.13332863                0.39320028                0.16369640               -0.06209394
               2.99135938                4.94888898               47.06689875                0.01000000                0.17945625               -0.19923807                0.13628683                0.55215907                0.18690727               -0.07156682
               3.99295085                4.94916447               47.06950750                0.01000001                0.15900871               -0.07759909                0.14035853                0.80596658                0.22838332                0.01320773
               4.99453955                4.95194259               47.07295634                0.01000001                0.10322594                0.13157290                0.14462537                1.12286939                0.28328356                0.12625892
               5.99501537                4.95634273               47.07654573                0.01179674               -0.06788363                0.29848623                0.15020914                1.09449717                0.22873826                0.17543434
               6.99318188                4.95798455               47.07884325                0.01000000               -0.28495945                0.54249490                0.15544121                0.90270071                0.14891369                0.23263094
               7.98931618                4.95778890               47.08087582                0.01000000               -0.49811592                1.07567696                0.16258160                0.87201458                0.11999850                0.37605179
               8.98321956                4.95843623               47.08295442                0.01000000               -0.72127148                1.56696866                0.16538956                0.61118439                0.03310819                0.60852345
               9.97489075                4.95492573               47.08399038                0.29980763               -0.83288107                1.66480395                0.15863966                0.26140485                0.01658561                0.70589340
              -0.00584509                5.95776919               47.06298151                0.76365273               -0.04035221               -0.03236829                0.13298559               -0.00265272               -0.00330432                0.02224271
               0.99375139                5.95163381               47.06370298                0.01000001                0.05187615               -0.04832865                0.13612453                0.08563682                0.04602187               -0.02042558
               1.99519243                5.94729226               47.06541066                0.01142362                0.17501689               -0.21925969                0.13802564                0.22966848                0.13410375               -0.14215824
               2.99725172                5.94609627               47.06774179                0.01000001                0.22402308               -0.30532435                0.14124796                0.52789292                0.25223512               -0.16089965
               3.99967289                5.94814914               47.07160979                0.01000001                0.22921459               -0.14835061                0.14556176                0.90883376                0.36763930                0.00585360
               5.00183602                5.95291724               47.07606884                0.01179855                0.11311715               -0.00399297                0.15164151                1.06996841                0.34979580                0.07128453
               6.00193524                5.95819208               47.07945607                0.01000000               -0.07107803                0.18667240                0.15722969                1.10291372                0.30731954                0.15143309
               7.00041445                5.96360168               47.08305726                0.01000000               -0.27460273                0.68556993                0.16411308                1.25301297                0.33194454                0.34309874
               7.99644318                5.97089576               47.08704380                0.01000000               -0.56123250                1.33634404                0.17028733                1.21154608                0.27767654                0.54803627
               8.98918980                5.97487916               47.08987088                0.01112801               -0.72518277                1.64687171                0.17580153                0.71900094                0.13763147                0.59540794
               9.98193953                5.97281045               47.09129464                0.36682687               -0.72502794                1.61458934                0.17905084                0.34995368                0.06476761                0.57743716
               0.00034369                6.95740423               47.06505804                0.99999999               -0.04177229               -0.03848306                0.13787311               -0.00044988               -0.00305041                0.02312001
               0.99992596                6.95117756               47.06556744                0.29718648               -0.04255225               -0.04498944                0.14059136               -0.00435419               -0.02369077               -0.02135365
               1.99949264                6.94490235               47.06566390                0.01619910                0.05671997               -0.14142079                0.14250367                0.10704367                0.06626881               -0.12472164
               3.00106036                6.94278249               47.06797245                0.01000001                0.24069555               -0.26881266                0.14662189                0.48378537                0.35052385               -0.12577950
               4.00430655                6.94619746               47.07354406                0.01182815                0.24178057               -0.25580555                0.15279699                0.83050216                0.46106031               -0.07709431
               5.00589597                6.95186273               47.07782656                0.01000000                0.10413244               -0.11755490                0.15822754                0.98697029                0.43117604                0.01454006
               6.00638920                6.96007618               47.08269067                0.01000000               -0.01787574                0.20948589                0.16792076                1.32236575                0.50909767                0.22383100
               7.00553846                6.97169595               47.08850894                0.01000000               -0.20597918                0.82280933                0.17669465                1.61179660                0.54427744                0.44867989
               8.00226962                6.98451578               47.09404440                0.01122782               -0.49267878                1.19908094                0.18840871                1.32471007                0.38151406                0.52585158
               8.99568488                6.99137367               47.09654745                0.01000002               -0.81211906                1.75642409                0.18822927                0.53877259                0.14494526                0.73949136
               9.98602724                6.98721751               47.09746794                0.48892465               -0.96576472                1.71023670                0.18697381                0.31854616                0.06033488                0.61391780
               0.00659926                7.95699953               47.06715770                0.99102357               -0.04330753               -0.04162308                0.14280807                0.00058991               -0.00608434                0.02782944
               1.00616619                7.95073403               47.06742076                0.89575280               -0.04354460               -0.04452277                0.14504382               -0.00107254               -0.01554162               -0.01432399
               2.00572837                7.94446385               47.06749476                0.01000000               -0.02669325               -0.04433832                0.14691322                0.12414940                0.08388070               -0.03586802
               3.00563232                7.94072001               47.06974607                0.01312114                0.07371608               -0.24957478                0.16121292                0.45233895                0.28756203               -0.16525521
               4.00720269                7.94303302               47.07388219                0.01031766                0.10321871               -0.22705891                0.15352614                0.71189605                0.47867544               -0.12476951
               5.00769670                7.95056614               47.07966487                0.01000000                0.06733190               -0.09091377                0.17391646                0.97520473                0.61380066                0.07605518
               6.00854933                7.96238180               47.08676887                0.01000000                0.02570425                0.18971756                0.18012338                1.38932412                0.71097396                0.24975671
               7.00821078                7.98005786               47.09427672                0.01123655               -0.26448315                0.56824127                0.19627351                1.56301452                0.61868909                0.35093210
               8.00325967                7.99487738               47.09910237                0.01000002               -0.54736273                1.39335300                0.20061372                1.43342086                0.60683879                0.59511409
               8.99726353                8.01000764               47.10624568                0.43245363               -0.33184565                0.89804689                0.21281987                0.83749382                0.36901561                0.45612134
               9.99662276                8.00701518               47.10596654                0.96004371               -0.06407725                0.95565372                0.21673064                0.37889885               -0.00203663                0.38471440
               0.01288649                8.95657177               47.06932765                1.00000000               -0.04462989               -0.04383395                0.14787921                0.00083784               -0.00087803                0.02620297
               1.01244019                8.95028710               47.06942634                0.99999999               -0.04484254               -0.04521675                0.14979717                0.00006023               -0.00089794               -0.00333295
               2.01198964                8.94401558               47.06952488                0.10875758               -0.04511145               -0.04558963                0.15171596                0.00159169               -0.01513386               -0.02339024
               3.01153797                8.93779099               47.06933881                0.01000001               -0.16456478               -0.16980635                0.15345197                0.48864065                0.25016330               -0.14859111
               4.00869835                8.94165628               47.07475272                0.01000000               -0.27433349                0.00031209                0.24652763                0.55934890                0.55442200               -0.00188499
               5.00605130                8.95004446               47.08231335                0.01000000               -0.20071940                0.02592733                0.18204315                0.63748670                0.69859261                0.09564899
               6.00468396                8.96387053               47.09022225                0.01117241               -0.08740624                0.10538913                0.19584847                0.84601060                0.71682775                0.15565270
               7.00430317                8.98306078               47.09728672                0.01000002               -0.18478508                0.16586062                0.20511194                1.56992503                0.86093701                0.13355357
               8.00098826                9.01238284               47.10740956                0.44038491               -0.20031101                0.84031656                0.22588226                1.35472769                0.51867823                0.38776811
               9.00029695                9.00933460               47.10698385                0.98064777               -0.06990669               -0.07005394                0.23303664                0.00104151               -0.00617809                0.00595780
               9.99959012                9.00633059               47.10661731                0.99382762               -0.07068269               -0.07134100                0.23713787               -0.00290229               -0.00387826               -0.00581674
               0.01918536                9.95612285               47.07139469                1.00000000               -0.04617773               -0.04489206                0.15275064                0.00057073                0.02139463                0.02103589
               1.01872358                9.94982969               47.07149970                0.99947552               -0.04645241               -0.04574106                0.15468117               -0.00020084                0.02138992                0.00004223
               2.01825631                9.94355206               47.07160510                0.71224584               -0.04795719               -0.04635248                0.15661184                0.00137676                0.02585309               -0.02088755
               3.01776444                9.93732389               47.07179958                0.22123356               -0.60600523               -0.04671083                0.15833101                0.59700797                0.24408553               -0.00548972
               4.00613621                9.94303927               47.07625210                0.25417926               -0.97661310                0.13829895                0.31263350                0.43182610                0.41002296                0.08735275
               4.99823218                9.95108469               47.08421205                0.29792736               -0.68414927                0.10402286                0.19796563                0.29060390                0.70649232                0.03983966
               5.99245322                9.96448958               47.09237711                0.36424579               -0.35676042                0.06190499                0.21007202                0.39144589                0.67894219                0.08116353
               6.99109697                9.98337508               47.09885851                0.48695804                0.58135863                0.03142985                0.21283170                1.03908620                0.76151981                0.04376990
               8.00408040               10.01168371               47.10801876                0.97007866                0.61198225               -0.06991365                0.24234788                1.57078809                0.48355376                0.00260035
               9.00333661               10.00860656               47.10768349                0.99382953               -0.07538263               -0.07280418                0.25011244               -0.00080071                0.00634826                0.00325641
              10.00257274               10.00558837               47.10731774                1.00000000               -0.07638719               -0.07422216                0.25427176               -0.00355776                0.00352569               -0.00451386
              -0.03618871               -0.04320185               48.05165963                0.90092896               -0.03054329               -0.03055477                0.10373182                0.00170217               -0.00616762                0.00675032
               0.96350586               -0.04705795               48.05334761                0.62538754               -0.02758520               -0.03430476                0.10835223                0.00344309               -0.00644604               -0.00469371
               1.96325959               -0.05080321               48.05502748                0.39128049               -0.01224701               -0.03434985                0.11303160                0.01327711                0.00474501               -0.00219622
               2.96326092               -0.05409818               48.05692845                0.36051825                0.00477035               -0.03603102                0.11789391                0.00539943                0.02264883               -0.00147452
               3.96335500               -0.05657805               48.05892776                0.42840367               -0.00025666               -0.03735564                0.12273663               -0.00889419                0.02418097               -0.00088653
               4.96325579               -0.05830851               48.06081325                0.55454731               -0.01801498               -0.03876226                0.12757229               -0.00700495                0.01504302               -0.00065446
               5.96299470               -0.05961927               48.06260272                0.75865510               -0.03077930               -0.04014794                0.13243543               -0.00336360                0.00824184               -0.00055700
               6.96264020               -0.06073997               48.06433998                1.00000000               -0.03770183               -0.04155289                0.13730225               -0.00076821                0.00503472               -0.00047316
               7.96224066               -0.06178149               48.06606113                0.99081688               -0.04118479               -0.04310518                0.14224057                0.00054782                0.00460879               -0.00062925
               8.96181651               -0.06278659               48.06778886                1.00000000               -0.04355561               -0.04438931                0.14735476                0.00084680                0.00400524               -0.00010900
               9.96136955               -0.06377998               48.06949820                1.00000000               -0.04469572               -0.04593900                0.15222128                0.00067450                0.00301792                0.00282864
              -0.03231558                0.95649261               48.05368570                0.62579996               -0.03434451               -0.02767120                0.10843743                0.00345646                0.00477160                0.00977131
               0.96734098                0.95259900               48.05537102                0.01037406               -0.03859739               -0.03845241                0.11304837                0.00890947                0.01102551               -0.00910762
               1.96691247                0.94885329               48.05718177                0.01000000               -0.05693224                0.01736005                0.11768050                0.09187323                0.02575162                0.00312457
               2.96620233                0.94554151               48.05917091                0.01000001               -0.07706249                0.06369365                0.12231612                0.16907955                0.03543445                0.01068663
               3.96537122                0.94304840               48.06121439                0.01000000               -0.07479910                0.09694054                0.12674955                0.21273050                0.02811066                0.01309436
               4.96470635                0.94130386               48.06310377                0.01000000               -0.05972184                0.10381553                0.13109113                0.20595803                0.01321274                0.01856412
               5.96417679                0.93997925               48.06487627                0.01000001               -0.04963591                0.12746400                0.13541228                0.12326259                0.00374690                0.02057653
               6.96371363                0.93884451               48.06658828                0.28577625               -0.04536682               -0.04236381                0.13974341               -0.00541308               -0.00055954               -0.00252490
               7.96326945                0.93778745               48.06827894                0.87272735               -0.04447063               -0.04327338                0.14406419               -0.00138294               -0.00108163               -0.00182614
               8.96282422                0.93676952               48.06998206                0.99999999               -0.04498810               -0.04450491                0.14875948                0.00005705               -0.00019367               -0.00017583
               9.96236969                0.93576063               48.07169117                0.99873826               -0.04545300               -0.04613629                0.15364406               -0.00009616                0.00007627                0.00279038
              -0.02833237                1.95624473               48.05576961                0.39175489               -0.03442645               -0.01308056                0.11318623                0.01300236                0.00171659                0.01491169
               0.97132337                1.95217300               48.05730645                0.01000000                0.02434539               -0.05584057                0.11774709                0.08419908                0.03167397               -0.01289008
               1.97215454                1.94954399               48.05944138                0.01000001                0.05620164                0.03363815                0.12171544                0.27636263                0.07402931                0.01454751
               2.97244740                1.94717570               48.06165580                0.01000000               -0.01536426                0.11583048                0.12393624                0.40524280                0.07171862                0.02405436
               3.97184726                1.94536076               48.06377999                0.01000000               -0.10016542                0.21929213                0.12727381                0.52043137                0.05831909                0.04245623
               4.97044409                1.94376780               48.06577829                0.01000001               -0.19639751                0.25864939                0.13101050                0.55728814                0.03741829                0.04776940
               5.96791931                1.94293001               48.06757238                0.01142193               -0.28601791                0.32400196                0.13502633                0.30533955               -0.00943294                0.06472750
               6.96472374                1.93841276               48.06879574                0.01619217               -0.18156587                0.15808735                0.14111703                0.11623113               -0.02877403                0.04422088
               7.96428799                1.93735304               48.07047343                0.01000000               -0.04396307                0.14343824                0.14538068                0.15168407               -0.00484843                0.04971904
               8.96384447                1.93632331               48.07217472                0.09588479               -0.04512900               -0.04265748                0.15015337                0.00257343               -0.00319797               -0.00254120
               9.96338541                1.93529729               48.07388457                0.70252374               -0.04590654               -0.04704369                0.15506904                0.00156313               -0.00274999                0.00279384
              -0.02391207                2.95623099               48.05788794                0.36082050               -0.03622272                0.00245335                0.11809562                0.00543054               -0.00041443                0.01989474
               0.97572570                2.95148219               48.05926263                0.01000001                0.06745508               -0.07427853                0.12244498                0.14349762                0.05057013               -0.01362402
               1.97743703                2.94952605               48.06165650                0.01000000                0.13823547               -0.04544683                0.12416497                0.35957166                0.10636552                0.00251388
               2.97849041                2.94785812               48.06401175                0.01000000                0.08753606                0.04168588                0.12654160                0.52622480                0.11407163                0.02231755
               3.97918775                2.94743424               48.06646107                0.01197371               -0.01037723                0.11490408                0.12898261                0.61911632                0.09863826                0.03547127
               4.97828287                2.94647685               48.06846428                0.01000000               -0.17745676                0.22693836                0.13289331                0.70741751                0.07546381                0.06338372
               5.97563861                2.94645929               48.07049558                0.01000001               -0.33338204                0.37093014                0.13648287                0.63653899                0.04193730                0.11962418
               6.97161522                2.94200625               48.07197920                0.01000001               -0.36230194                0.62735384                0.13934485                0.61730243                0.01916956                0.18011003
               7.96839258                2.94065622               48.07372172                0.01316979               -0.33418951                0.50790899                0.14868326                0.42036877               -0.02793121                0.17319998
               8.96493143                2.93591637               48.07432029                0.01000001               -0.19697904                0.35843853                0.15104356                0.22158733               -0.05914472                0.11341206
               9.96445300                2.93481975               48.07607781                0.22068640               -0.04784387                0.41406645                0.15643346                0.10944004               -0.00115650                0.10615089
              -0.01872614                3.95629380               48.06003736                0.42922946               -0.03755895               -0.00319047                0.12305579               -0.00787457               -0.00244667                0.02280798
               0.98089827                3.95068743               48.06121603                0.01000000                0.08480925               -0.07153485                0.12704966                0.16846268                0.06321289               -0.01652270
               1.98297004                3.94863505               48.06370739                0.01000000                0.20827212               -0.11905029                0.12795735                0.41647380                0.14421451               -0.02234866
               2.98506371                3.94800941               48.06635449                0.01197413                0.13204067               -0.05310781                0.12967518                0.55280104                0.14463625                0.00171739
               3.98561085                3.94765884               48.06870009                0.01000000                0.02518419               -0.01489360                0.13304977                0.66450056                0.14147592                0.01429835
               4.98556739                3.94830656               48.07123911                0.01000001               -0.02450852                0.17925988                0.13682621                0.91169944                0.16355373                0.09460258
               5.98512068                3.95034861               48.07402163                0.01000001               -0.13472692                0.40895675                0.13955934                1.06731189                0.16758807                0.18605746
               6.98287285                3.95095984               48.07662562                0.01183897               -0.31677180                0.71578197                0.14338170                0.90128998                0.08778564                0.23598223
               7.97878525                3.94751122               48.07780825                0.01035149               -0.43800837                0.77922781                0.14052771                0.62672795                0.01276022                0.25938018
               8.97411269                3.94349208               48.07883690                0.01000000               -0.55089033                1.09587684                0.23617542                0.64661474                0.04887339                0.41813222
               9.96776744                3.94357862               48.08033452                0.25485135               -0.63452456                1.01262160                0.30318732                0.49204932               -0.00734196                0.57568601
              -0.01285683                4.95616719               48.06217719                0.55680081               -0.03894703               -0.02025514                0.12799377               -0.00604384               -0.00290206                0.02299943
               0.98675370                4.95005149               48.06314912                0.01000000                0.06506747               -0.05747625                0.13156483                0.15303022                0.06470346               -0.01933304
               1.98844452                4.94714504               48.06547273                0.01000001                0.18844672               -0.17766871                0.13238976                0.41335560                0.16116951               -0.06318161
               2.99052264                4.94679597               48.06825168                0.01000000                0.18680455               -0.20484781                0.13453880                0.57898595                0.18486692               -0.07318433
               3.99218061                4.94713637               48.07089705                0.01000001                0.16522254               -0.07593581                0.13799509                0.84083578                0.22658465                0.01072955
               4.99382709                4.95006205               48.07438181                0.01000001                0.10754846                0.14174495                0.14119766                1.16626335                0.28171481                0.12376144
               5.99433158                4.95463842               48.07802304                0.01180672               -0.06743341                0.31184159                0.14598410                1.13152674                0.22658595                0.17448139
               6.99247842                4.95632189               48.08036355                0.01000000               -0.29683472                0.55998852                0.15110505                0.93195249                0.14933158                0.23459353
               7.98839489                4.95624078               48.08255666                0.01000000               -0.53410453                1.11366072                0.16674790                0.92458053                0.12159470                0.38857832
               8.98179633                4.95783391               48.08467845                0.01000000               -0.71369883                1.52815572                0.18867433                0.65679204                0.03751142                0.55024287
               9.97412091                4.95507218               48.08579087                0.29981648               -0.76754174                1.41430087                0.21573511                0.39265734                0.00925294                0.59743784
              -0.00661563                5.95588869               48.06431110                0.76366356               -0.04033539               -0.03210770                0.13293129               -0.00274303               -0.00336960                0.02268128
               0.99298101                5.94953790               48.06506388                0.01000001                0.05541563               -0.04853919                0.13605303                0.09057618                0.04512887               -0.02085217
               1.99449268                5.94508168               48.06678629                0.01142429                0.18355466               -0.22792357                0.13728867                0.24344959                0.13194418               -0.14317931
               2.99665210                5.94391246               48.06914435                0.01000001                0.23344047               -0.31622398                0.13977695                0.55689989                0.25071042               -0.16332597
               3.99916149                5.94614013               48.07304849                0.01000001                0.23692482               -0.14654348                0.14289797                0.95162635                0.36706882                0.00062831
               5.00139060                5.95114146               48.07755897                0.01180644                0.11649435                0.00301268                0.14781229                1.11196591                0.35088630                0.06617584
               6.00149137                5.95658544               48.08100464                0.01000000               -0.07405241                0.19757213                0.15371248                1.14088425                0.30935048                0.15005666
               6.99990955                5.96215961               48.08468983                0.01000000               -0.28632650                0.70996825                0.16265637                1.30042889                0.33495724                0.34567110
               7.99576484                5.96978443               48.08875865                0.01000000               -0.57462175                1.37300547                0.17371567                1.27710889                0.28273625                0.54898425
               8.98841712                5.97405520               48.09170508                0.01119849               -0.73104076                1.63494358                0.18789036                0.78420649                0.14115115                0.59492896
               9.98114403                5.97186464               48.09318491                0.36684568               -0.72730885                1.54523539                0.19409260                0.36032654                0.06939429                0.57154808
              -0.00021011                6.95552503               48.06643670                0.99999999               -0.04176472               -0.03839945                0.13785724               -0.00047122               -0.00310931                0.02357448
               0.99937224                6.94908071               48.06697315                0.29719539               -0.04254655               -0.04504915                0.14054858               -0.00444998               -0.02415612               -0.02178314
               1.99893896                6.94258657               48.06708851                0.01619505                0.06149687               -0.14667515                0.14241862                0.11454294                0.06619694               -0.12538264
               3.00060218                6.94047149               48.06943193                0.01000001                0.25225873               -0.27853815                0.14588325                0.51312067                0.34930931               -0.12514111
               4.00398413                6.94420550               48.07503217                0.01183986                0.25094543               -0.26130554                0.14902157                0.87179768                0.46331748               -0.08887259
               5.00562109                6.95012230               48.07937906                0.01000000                0.10734946               -0.11251272                0.15477015                1.02281303                0.43712781                0.00606702
               6.00613112                6.95858987               48.08434583                0.01000000               -0.01665409                0.22166068                0.16451852                1.36542538                0.51767329                0.22031903
               7.00528801                6.97052126               48.09026271                0.01000000               -0.20448256                0.84782186                0.17517639                1.67164633                0.55362799                0.45181240
               8.00204147                6.98370088               48.09593449                0.01129233               -0.49438774                1.21486929                0.18991833                1.37881268                0.38510099                0.52822958
               8.99540025                6.99053278               48.09845072                0.01000002               -0.81664542                1.75989394                0.19327626                0.56803142                0.14256000                0.74023085
               9.98570856                6.98597689               48.09937360                0.48909941               -0.96916895                1.71617780                0.19483532                0.33010577                0.05895048                0.61351403
               0.00626359                7.95512070               48.06858590                0.99102595               -0.04331169               -0.04160229                0.14283137                0.00059478               -0.00620350                0.02837515
               1.00583047                7.94863692               48.06887114                0.89581039               -0.04354146               -0.04454114                0.14503206               -0.00109228               -0.01584492               -0.01460645
               2.00539276                7.94214817               48.06896363                0.01000000               -0.02674385               -0.04432834                0.14686135                0.13191071                0.08912206               -0.03656756
               3.00529559                7.93834169               48.07134799                0.01317424                0.07769339               -0.26079188                0.15819087                0.47914802                0.29039240               -0.17019929
               4.00694663                7.94091402               48.07543057                0.01036028                0.10834491               -0.23543869                0.15754288                0.75379806                0.47656321               -0.13404362
               5.00746249                7.94889121               48.08134176                0.01000000                0.07271506               -0.08165886                0.16627096                1.01006363                0.63517203                0.05564974
               6.00840093                7.96101866               48.08853772                0.01000000                0.03844850                0.19761834                0.17666060                1.42739306                0.73217273                0.24256878
               7.00823146                7.97911604               48.09622320                0.01130258               -0.25356746                0.57588755                0.19456049                1.60510150                0.63071709                0.35036448
               8.00332958                7.99408182               48.10110262                0.01000002               -0.53648616                1.40095330                0.20036305                1.46940622                0.61349228                0.59891182
               8.99750174                8.00925308               48.10837559                0.43225346               -0.32358319                0.90252378                0.21270425                0.86549919                0.37312048                0.45839345
               9.99685791                8.00618819               48.10814212                0.95992187               -0.06438245                0.97632109                0.21754712                0.40323094               -0.00226635                0.38884175
               0.01276935                8.95469299               48.07080676                1.00000000               -0.04464239               -0.04384266                0.14794252                0.00084656               -0.00089429                0.02671517
               1.01232293                8.94818989               48.07092443                0.99999999               -0.04484768               -0.04522918                0.14982027                0.00006261               -0.00091369               -0.00339727
               2.01187240                8.94170001               48.07104195                0.10867895               -0.04518170               -0.04558553                0.15169889                0.00151608               -0.01514669               -0.02384528
               3.01141930                8.93525565               48.07087492                0.01000000               -0.16809093               -0.17761950                0.15339494                0.51823619                0.27444616               -0.15443853
               4.00851058                8.93949672               48.07678501                0.01000000               -0.28507870                0.01911262                0.19176312                0.61669037                0.64391989               -0.04303484
               5.00571772                8.94848912               48.08411937                0.01000000               -0.20282160                0.03363777                0.18265798                0.66333570                0.74435759                0.06612195
               6.00445415                8.96254223               48.09213248                0.01123958               -0.06954226                0.10353202                0.19251383                0.85813592                0.74482348                0.15281196
               7.00432688                8.98203901               48.09931840                0.01000002               -0.15807939                0.15353198                0.20328661                1.59292684                0.88036421                0.12708295
               8.00129256                9.01171995               48.10967343                0.43987746               -0.18615075                0.84662344                0.22643754                1.38418913                0.52767185                0.39211781
               9.00060386                9.00858325               48.10931151                0.98092599               -0.06948059               -0.06964594                0.23227562                0.00017966               -0.00578247                0.00646994
               9.99990295                9.00550331               48.10899078                0.99405053               -0.07009120               -0.07119035                0.23706449               -0.00286627               -0.00335688               -0.00548842
               0.01928672                9.95424385               48.07292269                1.00000000               -0.04620170               -0.04491341                0.15284956                0.00058521                0.02181377                0.02144686
               1.01882470                9.94773234               48.07304681                0.99928067               -0.04647016               -0.04575479                0.15474021               -0.00019215                0.02180866                0.00004352
               2.01835732                9.94123646               48.07317131                0.71203661               -0.04805513               -0.04635438                0.15663129                0.00134002                0.02619255               -0.02129581
               3.01786360                9.93478930               48.07338334                0.22167169               -0.61551792               -0.04663446                0.15851980                0.64742087                0.30423966               -0.00531498
               4.00604696                9.94129627               48.07907190                0.25461081               -1.00899523                0.17995467                0.24588469                0.49237065                0.62265792                0.02981215
               4.99768370                9.94956396               48.08618318                0.29810206               -0.70165978                0.10748389                0.20464392                0.28624880                0.72921693                0.03313207
               5.99201376                9.96308930               48.09446116                0.36430956               -0.33857068                0.05470642                0.21020425                0.38709729                0.70227758                0.08446820
               6.99091228                9.98218668               48.10097368                0.48708083                0.62276767                0.01476745                0.21246475                1.05479002                0.78305480                0.03958794
               8.00446912               10.01101429               48.11045843                0.96959476                0.64048434               -0.07056634                0.24469447                1.60132925                0.49721092                0.00242336
               9.00372197               10.00786016               48.11018975                0.99405205               -0.07543248               -0.07230944                0.25068518               -0.00068432                0.00679957                0.00384283
              10.00296047               10.00476439               48.10986993                1.00000000               -0.07615026               -0.07389277                0.25547638               -0.00382553                0.00426380               -0.00383630
              -0.03796141               -0.04518396               49.05269587                0.90027061               -0.03041324               -0.03042220                0.10351384                0.00173123               -0.00615555                0.00674598
               0.96173446               -0.04915181               49.05443029                0.62445834               -0.02724157               -0.03432174                0.10818368                0.00362638               -0.00639795               -0.00469951
               1.96149376               -0.05300275               49.05615720                0.39102439               -0.01097896               -0.03429481                0.11291573                0.01400820                0.00494572               -0.00220367
               2.96151488               -0.05637772               49.05810701                0.36066814                0.00693292               -0.03599012                0.11781616                0.00560900                0.02302229               -0.00151956
               3.96163242               -0.05889399               49.06015488                0.42860027                0.00160283               -0.03732215                0.12268178               -0.00936438                0.02462092               -0.00096328
               4.96154694               -0.06062356               49.06208889                0.55472426               -0.01702066               -0.03874327                0.12755387               -0.00736486                0.01553540               -0.00073254
               5.96129201               -0.06191370               49.06392724                0.75897073               -0.03036646               -0.04014246                0.13246925               -0.00354671                0.00876730               -0.00064282
               6.96093961               -0.06300559               49.06571346                1.00000000               -0.03757200               -0.04156303                0.13739513               -0.00082500                0.00560181               -0.00055122
               7.96054056               -0.06401549               49.06748430                0.99085875               -0.04116712               -0.04313579                0.14239637                0.00055001                0.00530050               -0.00078482
               8.96011626               -0.06498807               49.06926352                1.00000000               -0.04359745               -0.04443022                0.14758047                0.00086139                0.00465764               -0.00014241
               9.95966862               -0.06594919               49.07102182                1.00000000               -0.04476484               -0.04599956                0.15250636                0.00071605                0.00354124                0.00335997
              -0.03397624                0.95451182               49.05476917                0.62484182               -0.03436404               -0.02733324                0.10825470                0.00363957                0.00476790                0.00979447
               0.96568012                0.95050497               49.05650083                0.01006610               -0.03884819               -0.03867949                0.11291410                0.00946909                0.01102628               -0.00911624
               1.96524679                0.94665431               49.05835809                0.01000000               -0.05817642                0.02164536                0.11758746                0.09810316                0.02572186                0.00274408
               2.96451659                0.94326238               49.06039368                0.01000001               -0.07925485                0.06739984                0.12223534                0.17660158                0.03518488                0.00911485
               3.96366170                0.94073279               49.06248146                0.01000000               -0.07667216                0.10157669                0.12665778                0.22176399                0.02762266                0.01103703
               4.96298315                0.93898901               49.06441427                0.01000000               -0.06070714                0.10825501                0.13100359                0.21485845                0.01263970                0.01639074
               5.96244755                0.93768487               49.06623008                0.01000001               -0.05004470                0.13287326                0.13534744                0.12916355                0.00316635                0.01846052
               6.96198225                0.93657878               49.06798557                0.28614482               -0.04551245               -0.04237518                0.13971198               -0.00565132               -0.00113639               -0.00314934
               7.96153731                0.93555315               49.06971961                0.87321203               -0.04452615               -0.04327760                0.14406837               -0.00144159               -0.00147040               -0.00224066
               8.96109173                0.93456763               49.07146994                0.99999999               -0.04502046               -0.04451702                0.14881626                0.00006014               -0.00029363               -0.00021554
               9.96063690                0.93359081               49.07322819                0.99851803               -0.04548326               -0.04617137                0.15376085               -0.00006438                0.00007294                0.00332137
              -0.02987492                1.95426938               49.05690073                0.39144379               -0.03437258               -0.01193338                0.11303665                0.01368978                0.00170149                0.01506708
               0.96978136                1.95007460               49.05848342                0.01000000                0.02866644               -0.05689863                0.11764728                0.09029098                0.03129152               -0.01293806
               1.97069841                1.94743016               49.06065682                0.01000001                0.05935336                0.03685124                0.12209235                0.28749131                0.07154704                0.01216579
               2.97096842                1.94497028               49.06289220                0.01000000               -0.01786682                0.12210025                0.12332835                0.41961604                0.06871926                0.02078387
               3.97034107                1.94313755               49.06504735                0.01000000               -0.10381994                0.22834331                0.12640107                0.54132031                0.05584845                0.03817897
               4.96889202                1.94154154               49.06708171                0.01000001               -0.20277841                0.26811351                0.12995022                0.58045531                0.03497115                0.04337412
               5.96628551                1.94074376               49.06891487                0.01142065               -0.29668606                0.33576872                0.13396074                0.32062712               -0.01050434                0.05973609
               6.96295830                1.93614690               49.07020591                0.01619065               -0.18813104                0.16526127                0.14090971                0.12542424               -0.02872338                0.04058959
               7.96252288                1.93511896               49.07192643                0.01000000               -0.04392490                0.15215395                0.14521293                0.16058447               -0.00577480                0.04893126
               8.96207981                1.93412159               49.07367572                0.09562119               -0.04509656               -0.04241760                0.15004111                0.00270052               -0.00378959               -0.00288604
               9.96162095                1.93312738               49.07543502                0.70207382               -0.04588514               -0.04703357                0.15501761                0.00165523               -0.00326612                0.00323731
              -0.02531289                2.95427315               49.05906826                0.36087173               -0.03619577                0.00426481                0.11796733                0.00565358               -0.00046255                0.02024257
               0.97432515                2.94936700               49.06048662                0.01000001                0.07069127               -0.07600749                0.12235235                0.15059737                0.04909107               -0.01382709
               1.97610094                2.94739133               49.06289550                0.01000000                0.14381838               -0.04771845                0.12359034                0.37290380                0.10304980               -0.00000522
               2.97720152                2.94570439               49.06527118                0.01000000                0.09079537                0.04525812                0.12553641                0.54626973                0.11035373                0.01920723
               3.97791684                2.94529966               49.06774163                0.01197372               -0.01077425                0.12067760                0.12745181                0.64289460                0.09507855                0.03219494
               4.97698604                2.94435128               49.06978262                0.01000000               -0.18310559                0.23593836                0.13122049                0.73574949                0.07174138                0.06003701
               5.97425473                2.94440025               49.07184590                0.01000001               -0.34352469                0.38361377                0.13459980                0.66498614                0.03521568                0.11548697
               6.97011554                2.93988400               49.07335304                0.01000001               -0.37402107                0.64700841                0.13820188                0.65066950                0.01039284                0.17567898
               7.96677431                2.93859623               49.07518471                0.01322831               -0.34891140                0.53079612                0.14659487                0.44054410               -0.04414981                0.15769042
               8.96313731                2.93371927               49.07582838                0.01000000               -0.20579489                0.37113405                0.15054258                0.22641229               -0.05962409                0.13400000
               9.96265841                2.93265014               49.07763991                0.22108098               -0.04789015                0.40938282                0.15619179                0.13945612               -0.00123736                0.14153102
              -0.01994954                3.95435467               49.06126736                0.42928999               -0.03753363               -0.00176538                0.12294229               -0.00817427               -0.00250580                0.02323779
               0.97967513                3.94855445               49.06248603                0.01000000                0.08843169               -0.07286935                0.12695137                0.17653961                0.06142005               -0.01688757
               1.98181910                3.94647579               49.06498270                0.01000000                0.21551811               -0.12231628                0.12723869                0.43513066                0.14028984               -0.02387769
               2.98398549                3.94587544               49.06764324                0.01197313                0.13664902               -0.05344766                0.12836426                0.57530896                0.14110974               -0.00063965
               3.98455208                3.94555110               49.07002061                0.01000000                0.02604685               -0.01344991                0.13141565                0.69102166                0.13831450                0.01213881
               4.98450643                3.94626031               49.07259464                0.01000001               -0.02497867                0.18733394                0.13491168                0.94633778                0.15902052                0.09187437
               5.98405250                3.94841604               49.07540205                0.01000001               -0.13653570                0.42245502                0.13729807                1.10686862                0.15892292                0.18427627
               6.98177571                3.94908707               49.07801498                0.01185055               -0.32770036                0.73641075                0.14009128                0.94190925                0.07491985                0.23552613
               7.97749850                3.94573488               49.07927667                0.01039774               -0.46107859                0.80069201                0.14991770                0.65580291                0.00087714                0.26360700
               8.97255414                3.94154427               49.08076469                0.01000000               -0.54750777                1.14268149                0.17868972                0.65892136                0.01366807                0.34306389
               9.96654834                3.94131504               49.08261333                0.25523140               -0.60057989                1.06869749                0.20231725                0.48670494                0.04474423                0.31495753
              -0.01387592                4.95423785               49.06345668                0.55679176               -0.03892480               -0.01956836                0.12790343               -0.00624890               -0.00295937                0.02344518
               0.98573483                4.94790961               49.06446431                0.01000000                0.06792392               -0.05808546                0.13147104                0.16054029                0.06310428               -0.01977064
               1.98748255                4.94494500               49.06679274                0.01000001                0.19487816               -0.18314501                0.13172863                0.43287898                0.15779474               -0.06414313
               2.98963239                4.94463544               49.06958953                0.01000000                0.19349295               -0.21129734                0.13331547                0.60519512                0.18193268               -0.07465117
               3.99135241                4.94503066               49.07226740                0.01000001                0.17077311               -0.07622619                0.13650682                0.87550434                0.22363268                0.00800408
               4.99304785                4.94809796               49.07578029                0.01000001                0.11064629                0.14915959                0.13923470                1.21049251                0.27835363                0.12094331
               5.99356534                4.95284935               49.07946541                0.01181558               -0.07064833                0.32271912                0.14381144                1.17265749                0.22320448                0.17343700
               6.99163489                4.95461222               49.08186535                0.01000000               -0.30660832                0.57644364                0.15011961                0.96723041                0.14822149                0.23935470
               7.98743317                4.95461007               49.08421078                0.01000000               -0.54496516                1.13813695                0.16375318                0.97724199                0.14182362                0.39070547
               8.98073558                4.95657290               49.08672791                0.01000000               -0.72910995                1.57306012                0.19343899                0.72232246                0.09119733                0.49006218
               9.97285097                4.95402409               49.08830509                0.29999315               -0.78846097                1.46718190                0.22392751                0.43608993                0.03188242                0.47870585
              -0.00741805                5.95396331               49.06564013                0.76367299               -0.04031794               -0.03184584                0.13287361               -0.00283110               -0.00343544                0.02312781
               0.99217877                5.94739274               49.06642404                0.01000001                0.05844498               -0.04874852                0.13597778                0.09528901                0.04400693               -0.02129323
               1.99375085                5.94281289               49.06815644                0.01142497                0.19124806               -0.23638214                0.13682553                0.25660035                0.12947770               -0.14365880
               2.99600373                5.94164950               49.07053733                0.01000001                0.24243952               -0.32797081                0.13908660                0.58420912                0.24835505               -0.16478005
               3.99859964                5.94402658               49.07446775                0.01000001                0.24469271               -0.14963660                0.14173525                0.99336792                0.36553396               -0.00314785
               5.00089759                5.94924350               49.07902508                0.01181628                0.11958747                0.00516639                0.14640102                1.15604312                0.35110490                0.06195968
               6.00099139                5.95487042               49.08253032                0.01000000               -0.07689951                0.20500677                0.15224084                1.18330642                0.31143129                0.14886486
               6.99935960                5.96061595               49.08631039                0.01000000               -0.29543709                0.72933026                0.16159808                1.35073377                0.34196813                0.34707519
               7.99508265                5.96849762               49.09051811                0.01000000               -0.58865152                1.40631634                0.17540924                1.33699891                0.29711769                0.54361166
               8.98758657                5.97300547               49.09362868                0.01127624               -0.73574433                1.64674360                0.19228197                0.82612199                0.15082612                0.56361931
               9.98036776                5.97065868               49.09517649                0.36689983               -0.72188039                1.52532419                0.19980788                0.39079537                0.07471373                0.51288822
              -0.00079141                6.95360093               49.06781518                0.99999999               -0.04175645               -0.03831700                0.13783872               -0.00049073               -0.00316887                0.02403929
               0.99879102                6.94693464               49.06837842                0.29719986               -0.04253921               -0.04510583                0.14050311               -0.00453891               -0.02462892               -0.02221877
               1.99835780                6.94021736               49.06851227                0.01619376                0.06559321               -0.15169153                0.14233561                0.12122407                0.06610894               -0.12583735
               3.00010289                6.93807602               49.07089011                0.01000001                0.26339829               -0.28882282                0.14561409                0.53950326                0.34912591               -0.12424911
               4.00362577                6.94203793               49.07652449                0.01185496                0.26109916               -0.27136285                0.14960400                0.91329068                0.46407569               -0.09373721
               5.00532487                6.94820128               49.08092197                0.01000000                0.11166260               -0.11523374                0.15450250                1.06534750                0.44140917               -0.00026510
               6.00585902                6.95694948               49.08598104                0.01000000               -0.01512532                0.22880549                0.16328966                1.41587456                0.52579151                0.21763592
               7.00502237                6.96919882               49.09201247                0.01000000               -0.20376981                0.86967551                0.17496846                1.73437677                0.56538398                0.45300866
               8.00178363                6.98273640               49.09784276                0.01136337               -0.49626993                1.23095238                0.19104035                1.43017149                0.39331345                0.52417617
               8.99509697                6.98950778               49.10041297                0.01000002               -0.82115767                1.76546228                0.19655212                0.59470241                0.14478807                0.72981597
               9.98536047                6.98453058               49.10136465                0.48927672               -0.97364943                1.72580864                0.19943076                0.33610976                0.05958007                0.59974337
               0.00590471                7.95319697               49.07001432                0.99103730               -0.04331515               -0.04158250                0.14285273                0.00060027               -0.00632307                0.02893122
               1.00547156                7.94649062               49.07032140                0.89587313               -0.04353789               -0.04455779                0.14501928               -0.00110980               -0.01615023               -0.01489144
               2.00503395                7.93977906               49.07043199                0.01000000               -0.02491648               -0.04431830                0.14681030                0.13804173                0.09240162               -0.03727446
               3.00497323                7.93587304               49.07290988                0.01323140                0.08531178               -0.27045717                0.15487932                0.50006017                0.29673833               -0.17430039
               4.00674019                7.93859932               49.07703305                0.01040385                0.11598758               -0.24418401                0.15930488                0.78861519                0.48220222               -0.13259559
               5.00729298                7.94693882               49.08299029                0.01000000                0.07855766               -0.08379058                0.16497162                1.05566598                0.64623679                0.04931368
               6.00831134                7.95944653               49.09030208                0.01000000                0.04836185                0.20269247                0.17693242                1.47965025                0.74974118                0.23906332
               7.00826022                7.97800946               49.09816793                0.01136971               -0.24671083                0.58265686                0.19505631                1.65086335                0.64261922                0.34804675
               8.00337713                7.99311667               49.10310963                0.01000002               -0.52868914                1.40664963                0.20107592                1.50351116                0.62006396                0.59894716
               8.99768644                8.00831472               49.11049976                0.43208279               -0.31663840                0.90710334                0.21179028                0.89125874                0.37615599                0.45738086
               9.99704436                8.00517485               49.11031748                0.95981693               -0.06420779                0.99812189                0.21699557                0.42621232               -0.00218521                0.38866573
               0.01263328                8.95276928               49.07228651                1.00000000               -0.04465476               -0.04385185                0.14800442                0.00085536               -0.00090952                0.02723578
               1.01218673                8.94604348               49.07242275                0.99999999               -0.04485303               -0.04524120                0.14984370                0.00006508               -0.00092826               -0.00346221
               2.01173622                8.93933100               49.07255886                0.10859631               -0.04514507               -0.04558146                0.15168373                0.00165329               -0.01534699               -0.02430758
               3.01128383                8.93266688               49.07240670                0.01000000               -0.17019654               -0.18361547                0.15309663                0.53993320                0.28698174               -0.15879749
               4.00833229                8.93715425               49.07858799                0.01000000               -0.28464264                0.02312057                0.17540052                0.64539654                0.65938594               -0.03224561
               5.00559098                8.94652547               49.08596651                0.01000000               -0.19754473                0.03404365                0.18338452                0.69916793                0.76055227                0.06067762
               6.00438140                8.96100333               49.09407253                0.01131135               -0.06107412                0.10375256                0.19547080                0.88617120                0.76268314                0.15138094
               7.00436950                8.98085196               49.10135246                0.01000002               -0.14164040                0.14234133                0.20454196                1.61833121                0.89713366                0.11973926
               8.00154859                9.01086939               49.11193831                0.43939713               -0.17527691                0.85227534                0.22622718                1.41146492                0.53697960                0.39531841
               9.00086396                9.00764984               49.11162936                0.98121510               -0.06920664               -0.06938887                0.23149658               -0.00008515               -0.00554315                0.00683323
              10.00016445                9.00449301               49.11135860                0.99428294               -0.06995041               -0.07107584                0.23658357               -0.00301793               -0.00348058               -0.00527905
               0.01937341                9.95231993               49.07445168                1.00000000               -0.04622612               -0.04493488                0.15294845                0.00059944                0.02224055                0.02186443
               1.01891115                9.94558580               49.07459451                0.99908000               -0.04648884               -0.04576861                0.15480092               -0.00018375                0.02223550                0.00004447
               2.01844363                9.93886743               49.07473772                0.71180058               -0.04812517               -0.04635641                0.15665413                0.00148754                0.02669382               -0.02171072
               3.01794864                9.93220073               49.07496998                0.22207987               -0.63270528               -0.04661443                0.15871170                0.67619595                0.32939633               -0.00546668
               4.00578952                9.93906173               49.08116980                0.25502055               -1.02606926                0.19074825                0.19759057                0.51667173                0.64285520                0.02772954
               4.99742726                9.94761970               49.08830493                0.29828498               -0.70406221                0.10942247                0.20626135                0.30662030                0.74173833                0.03087925
               5.99170828                9.96152158               49.09658120                0.36437246               -0.33332347                0.05182492                0.21331977                0.39451769                0.71016723                0.08576314
               6.99076079                9.98085628               49.10310781                0.48720373                0.65501316                0.00043219                0.21456788                1.07115856                0.80125508                0.03461916
               8.00480854               10.01016217               49.11291265                0.96917575                0.66501615               -0.07072168                0.24561624                1.62952843                0.51090930                0.00254622
               9.00406111               10.00692694               49.11269719                0.99428118               -0.07554422               -0.07229032                0.25091128               -0.00072689                0.00709650                0.00377609
              10.00329766               10.00375333               49.11242727                1.00000000               -0.07634516               -0.07396814                0.25599127               -0.00404032                0.00421222               -0.00394107
              -0.03978066               -0.04721353               50.05372990                0.89960347               -0.03027722               -0.03028318                0.10329069                0.00176289               -0.00613954                0.00673826
               0.95991657               -0.05129302               50.05551128                0.62352556               -0.02687772               -0.03434342                0.10801422                0.00382421               -0.00634375               -0.00470389
               1.95968179               -0.05524907               50.05728579                0.39078489               -0.00964381               -0.03423854                0.11280306                0.01478289                0.00514728               -0.00221097
               2.95972369               -0.05870191               50.05928477                0.36084047                0.00918724               -0.03594747                0.11774099                0.00582600                0.02338642               -0.00156637
               3.95986553               -0.06125048               50.06138140                0.42882130                0.00352214               -0.03728538                0.12262395               -0.00984460                0.02505598               -0.00104238
               4.95979413               -0.06297392               50.06336433                0.55490900               -0.01600285               -0.03872248                0.12753459               -0.00772763                0.01603986               -0.00081315
               5.95954547               -0.06423781               50.06525211                0.75930180               -0.02994798               -0.04013599                0.13250475               -0.00373055                0.00931415               -0.00073209
               6.95919518               -0.06529521               50.06708789                1.00000000               -0.03744309               -0.04157286                0.13749189               -0.00088072                0.00619322               -0.00063222
               7.95879661               -0.06626782               50.06890906                0.99090770               -0.04115187               -0.04316668                0.14255831                0.00055294                0.00602115               -0.00094674
               8.95837214               -0.06720227               50.07074047                1.00000000               -0.04364200               -0.04447198                0.14781324                0.00087671                0.00533660               -0.00017647
               9.95792377               -0.06812554               50.07254833                1.00000000               -0.04483656               -0.04606159                0.15279992                0.00075936                0.00408575                0.00391408
              -0.03568354                0.95248364               50.05585080                0.62387782               -0.03438813               -0.02697459                0.10806903                0.00383727                0.00476128                0.00981325
               0.96397258                0.94836354               50.05762930                0.01000001               -0.03912003               -0.03892657                0.11278102                0.01007206                0.01101991               -0.00912445
               1.96353406                0.94440855               50.05953352                0.01000000               -0.05949600                0.02494794                0.11749809                0.10349911                0.02565945                0.00294579
               2.96278266                0.94093861               50.06161562                0.01000001               -0.08154862                0.07078936                0.12215385                0.18378431                0.03486635                0.00727244
               3.96190309                0.93837666               50.06374755                0.01000000               -0.07860677                0.10573269                0.12655668                0.23047151                0.02706263                0.00871032
               4.96121052                0.93663886               50.06572384                0.01000000               -0.06171376                0.11204202                0.13090665                0.22330116                0.01201649                0.01390539
               5.96066881                0.93536083               50.06758322                0.01000001               -0.05045769                0.13733654                0.13527474                0.13448756                0.00255243                0.01613849
               6.96020137                0.93428906               50.06938252                0.28650454               -0.04565691               -0.04238580                0.13967535               -0.00588864               -0.00173995               -0.00380275
               7.95975567                0.93330051               50.07116031                0.87368662               -0.04458033               -0.04328057                0.14406932               -0.00149900               -0.00187548               -0.00267142
               8.95930976                0.93235301               50.07295838                0.99999999               -0.04505224               -0.04452873                0.14887178                0.00006395               -0.00039737               -0.00025582
               9.95885463                0.93141385               50.07476639                0.99829353               -0.04551339               -0.04620690                0.15387870               -0.00003096                0.00006945                0.00387522
              -0.03146373                1.95224698               50.05803034                0.39113572               -0.03431722               -0.01072101                0.11288593                0.01442196                0.00168418                0.01521386
               0.96819310                1.94792845               50.05965940                0.01000000                0.03202128               -0.05802551                0.11755086                0.09553073                0.03147917               -0.01300349
               1.96917670                1.94524989               50.06188323                0.01000001                0.06190801                0.03957613                0.12163373                0.29824184                0.06697965                0.00789059
               2.96943126                1.94271387               50.06412237                0.01000000               -0.02009910                0.12763083                0.12287219                0.43414879                0.06445852                0.01716677
               3.96877472                1.94086417               50.06630801                0.01000000               -0.10776332                0.23641089                0.12583167                0.56139171                0.05304327                0.03328586
               4.96727599                1.93926692               50.06837730                0.01000001               -0.20948500                0.27629052                0.12939584                0.60238267                0.03241888                0.03842023
               5.96458502                1.93850892               50.07025160                0.01142435               -0.30691406                0.34605108                0.13359485                0.33469271               -0.01130568                0.05447267
               6.96113771                1.93385708               50.07161394                0.01618896               -0.19411641                0.17108529                0.14069321                0.13202763               -0.02855337                0.03792123
               7.96070269                1.93286657               50.07337769                0.01000000               -0.04388154                0.15796346                0.14503224                0.16643237               -0.00673528                0.04858888
               8.96026008                1.93190715               50.07517554                0.09532395               -0.04506080               -0.04228074                0.14991928                0.00288731               -0.00440494               -0.00335254
               9.95980147                1.93095033               50.07698493                0.70157697               -0.04586101               -0.04708923                0.15495974                0.00184521               -0.00380357                0.00379974
              -0.02675804                2.95226922               50.06024729                0.36095191               -0.03616805                0.00615800                0.11783778                0.00588699               -0.00051302                0.02058074
               0.97288028                2.94720303               50.06170968                0.01000001                0.07357533               -0.07782269                0.12226159                0.15745354                0.04732659               -0.01407536
               1.97471347                2.94520007               50.06412831                0.01000000                0.14855366               -0.04948165                0.12312732                0.38650634                0.09932266               -0.00358624
               2.97585135                2.94349123               50.06652248                0.01000000                0.09322030                0.04821990                0.12477516                0.56607743                0.10586708                0.01560464
               3.97657787                2.94310488               50.06901010                0.01197287               -0.01189618                0.12558418                0.12651886                0.66622354                0.09097012                0.02857913
               4.97561343                2.94216467               50.07108869                0.01000000               -0.19026816                0.24397310                0.13033118                0.76336641                0.06793054                0.05634369
               5.97277251                2.94228185               50.07318757                0.01000001               -0.35645808                0.39528535                0.13423849                0.69199442                0.03027785                0.11114116
               6.96848427                2.93771077               50.07474324                0.01000001               -0.38691327                0.66504878                0.13948086                0.67684288                0.00616300                0.17137510
               7.96503425                2.93645978               50.07665362                0.01328802               -0.36002580                0.54453575                0.14672830                0.45735032               -0.04769556                0.15598581
               8.96128375                2.93150739               50.07733114                0.01000000               -0.21145290                0.37733369                0.15009051                0.24007901               -0.06104900                0.14002579
               9.96080519                2.93047206               50.07920165                0.22143369               -0.04785654                0.41311327                0.15607758                0.15464558               -0.00136792                0.15173546
              -0.02121362                3.95237014               50.06249620                0.42937283               -0.03750595               -0.00029526                0.12282218               -0.00847614               -0.00256644                0.02366079
               0.97841132                3.94637199               50.06375505                0.01000000                0.09161248               -0.07424818                0.12684801                0.18447801                0.05937508               -0.01729980
               1.98061863                3.94426026               50.06625216                0.01000000                0.22183384               -0.12558114                0.12670634                0.45340037                0.13576348               -0.02541862
               2.98284800                3.94367827               50.06892178                0.01197516                0.14035600               -0.05411871                0.12749142                0.59754367                0.13703190               -0.00304571
               3.98342575                3.94337585               50.07132841                0.01000000                0.02591793               -0.01277878                0.13039808                0.71763681                0.13469845                0.01004589
               4.98336636                3.94414638               50.07393734                0.01000001               -0.02734740                0.19429011                0.13395573                0.98107442                0.15410089                0.08915523
               5.98287880                3.94641462               50.07676760                0.01000001               -0.14348608                0.43485235                0.13669431                1.14748864                0.15252732                0.18213227
               6.98049664                3.94715805               50.07942745                0.01186401               -0.34128646                0.75514029                0.14199424                0.97779342                0.06958020                0.23453809
               7.97605307                3.94375728               50.08080660                0.01044280               -0.47236258                0.81768300                0.15133099                0.68151612                0.00194030                0.25797417
               8.97104938                3.93945383               50.08241069                0.01000000               -0.55440144                1.16318835                0.16095632                0.68487614                0.02499500                0.34720131
               9.96496504                3.93921259               50.08438086                0.25562470               -0.60843393                1.08055429                0.17052103                0.51582755                0.03871813                0.33514886
              -0.01493127                4.95226331               50.06473525                0.55679210               -0.03890065               -0.01886959                0.12780669               -0.00645155               -0.00301710                0.02389135
               0.98467972                4.94571807               50.06577854                0.01000000                0.07032336               -0.05870313                0.13137126                0.16793289                0.06128166               -0.02023940
               1.98647520                4.94268845               50.06810730                0.01000001                0.20034546               -0.18856437                0.13125007                0.45205504                0.15396481               -0.06488940
               2.98868663                4.94240886               50.07091799                0.01000000                0.19936518               -0.21810013                0.13249752                0.63103769                0.17859885               -0.07557121
               3.99046250                4.94284930               50.07362719                0.01000001                0.17547593               -0.07778855                0.13563704                0.91001400                0.22028063                0.00605086
               4.99219615                4.94605047               50.07716650                0.01000001                0.11240578                0.15462982                0.13841909                1.25566794                0.27485878                0.11886068
               5.99271062                4.95097889               50.08089927                0.01182639               -0.07493366                0.33162456                0.14328993                1.21595003                0.22069695                0.17286346
               6.99069748                4.95281358               50.08336594                0.01000000               -0.31709103                0.58979655                0.14991066                1.00495215                0.14934107                0.24041550
               7.98636879                4.95281344               50.08583173                0.01000000               -0.55857535                1.16336992                0.16015641                1.01467061                0.15023077                0.38709132
               8.97952597                4.95477116               50.08854723                0.01000000               -0.73822923                1.60943486                0.17516718                0.74977934                0.10075931                0.46859968
               9.97160421                4.95208315               50.09026942                0.30021987               -0.79217598                1.49251250                0.18652280                0.46008147                0.04455173                0.43805831
              -0.00825217                5.95199275               50.06696857                0.76368458               -0.04029882               -0.03158437                0.13281086               -0.00291562               -0.00350192                0.02358097
               0.99134485                5.94519793               50.06778344                0.01000001                0.06105563               -0.04895468                0.13589781                0.09995381                0.04274283               -0.02174925
               1.99296895                5.94048897               50.06952280                0.01142435                0.19815236               -0.24470859                0.13647216                0.26962926                0.12696911               -0.14368343
               2.99530789                5.93931627               50.07192608                0.01000001                0.25077349               -0.33974524                0.13867274                0.61084818                0.24615059               -0.16518300
               3.99798442                5.94182008               50.07588320                0.01000001                0.25211168               -0.15419238                0.14141095                1.03470015                0.36388473               -0.00461283
               5.00035013                5.94723898               50.08048699                0.01182685                0.12251401                0.00506595                0.14612720                1.20118034                0.35067127                0.06020268
               6.00043470                5.95304711               50.08404946                0.01000000               -0.07944986                0.20959673                0.15177139                1.22804178                0.31312066                0.14827471
               6.99876113                5.95895398               50.08792179                0.01000000               -0.30228972                0.74551558                0.16047582                1.40070256                0.34843153                0.34773773
               7.99438890                5.96702468               50.09226683                0.01000000               -0.59929322                1.43897215                0.17299661                1.39134931                0.31027071                0.54034784
               8.98677526                5.97164252               50.09555072                0.01135615               -0.74231031                1.67434278                0.18805116                0.86431603                0.16319596                0.54376840
               9.97954270                5.96906284               50.09718106                0.36699555               -0.72325690                1.53738073                0.19471097                0.41166208                0.07983647                0.48082597
              -0.00139995                6.95163162               50.06919347                0.99999999               -0.04174729               -0.03823694                0.13781703               -0.00050769               -0.00322865                0.02451271
               0.99818257                6.94473898               50.06978321                0.29720616               -0.04253030               -0.04515854                0.14045528               -0.00461974               -0.02510570               -0.02266113
               1.99774944                6.93779427               50.06993523                0.01619271                0.06949537               -0.15664366                0.14224662                0.12791672                0.06586818               -0.12616907
               2.99957248                6.93561395               50.07234421                0.01000001                0.27421756               -0.29885883                0.14512513                0.56462973                0.34980929               -0.12324657
               4.00323379                6.93976546               50.07802425                0.01186707                0.27101217               -0.28107370                0.14973612                0.95318422                0.46492989               -0.09448435
               5.00499273                6.94615179               50.08246911                0.01000000                0.11613275               -0.12030202                0.15479398                1.10867192                0.44413936               -0.00190174
               6.00555645                6.95517083               50.08761163                0.01000000               -0.01293828                0.23306586                0.16287113                1.46777595                0.53245422                0.21751168
               7.00473396                6.96772389               50.09376207                0.01000000               -0.20246033                0.88915055                0.17457675                1.79686116                0.57654328                0.45543695
               8.00150724                6.98159289               50.09975529                0.01143672               -0.49799137                1.24702663                0.19062036                1.47721238                0.40200199                0.51982865
               8.99477413                6.98825802               50.10238176                0.01000002               -0.82552120                1.77708904                0.19545692                0.61398104                0.14717387                0.71738862
               9.98499682                6.98283076               50.10336222                0.48947900               -0.97773154                1.74523552                0.19789806                0.33907854                0.06053197                0.58333144
               0.00552298                7.95122801               50.07144295                0.99105365               -0.04331744               -0.04156421                0.14287105                0.00060670               -0.00644336                0.02949568
               1.00508980                7.94429476               50.07177152                0.89592731               -0.04353347               -0.04457223                0.14500559               -0.00112377               -0.01645835               -0.01517920
               2.00465231                7.93735610               50.07189983                0.01000000               -0.02302490               -0.04430760                0.14676140                0.14381980                0.09441152               -0.03798990
               3.00462930                7.93333909               50.07444558                0.01329053                0.09289778               -0.27971741                0.15285233                0.51999170                0.30038978               -0.17676854
               4.00651026                7.93619861               50.07861666                0.01045143                0.12444448               -0.25251983                0.15734259                0.81992752                0.48541441               -0.13041583
               5.00711819                7.94483294               50.08464119                0.01000000                0.08539267               -0.08818758                0.16474784                1.09806611                0.65372716                0.05040588
               6.00821812                7.95770843               50.09207637                0.01000000                0.05790507                0.20599546                0.17750061                1.53347363                0.76288536                0.24088167
               7.00827629                7.97673699               50.10012433                0.01144339               -0.24095470                0.58850137                0.19593638                1.69632962                0.65232494                0.34748448
               8.00339902                7.99196522               50.10512414                0.01000002               -0.52296432                1.41152096                0.20126413                1.53476578                0.62481812                0.59775600
               8.99781701                8.00718430               50.11261140                0.43190421               -0.31101255                0.91322381                0.21047548                0.91504552                0.37826136                0.45481403
               9.99717877                8.00396755               50.11248204                0.95971314               -0.06382377                1.02285941                0.21581501                0.44722671               -0.00217067                0.38710291
               0.01247868                8.95080034               50.07376685                1.00000000               -0.04466669               -0.04386131                0.14806312                0.00086452               -0.00092365                0.02776341
               1.01203201                8.94384753               50.07392130                0.99999999               -0.04485866               -0.04525265                0.14986754                0.00006781               -0.00094165               -0.00352680
               2.01158150                8.93690812               50.07407563                0.10851573               -0.04511031               -0.04557859                0.15167274                0.00177421               -0.01560324               -0.02477411
               3.01112980                8.93001960               50.07393685                0.01000000               -0.17215034               -0.18928373                0.15300431                0.55985436                0.29454494               -0.16208218
               4.00813850                8.93471506               50.08029302                0.01000000               -0.28427895                0.02443162                0.16821645                0.67136413                0.67177488               -0.02705246
               5.00544422                8.94438804               50.08778706                0.01000000               -0.19083157                0.03358801                0.18027152                0.72822735                0.77098602                0.06456137
               6.00432187                8.95929074               50.09604189                0.01138941               -0.05202281                0.10393978                0.19703962                0.91509986                0.77328433                0.15464810
               7.00440377                8.97949392               50.10340924                0.01000002               -0.12833092                0.13156851                0.20620142                1.64311029                0.90904716                0.11316578
               8.00175525                9.00982331               50.11419798                0.43891580               -0.16655310                0.85756617                0.22565569                1.43637364                0.54465169                0.39759241
               9.00107271                9.00652249               50.11394144                0.98150550               -0.06901949               -0.06921399                0.23093633               -0.00015408               -0.00553164                0.00696165
              10.00037486                9.00328795               50.11372245                0.99452495               -0.06978494               -0.07096562                0.23617701               -0.00316455               -0.00349408               -0.00528259
               0.01944588                9.95035078               50.07598166                1.00000000               -0.04625071               -0.04495597                0.15304570                0.00061326                0.02267438                0.02228801
               1.01898338                9.94338971               50.07614283                0.99886328               -0.04650815               -0.04578255                0.15486359               -0.00017614                0.02266983                0.00004649
               2.01851572                9.93644452               50.07630439                0.71155221               -0.04819624               -0.04635971                0.15668229                0.00160735                0.02725626               -0.02213003
               3.01801945                9.92955342               50.07655758                0.22248926               -0.64733052               -0.04661832                0.15877469                0.70110064                0.34236931               -0.00562002
               4.00556911                9.93668724               50.08302371                0.25542546               -1.04561943                0.19721803                0.18096874                0.54062541                0.66482737                0.03118038
               4.99710706                9.94550470               50.09030841                0.29847370               -0.70774379                0.11166632                0.19676800                0.32128315                0.75222051                0.03511570
               5.99141423                9.95978723               50.09872755                0.36443918               -0.32505652                0.04964894                0.21377739                0.40242017                0.71685619                0.08870672
               6.99060593                9.97936837               50.10526504                0.48732737                0.68418418               -0.01255503                0.21610022                1.08668199                0.81532989                0.02908261
               8.00509792               10.00911654               50.11537076                0.96876624                0.68716738               -0.07067667                0.24592520                1.65585009                0.52347290                0.00259288
               9.00434928               10.00580002               50.11520798                0.99452515               -0.07566793               -0.07224670                0.25125031               -0.00075761                0.00716626                0.00382242
              10.00358456               10.00254824               50.11498976                1.00000000               -0.07647209               -0.07397126                0.25648705               -0.00420833                0.00426053               -0.00394565
              -0.04164696               -0.04929098               51.05476168                0.89892642               -0.03013474               -0.03013707                0.10306226                0.00179738               -0.00611983                0.00672623
               0.95805170               -0.05348193               51.05659057                0.62258733               -0.02649139               -0.03437041                0.10784383                0.00403833               -0.00628352               -0.00470666
               1.95782322               -0.05754241               51.05841326                0.39057039               -0.00823481               -0.03418036                0.11269309                0.01560527                0.00535139               -0.00221789
               2.95788700               -0.06107073               51.06046183                0.36105697                0.01153817               -0.03590317                0.11766803                0.00605232                0.02373916               -0.00161695
               3.95805398               -0.06364713               51.06260736                0.42905944                0.00550130               -0.03724816                0.12256740               -0.01033062                0.02547999               -0.00112509
               4.95799703               -0.06535884               51.06463958                0.55510819               -0.01496241               -0.03870104                0.12751500               -0.00809354                0.01655323               -0.00089684
               5.95775473               -0.06659056               51.06657733                0.75963177               -0.02952522               -0.04012843                0.13254141               -0.00391410                0.00988133               -0.00082496
               6.95740652               -0.06760750               51.06846330                1.00000000               -0.03731637               -0.04158271                0.13759380               -0.00093467                0.00681037               -0.00071571
               7.95700840               -0.06853693               51.07033546                0.99096539               -0.04113992               -0.04319741                0.14272702                0.00055717                0.00676956               -0.00111546
               8.95658372               -0.06942742               51.07221978                1.00000000               -0.04368953               -0.04451422                0.14805144                0.00089302                0.00603901               -0.00021160
               9.95613461               -0.07030703               51.07407782                1.00000000               -0.04491098               -0.04612491                0.15309979                0.00080451                0.00465013                0.00448997
              -0.03743803                0.95040765               51.05693055                0.62291645               -0.03441735               -0.02659275                0.10788001                0.00405128                0.00475075                0.00982767
               0.96221780                0.94617436               51.05875645                0.01000001               -0.03941507               -0.03919582                0.11264909                0.01072418                0.01100395               -0.00913091
               1.96177367                0.94211578               51.06070805                0.01000000               -0.06089574                0.02677965                0.11741198                0.10738449                0.02556016                0.00217362
               2.96099988                0.93857024               51.06283676                0.01000001               -0.08394711                0.07387450                0.12207071                0.19052075                0.03446790                0.00532682
               3.96009473                0.93598039               51.06501260                0.01000000               -0.08060377                0.10939218                0.12644862                0.23884728                0.02642019                0.00622142
               4.95938781                0.93425415               51.06703240                0.01000000               -0.06274028                0.11519654                0.13079911                0.23137770                0.01133759                0.01134705
               5.95883992                0.93300815               51.06893558                0.01000001               -0.05087238                0.14097124                0.13519243                0.13952693                0.00190426                0.01383107
               6.95837036                0.93197667               51.07077908                0.28686582               -0.04579934               -0.04239440                0.13963329               -0.00612162               -0.00236798               -0.00447906
               7.95792393                0.93103109               51.07260100                0.87413298               -0.04463289               -0.04328210                0.14406784               -0.00155309               -0.00229630               -0.00311975
               8.95747770                0.93012744               51.07444737                0.99999999               -0.04508338               -0.04454018                0.14892600                0.00006862               -0.00050482               -0.00029646
               9.95702227                0.92923172               51.07630577                0.99805792               -0.04554345               -0.04624270                0.15399710                0.00000367                0.00006683                0.00445241
              -0.03309936                1.95017717               51.05915845                0.39085430               -0.03425946               -0.00943750                0.11273246                0.01520311                0.00166440                0.01535218
               0.96655805                1.94573415               51.06083444                0.01000000                0.03371961               -0.05922636                0.11745675                0.09944393                0.03067650               -0.01308783
               1.96757503                1.94299318               51.06308950                0.01000001                0.06373815                0.04174450                0.12006182                0.30867647                0.06270926                0.00402581
               2.96783281                1.94040676               51.06534965                0.01000000               -0.02140117                0.13234182                0.12244826                0.44923596                0.06082913                0.01318504
               3.96714701                1.93854071               51.06756398                0.01000000               -0.11179979                0.24352301                0.12543840                0.58068176                0.05019649                0.02817362
               4.96559682                1.93694509               51.06966963                0.01000001               -0.21621313                0.28319773                0.12911814                0.62337590                0.03017706                0.03338879
               5.96282275                1.93622886               51.07158677                0.01142238               -0.31678336                0.35494612                0.13350066                0.34826702               -0.01163583                0.04971504
               6.95926115                1.93154461               51.07301978                0.01618893               -0.19980868                0.17606633                0.14045425                0.13854803               -0.02848132                0.03587190
               7.95882658                1.93059743               51.07482707                0.01000000               -0.04383406                0.16279687                0.14484118                0.17228646               -0.00773260                0.04824272
               8.95838447                1.92968178               51.07667410                0.09499739               -0.04502287               -0.04213984                0.14979092                0.00306480               -0.00504034               -0.00385236
               9.95792612                1.92876812               51.07853422                0.70103872               -0.04583491               -0.04714035                0.15489816                0.00202280               -0.00435985                0.00440797
              -0.02824794                2.95021890               51.06142502                0.36105344               -0.03613992                0.00813763                0.11770679                0.00613332               -0.00056753                0.02090071
               0.97139066                2.94498984               51.06293185                0.01000001                0.07612658               -0.07972810                0.12217268                0.16401973                0.04543024               -0.01437819
               1.97327459                2.94295067               51.06535805                0.01000000                0.15232030               -0.05023764                0.12269833                0.40099208                0.09516784               -0.00646370
               2.97443707                2.94121707               51.06776668                0.01000000                0.09477179                0.05061296                0.12413650                0.58586223                0.10119529                0.01187189
               3.97517003                2.94085085               51.07027201                0.01197391               -0.01349463                0.12971106                0.12594562                0.68922499                0.08698659                0.02493819
               4.97416718                2.93991810               51.07238925                0.01000000               -0.19821432                0.25102570                0.12986813                0.79043327                0.06484743                0.05268043
               5.97120574                2.94010707               51.07453067                0.01000001               -0.36972103                0.40590624                0.13430627                0.71850447                0.02741457                0.10745958
               6.96677276                2.93549800               51.07614266                0.01000001               -0.39866227                0.68052597                0.13988765                0.70235583                0.00494674                0.16886832
               7.96323250                2.93428703               51.07811927                0.01335217               -0.37022250                0.55594147                0.14617404                0.47570624               -0.04884784                0.15532731
               8.95936831                2.92928464               51.07883019                0.01000000               -0.21712284                0.37952147                0.14974697                0.25485985               -0.06256922                0.14274827
               9.95889004                2.92828891               51.08076146                0.22178289               -0.04782651                0.40910641                0.15586854                0.17323978               -0.00152248                0.15600353
              -0.02251856                3.95033992               51.06372380                0.42946943               -0.03747657                0.00122006                0.12269551               -0.00877798               -0.00262743                0.02406974
               0.97710667                3.94413959               51.06502300                0.01000000                0.09431026               -0.07567003                0.12673934                0.19231307                0.05713447               -0.01776896
               1.97936764                3.94198843               51.06751683                0.01000000                0.22716053               -0.12870493                0.12628026                0.47136184                0.13088876               -0.02697928
               2.98164988                3.94141902               51.07019307                0.01197458                0.14314189               -0.05486814                0.12686572                0.61969598                0.13273156               -0.00532136
               3.98223048                3.94113493               51.07262857                0.01000000                0.02496862               -0.01269795                0.12974402                0.74430364                0.13114117                0.00819480
               4.98214925                3.94196560               51.07527375                0.01000001               -0.03087670                0.20037076                0.13340698                1.01589100                0.15001345                0.08667741
               5.98161295                3.94434699               51.07813594                0.01000001               -0.15104725                0.44588386                0.13678622                1.18818077                0.14875742                0.18010960
               6.97912831                3.94515513               51.08085486                0.01187852               -0.35294444                0.77140946                0.14232615                1.01428822                0.06822238                0.23274833
               7.97455406                3.94171625               51.08230329                0.01049035               -0.48242646                0.83023183                0.14862285                0.70705406                0.00343620                0.25818010
               8.96947978                3.93727221               51.08398382                0.01000000               -0.55858460                1.17601133                0.15529200                0.70893822                0.02697912                0.34956325
               9.96338236                3.93695025               51.08602376                0.25600754               -0.60974149                1.08480698                0.16118633                0.53818369                0.04389239                0.33485917
              -0.01602284                4.95024330               51.06601281                0.55679163               -0.03887440               -0.01816052                0.12770166               -0.00664924               -0.00307447                0.02433754
               0.98358842                4.94347644               51.06709173                0.01000000                0.07226217               -0.05932548                0.13126346                0.17530007                0.05930746               -0.02074082
               1.98542240                4.94037657               51.06941774                0.01000001                0.20480325               -0.19385657                0.13085480                0.47116126                0.14982590               -0.06547113
               2.98768448                4.94011971               51.07223948                0.01000000                0.20435552               -0.22497012                0.13186981                0.65683927                0.17513678               -0.07608378
               3.98950951                4.94059689               51.07498014                0.01000001                0.17942312               -0.07988413                0.13502537                0.94458759                0.21711232                0.00481215
               4.99127294                4.94392552               51.07854867                0.01000001                0.11351599                0.15896688                0.13800584                1.30116785                0.27185665                0.11758990
               5.99177983                4.94902475               51.08233121                0.01183605               -0.07918463                0.33882867                0.14293421                1.26033655                0.21917888                0.17207068
               6.98968925                4.95092619               51.08486356                0.01001332               -0.32616660                0.60097203                0.14911243                1.04247324                0.15033595                0.24077224
               7.98525650                4.95089167               51.08741391                0.01000000               -0.56880859                1.18323768                0.15632014                1.04918772                0.15503587                0.38718759
               8.97831308                4.95280487               51.09023125                0.01000000               -0.74794338                1.63870522                0.16487454                0.77749301                0.10823488                0.46764209
               9.97029763                4.94998505               51.09203554                0.30044736               -0.80154452                1.51160738                0.17209035                0.48409089                0.04877530                0.43598422
              -0.00911782                5.94997671               51.06829635                0.76368213               -0.04027828               -0.03132488                0.13274256               -0.00299447               -0.00356833                0.02404208
               0.99047940                5.94295308               51.06914200                0.01000001                0.06327057               -0.04915513                0.13581279                0.10466624                0.04136449               -0.02221829
               1.99214759                5.93811130               51.07088588                0.01142320                0.20434763               -0.25298116                0.13615118                0.28291509                0.12441876               -0.14349048
               2.99456635                5.93691961               51.07331078                0.01000001                0.25844135               -0.35140625                0.13820863                0.63757595                0.24409307               -0.16514743
               3.99731642                5.93953725               51.07729597                0.01000001                0.25891973               -0.15910569                0.14100273                1.07576404                0.36234596               -0.00479228
               4.99974475                5.94514494               51.08194763                0.01183826                0.12512942                0.00417648                0.14579762                1.24668252                0.34997600                0.05994440
               5.99981901                5.95112356               51.08556575                0.01000340               -0.08169446                0.21240291                0.15142072                1.27324675                0.31424534                0.14870323
               6.99811086                5.95717457               51.08951990                0.01000000               -0.30799399                0.75894174                0.15897858                1.44888800                0.35292425                0.34875580
               7.99365913                5.96538101               51.09397804                0.01000000               -0.60873028                1.46919956                0.16894310                1.44096091                0.31841418                0.54010725
               8.98593625                5.97004631               51.09738971                0.01143872               -0.74776611                1.69950038                0.18080035                0.89609117                0.16948991                0.53712760
               9.97870381                5.96718239               51.09907071                0.36711015               -0.72324448                1.54555892                0.18553252                0.42923615                0.08312909                0.46787338
              -0.00203547                6.94961681               51.07057152                0.99999999               -0.04173729               -0.03816052                0.13779211               -0.00052108               -0.00328898                0.02499533
               0.99754716                6.94249333               51.07118752                0.29719041               -0.04251780               -0.04520643                0.14040574               -0.00468699               -0.02559423               -0.02310704
               1.99711417                6.93531695               51.07135721                0.01619073                0.07314450               -0.16162164                0.14216020                0.13493910                0.06539257               -0.12639956
               2.99901005                6.93309158               51.07379261                0.01000001                0.28426477               -0.30872910                0.14459061                0.58978331                0.35028935               -0.12240907
               4.00279947                6.93741477               51.07951921                0.01187968                0.28051206               -0.29075056                0.14911400                0.99269545                0.46574766               -0.09438947
               5.00462029                6.94400905               51.08401785                0.01001672                0.12078372               -0.12579750                0.15451078                1.15105538                0.44635101               -0.00154194
               6.00521514                6.95327281               51.08923846                0.01000000               -0.01053618                0.23551702                0.16224038                1.51814387                0.53751031                0.21935292
               7.00440956                6.96610502               51.09550401                0.01000000               -0.20055809                0.90687040                0.17340798                1.85754671                0.58577803                0.45928799
               8.00120398                6.98027566               51.10165517                0.01151626               -0.49880221                1.26240476                0.18877290                1.52085734                0.40853201                0.51796940
               8.99443352                6.98679487               51.10432211                0.01000002               -0.82968943                1.79025027                0.19178390                0.62890463                0.14766040                0.70992702
               9.98461019                6.98089623               51.10532261                0.48969221               -0.98233269                1.76871431                0.19320261                0.33792867                0.06035104                0.57439461
               0.00511870                7.94921350               51.07287175                0.99106925               -0.04331886               -0.04154849                0.14288704                0.00061448               -0.00656319                0.03006623
               1.00468551                7.94204895               51.07322151                0.89597718               -0.04352880               -0.04458450                0.14499302               -0.00113317               -0.01676717               -0.01546831
               2.00424813                7.93487886               51.07336722                0.01000000               -0.02106591               -0.04429974                0.14671828                0.14952587                0.09574087               -0.03870104
               3.00426420                7.93074503               51.07596693                0.01335572                0.10023698               -0.28891740                0.15172170                0.53953355                0.30289949               -0.17864736
               4.00625287                7.93372224               51.08017990                0.01050215                0.13218122               -0.26043102                0.15559176                0.85010335                0.48848279               -0.12933013
               5.00690782                7.94262899               51.08628525                0.01000000                0.09165247               -0.09297834                0.16380155                1.13765998                0.66020029                0.05321079
               6.00808592                7.95583390               51.09385209                0.01000000                0.06755621                0.20861510                0.17692622                1.58463717                0.77403289                0.24532809
               7.00825894                7.97531198               51.10208666                0.01152203               -0.23497461                0.59347737                0.19601846                1.73899976                0.65987633                0.34868438
               8.00338642                7.99062910               51.10713492                0.01000002               -0.51825866                1.41494816                0.20031967                1.56223896                0.62742928                0.59691456
               8.99789377                8.00585132               51.11470927                0.43170618               -0.30633790                0.91988104                0.20906648                0.93614564                0.37988863                0.45241592
               9.99725967                8.00255668               51.11463378                0.95959948               -0.06341058                1.04917047                0.21450616                0.46665491               -0.00218221                0.38627341
               0.01230591                8.94878584               51.07524777                1.00000000               -0.04467832               -0.04387148                0.14811773                0.00087410               -0.00093585                0.02829527
               1.01185913                8.94160164               51.07542010                0.99999999               -0.04486508               -0.04526376                0.14989285                0.00007122               -0.00095263               -0.00359140
               2.01140861                8.93443096               51.07559231                0.10844512               -0.04508943               -0.04557784                0.15166940                0.00187354               -0.01584787               -0.02524346
               3.01095734                8.92731324               51.07546679                0.01000000               -0.17455171               -0.19490797                0.15300847                0.57938551                0.29985441               -0.16466658
               4.00791758                8.93220615               51.08195232                0.01000000               -0.28477565                0.02508592                0.16474772                0.69593081                0.68184207               -0.02369249
               5.00526183                8.94214948               51.08957194                0.01000000               -0.18463375                0.03251581                0.17721437                0.75494803                0.78301078                0.06967079
               6.00422490                8.95744511               51.09801332                0.01146593               -0.04337358                0.10452481                0.19685683                0.94139748                0.78353268                0.15999376
               7.00439435                8.97797457               51.10547648                0.01000002               -0.11577391                0.12071840                0.20657629                1.66473715                0.91850272                0.10744802
               8.00190942                9.00857462               51.11645142                0.43840872               -0.15827493                0.86196815                0.22502008                1.45832832                0.55130311                0.39938888
               9.00122886                9.00519250               51.11624809                0.98180996               -0.06884298               -0.06904975                0.23039229               -0.00016552               -0.00554502                0.00706274
              10.00053256                9.00187964               51.11608214                0.99477929               -0.06962937               -0.07084379                0.23575737               -0.00330307               -0.00351768               -0.00528332
               0.01950457                9.94833607               51.07751260                1.00000000               -0.04627490               -0.04497658                0.15313803                0.00062627                0.02311356                0.02271606
               1.01904182                9.94114368               51.07769178                0.99863631               -0.04652803               -0.04579674                0.15492797               -0.00016926                0.02311058                0.00004911
               2.01857401                9.93396731               51.07787137                0.71130084               -0.04825543               -0.04636505                0.15671952                0.00169939                0.02783995               -0.02255293
               3.01807671                9.92684687               51.07814547                0.22290734               -0.66193843               -0.04663633                0.15881634                0.72476952                0.35094248               -0.00575061
               4.00533524                9.93422396               51.08478917                0.25584157               -1.06544425                0.20178041                0.17469650                0.56338791                0.68082586                0.03381332
               4.99676782                9.94327931               51.09224029                0.29866912               -0.71232289                0.11298262                0.19126418                0.33562157                0.76846242                0.03982386
               5.99108878                9.95792440               51.10085674                0.36451066               -0.31718227                0.04792841                0.21230925                0.40873972                0.72591993                0.09245107
               6.99042418                9.97772635               51.10742981                0.48745109                0.71231420               -0.02482229                0.21618814                1.10018583                0.82922946                0.02357515
               8.00533506               10.00786847               51.11783115                0.96834731                0.70806311               -0.07061551                0.24615763                1.67976282                0.53567125                0.00261253
               9.00458544               10.00447032               51.11772220                0.99477670               -0.07578761               -0.07221752                0.25160205               -0.00077475                0.00724309                0.00385682
              10.00381931               10.00113980               51.11755701                1.00000000               -0.07661295               -0.07398389                0.25696620               -0.00437688                0.00429006               -0.00396918
              -0.04356084               -0.05141674               52.05579115                0.89825043               -0.02998436               -0.02998282                0.10282648                0.00183540               -0.00609580                0.00670789
               0.95613932               -0.05571891               52.05766816                0.62164851               -0.02607999               -0.03440318                0.10767156                0.00427057               -0.00621706               -0.00470830
               1.95591756               -0.05988301               52.05953965                0.39038083               -0.00674669               -0.03412090                0.11258751                0.01647946                0.00555258               -0.00222422
               2.95600438               -0.06348411               52.06163813                0.36131135                0.01399069               -0.03585617                0.11759573                0.00628652                0.02407463               -0.00167058
               3.95619737               -0.06608346               52.06383275                0.42934253                0.00754199               -0.03720725                0.12250514               -0.01082179                0.02589039               -0.00121219
               4.95615522               -0.06777749               52.06591463                0.55532367               -0.01389946               -0.03867572                0.12748867               -0.00845956                0.01707140               -0.00098380
               5.95591939               -0.06897080               52.06790294                0.75997390               -0.02909870               -0.04011892                0.13257703               -0.00409547                0.01046888               -0.00092105
               6.95557325               -0.06994108               52.06983976                1.00000000               -0.03719335               -0.04159212                0.13770066               -0.00098608                0.00745224               -0.00080239
               7.95517552               -0.07082120               52.07176360                0.99102531               -0.04113416               -0.04322889                0.14290728                0.00056310                0.00754303               -0.00128986
               8.95475057               -0.07166168               52.07370150                1.00000000               -0.04374056               -0.04455605                0.14829629                0.00091102                0.00676204               -0.00024380
               9.95430071               -0.07249164               52.07561033                1.00000000               -0.04498585               -0.04618659                0.15340073                0.00085055                0.00522759                0.00509142
              -0.03924032                0.94828343               52.05800840                0.62194363               -0.03445229               -0.02618518                0.10768756                0.00428398                0.00473596                0.00983371
               0.96041516                0.94393706               52.05988229                0.01000000               -0.03973607               -0.03949032                0.11251889                0.01143071                0.01097673               -0.00913822
               1.95996496                0.93977578               52.06188176                0.01000000               -0.06238394                0.02817092                0.11733060                0.11091904                0.02541338                0.00086718
               2.95916748                0.93615733               52.06405703                0.01000001               -0.08645549                0.07658805                0.12198393                0.19688282                0.03397610                0.00314854
               3.95823585                0.93354446               52.06627652                0.01000000               -0.08265905                0.11258457                0.12632634                0.24698575                0.02568360                0.00365516
               4.95751430                0.93183575               52.06833982                0.01000000               -0.06378121                0.11776708                0.13067332                0.23925377                0.01059714                0.00877547
               5.95696022                0.93062801               52.07028707                0.01000001               -0.05128546                0.14394640                0.13509638                0.14450085                0.00122161                0.01161043
               6.95648859                0.92964300               52.07217519                0.28720258               -0.04593854               -0.04239961                0.13958373               -0.00634796               -0.00301913               -0.00519067
               7.95604145                0.92874651               52.07404167                0.87455532               -0.04468443               -0.04328262                0.14406602               -0.00160257               -0.00273171               -0.00358386
               8.95559490                0.92789276               52.07593690                0.99999999               -0.04511402               -0.04455136                0.14898036                0.00007704               -0.00061646               -0.00033599
               9.95513917                0.92704649               52.07784633                0.99780823               -0.04557258               -0.04627815                0.15411653                0.00004040                0.00006150                0.00505195
              -0.03478243                1.94805955               52.06028499                0.39059860               -0.03419973               -0.00807752                0.11257770                0.01603666                0.00164203                0.01547780
               0.96487558                1.94349129               52.06200853                0.01000000                0.03490500               -0.06050738                0.11736708                0.10307784                0.02932182               -0.01319556
               1.96591567                1.94068041               52.06428447                0.01000001                0.06488911                0.04338415                0.11932335                0.31867025                0.05956020                0.00117661
               2.96617336                1.93804765               52.06657133                0.01000000               -0.02285043                0.13639585                0.12196280                0.46408202                0.05778753                0.00895810
               3.96545867                1.93616823               52.06881678                0.01000000               -0.11583042                0.24972983                0.12511292                0.59946961                0.04759459                0.02297230
               4.96385675                1.93457785               52.07095966                0.01000001               -0.22282573                0.28892013                0.12886975                0.64386653                0.02824811                0.02838784
               5.96100215                1.93390813               52.07292161                0.01142503               -0.32644827                0.36269288                0.13335245                0.36201253               -0.01176933                0.04542250
               6.95732779                1.92921093               52.07442302                0.01618601               -0.20542196                0.18050258                0.14019361                0.14555167               -0.02857456                0.03393879
               7.95689371                1.92831315               52.07627451                0.01000000               -0.04378294                0.16717981                0.14463870                0.17823347               -0.00874951                0.04767376
               8.95645213                1.92744729               52.07817136                0.09464706               -0.04498339               -0.04200581                0.14965860                0.00324667               -0.00569339               -0.00435123
               9.95599404                1.92658280               52.08008289                0.70046168               -0.04580826               -0.04719477                0.15483949                0.00220170               -0.00493265                0.00504675
              -0.02978306                2.94812188               52.06260142                0.36119069               -0.03610886                0.01020932                0.11756952                0.00639683               -0.00062578                0.02120249
               0.96985586                2.94272691               52.06415313                0.01000001                0.07825268               -0.08172756                0.12208120                0.17034956                0.04327742               -0.01474347
               1.97178200                2.94064347               52.06658227                0.01000000                0.15527225               -0.05097161                0.12221515                0.41544933                0.09069532               -0.00878409
               2.97296130                2.93888525               52.06900521                0.01000000                0.09565210                0.05256999                0.12360789                0.60565612                0.09676791                0.00842546
               3.97369504                2.93853906               52.07152901                0.01197474               -0.01547874                0.13316963                0.12546783                0.71190683                0.08327493                0.02131097
               4.97265173                2.93761415               52.07368606                0.01000000               -0.20638237                0.25713283                0.12946359                0.81726558                0.06235155                0.04915699
               5.96956739                2.93788187               52.07587370                0.01000001               -0.38285646                0.41540726                0.13406654                0.74547946                0.02545417                0.10419155
               6.96499460                2.93325305               52.07754099                0.01000001               -0.40988150                0.69405932                0.13958728                0.72870949                0.00411095                0.16660125
               7.96136976                2.93209011               52.07957710                0.01341734               -0.38022058                0.56565502                0.14542284                0.49493564               -0.05008591                0.15445534
               8.95739018                2.92705264               52.08032608                0.01000000               -0.22287832                0.37983659                0.14942991                0.27144307               -0.06389179                0.14369778
               9.95691220                2.92610260               52.08231902                0.22213433               -0.04779892                0.40264472                0.15564541                0.19344451               -0.00166668                0.15739347
              -0.02386456                3.94826374               52.06495011                0.42958875               -0.03744586                0.00278175                0.12256138               -0.00907748               -0.00268996                0.02445963
               0.97576098                3.94185674               52.06628984                0.01000000                0.09654451               -0.07713324                0.12662428                0.20011613                0.05475252               -0.01830235
               1.97806633                3.93966098               52.06877777                0.01000000                0.23149537               -0.13167472                0.12590699                0.48921435                0.12581960               -0.02839664
               2.98039089                3.93909905               52.07145909                0.01197418                0.14507817               -0.05578899                0.12635695                0.64181555                0.12842883               -0.00740825
               3.98096789                3.93883162               52.07392329                0.01000000                0.02341830               -0.01304561                0.12919597                0.77109831                0.12782788                0.00653635
               4.98085925                3.93972051               52.07660548                0.01000001               -0.03475265                0.20571193                0.13287307                1.05075720                0.14656227                0.08447863
               5.98027284                3.94221627               52.07950332                0.01000001               -0.15827608                0.45543141                0.13637992                1.22917627                0.14589974                0.17815130
               6.97769373                3.94309212               52.08227397                0.01189107               -0.36400013                0.78554626                0.14128704                1.05184385                0.06696724                0.23132962
               7.97299284                3.93962625               52.08377906                0.01054288               -0.49126163                0.83961657                0.14666453                0.73419800                0.00293648                0.25801998
               8.96786850                3.93504402               52.08551653                0.01000000               -0.56149079                1.18327369                0.15206949                0.73441454                0.02757715                0.35110876
               9.96176302                3.93463569               52.08760459                0.25638706               -0.61054784                1.08266418                0.15663656                0.56211412                0.04515988                0.33547778
              -0.01715060                4.94817751               52.06728929                0.55679560               -0.03884623               -0.01744313                0.12758680               -0.00684011               -0.00313165                0.02477983
               0.98246094                4.94118425               52.06840381                0.01000000                0.07372838               -0.05994802                0.13114563                0.18270405                0.05720120               -0.02127925
               1.98432397                4.93800997               52.07072440                0.01000001                0.20830151               -0.19906391                0.13048725                0.49037115                0.14545929               -0.06597648
               2.98662697                4.93776947               52.07355538                0.01000000                0.20857899               -0.23194337                0.13132632                0.68284760                0.17163718               -0.07638900
               3.98849555                4.93827815               52.07632769                0.01000001                0.18276233               -0.08232260                0.13443826                0.97927645                0.21408243                0.00388316
               4.99028222                4.94172839               52.07992662                0.01000001                0.11418785                0.16240940                0.13744666                1.34664790                0.26912972                0.11669893
               5.99077931                4.94699050               52.08375796                0.01184524               -0.08303607                0.34488281                0.14214304                1.30550362                0.21761555                0.17157176
               6.98862150                4.94896398               52.08634819                0.01003457               -0.33387443                0.60982670                0.14762416                1.08027678                0.15001332                0.24145686
               7.98410182                4.94888244               52.08895813                0.01000000               -0.57762299                1.19796577                0.15298240                1.08243397                0.15663786                0.38847649
               8.97706904                4.95071812               52.09184472                0.01000000               -0.75653374                1.66250984                0.15913360                0.80386696                0.11132821                0.46910615
               9.96897114                4.94775588               52.09371122                0.30067228               -0.80978926                1.52487761                0.16519136                0.50778932                0.05257438                0.43657932
              -0.01001483                5.94791488               52.06962342                0.76367363               -0.04025616               -0.03106889                0.13266692               -0.00306663               -0.00363498                0.02450993
               0.98958260                5.94065778               52.07049969                0.01000001                0.06516855               -0.04934623                0.13572035                0.10944457                0.03988186               -0.02269958
               1.99128854                5.93567970               52.07224583                0.01142853                0.20985304               -0.26125125                0.13580248                0.29653190                0.12167324               -0.14311639
               2.99377966                5.93446018               52.07469025                0.01000001                0.26529790               -0.36299211                0.13765715                0.66473802                0.24191822               -0.16494606
               3.99659449                5.93718517               52.07870325                0.01000001                0.26500997               -0.16422036                0.14037564                1.11682384                0.36073407               -0.00462423
               4.99907986                5.94296870               52.08340295                0.01184838                0.12764157                0.00274663                0.14507995                1.29235214                0.34912500                0.06008472
               5.99914733                5.94911393               52.08707788                0.01002183               -0.08362707                0.21405251                0.15067744                1.31805720                0.31469023                0.14988537
               6.99740732                5.95528865               52.09110136                0.01000000               -0.31299723                0.76894573                0.15715213                1.49414754                0.35514764                0.35045108
               7.99288738                5.96358557               52.09564569                0.01000000               -0.61674617                1.49564803                0.16495560                1.48817640                0.32364002                0.54269553
               8.98507240                5.96829422               52.09916673                0.01152625               -0.75220525                1.72094365                0.17545065                0.92692731                0.17413618                0.53661359
               9.97784328                5.96513324               52.10089171                0.36722002               -0.72291230                1.54998484                0.17973938                0.44548739                0.08541640                0.46349312
              -0.00269773                6.94755614               52.07194931                0.99999999               -0.04172643               -0.03808945                0.13776362               -0.00053035               -0.00334940                0.02548581
               0.99688501                6.94019732               52.07259133                0.29716519               -0.04250366               -0.04524797                0.14035383               -0.00474031               -0.02608346               -0.02355472
               1.99645220                6.93278495               52.07277843                0.01618935                0.07656271               -0.16663664                0.14207469                0.14227337                0.06471734               -0.12653261
               2.99841626                6.93050962               52.07523602                0.01000001                0.29356572               -0.31841067                0.14409814                0.61518708                0.35041890               -0.12169018
               4.00232351                6.93499374               52.08100653                0.01189663                0.28921178               -0.30031322                0.14825487                1.03204037                0.46633977               -0.09426210
               5.00420050                6.94178333               52.08555933                0.01003400                0.12484895               -0.13128159                0.15365853                1.19239728                0.44795247               -0.00088613
               6.00482049                6.95127155               52.09085643                0.01000000               -0.00838448                0.23631016                0.16123212                1.56548050                0.54111035                0.22198582
               7.00403281                6.96434289               52.09723023                0.01000000               -0.19803574                0.92247768                0.17144723                1.91537662                0.59288043                0.46410527
               8.00085978                6.97879540               52.10353075                0.01159781               -0.49864520                1.27608438                0.18626395                1.56158511                0.41230920                0.51828520
               8.99405990                6.98513699               52.10621744                0.01000002               -0.83284667                1.80062124                0.18761740                0.64018449                0.14533268                0.70623081
               9.98420284                6.97875558               52.10722627                0.48990641               -0.98570599                1.79001205                0.18814350                0.33400044                0.05890020                0.57059649
               0.00469218                7.94715309               52.07430069                0.99109219               -0.04331934               -0.04153714                0.14290280                0.00062398               -0.00668279                0.03064012
               1.00425899                7.93975282               52.07467138                0.89601205               -0.04352376               -0.04459446                0.14498301               -0.00113596               -0.01707725               -0.01575764
               2.00382170                7.93234697               52.07483420                0.01000000               -0.01921871               -0.04429218                0.14668159                0.15524043                0.09668926               -0.03941243
               3.00387461                7.92809197               52.07748002                0.01341850                0.10699472               -0.29809483                0.15108458                0.55912823                0.30464657               -0.18024079
               4.00596160                7.93117890               52.08172850                0.01055080                0.13876956               -0.26809011                0.15435916                0.87988850                0.49123977               -0.12870116
               5.00665000                7.94034306               52.08791722                0.01000000                0.09678839               -0.09784583                0.16258825                1.17520824                0.66640279                0.05600395
               6.00789737                7.95384013               52.09561489                0.01000000                0.07704976                0.21072085                0.17559766                1.63313118                0.78486194                0.25138211
               7.00819100                7.97373821               52.10404470                0.01160239               -0.22861891                0.59784134                0.19527520                1.77850169                0.66615173                0.35079742
               8.00332499                7.98910725               52.10913054                0.01000002               -0.51375431                1.41597229                0.19867483                1.58591825                0.62852000                0.59699613
               8.99791591                8.00430665               52.11679273                0.43148144               -0.30194418                0.92569178                0.20760247                0.95487068                0.38150907                0.45108120
               9.99728611                8.00093348               52.11677216                0.95946375               -0.06298072                1.07517422                0.21315326                0.48436147               -0.00219448                0.38717310
               0.01211530                8.94672539               52.07672921                1.00000000               -0.04468863               -0.04388242                0.14816612                0.00088488               -0.00094572                0.02882574
               1.01166841                8.93930544               52.07691916                0.99999999               -0.04487213               -0.04527447                0.14992004                0.00007717               -0.00096137               -0.00365635
               2.01121785                8.93189910               52.07710901                0.10839175               -0.04507597               -0.04558028                0.15167780                0.00197060               -0.01606485               -0.02570984
               3.01076689                8.92454773               52.07699702                0.01000000               -0.17738317               -0.20054648                0.15305365                0.59893599                0.30401634               -0.16682705
               4.00767019                8.92963194               52.08358797                0.01000000               -0.28617283                0.02554466                0.16291194                0.72039463                0.69086553               -0.02125173
               5.00504343                8.93982641               52.09133135                0.01000000               -0.17911082                0.03107031                0.17511906                0.78063805                0.79604971                0.07450926
               6.00408797                8.95548596               52.09997903                0.01155325               -0.03538570                0.10546365                0.19609019                0.96595302                0.79460610                0.16660583
               7.00433572                8.97629972               52.10754077                0.01000002               -0.10391348                0.10975046                0.20595201                1.68270005                0.92744284                0.10209112
               8.00200970                9.00711485               52.11869838                0.43788498               -0.15023162                0.86510411                0.22435735                1.47725356                0.55769672                0.40118380
               9.00133109                9.00365082               52.11854929                0.98212399               -0.06866545               -0.06888493                0.22984281               -0.00017054               -0.00557164                0.00715651
              10.00063640                9.00025906               52.11843759                0.99504347               -0.06946923               -0.07071780                0.23532766               -0.00344440               -0.00354031               -0.00528253
               0.01954979                9.94627544               52.07904442                1.00000000               -0.04629721               -0.04499529                0.15321992                0.00063823                0.02355869                0.02314144
               1.01908682                9.93884733               52.07924139                0.99839682               -0.04654833               -0.04581087                0.15499455               -0.00016295                0.02355717                0.00005090
               2.01861883                9.93143536               52.07943878                0.71104585               -0.04831614               -0.04637413                0.15677306                0.00178284                0.02844399               -0.02297406
               3.01812050                9.92408104               52.07973390                0.22333655               -0.67640080               -0.04666864                0.15889384                0.74808235                0.35765558               -0.00587252
               4.00509081                9.93168980               52.08651764                0.25626141               -1.08558789                0.20578584                0.17198611                0.58623336                0.69485483                0.03620164
               4.99640874                9.94096447               52.09413370                0.29886972               -0.71738468                0.11380605                0.18835660                0.34951093                0.78608473                0.04466132
               5.99074312                9.95594940               52.10297374                0.36458695               -0.30963123                0.04634418                0.21118939                0.41395145                0.73709753                0.09661527
               6.99021611                9.97593322               52.10958880                0.48757638                0.73879209               -0.03665059                0.21528524                1.11103601                0.84376803                0.01789428
               8.00551896               10.00640934               52.12029391                0.96792178                0.72760861               -0.07055121                0.24639850                1.70071185                0.54822829                0.00263338
               9.00476829               10.00292895               52.12024002                0.99504259               -0.07591087               -0.07218779                0.25196815               -0.00079048                0.00731876                0.00389405
              10.00400074                9.99951913               52.12012908                0.99089846               -0.07675469               -0.07399348                0.25745315               -0.00454737                0.00432259               -0.00399003
              -0.04552289               -0.05359132               53.05681821                0.89756301               -0.02982574               -0.02981967                0.10258417                0.00187722               -0.00606564                0.00668470
               0.95417885               -0.05800435               53.05874401                0.62072042               -0.02564071               -0.03444258                0.10749779                0.00452311               -0.00614177               -0.00470683
               1.95396429               -0.06227110               53.06066501                0.39023321               -0.00517262               -0.03405854                0.11248413                0.01741013                0.00575103               -0.00223087
               2.95407540               -0.06594194               53.06281374                0.36161615                0.01654976               -0.03580535                0.11752310                0.00653287                0.02438229               -0.00172802
               3.95429529               -0.06855892               53.06505746                0.42965191                0.00964341               -0.03716200                0.12243527               -0.01131589                0.02627299               -0.00130170
               4.95426827               -0.07022890               53.06718936                0.55554598               -0.01281567               -0.03864721                0.12745437               -0.00882234                0.01759128               -0.00107228
               5.95403898               -0.07137725               53.06922887                0.76031764               -0.02866811               -0.04010705                0.13260866               -0.00427365                0.01107596               -0.00102017
               6.95369490               -0.07229440               53.07121731                1.00000000               -0.03707243               -0.04160085                0.13781094               -0.00103413                0.00812079               -0.00089110
               7.95329753               -0.07311887               53.07319361                0.99109514               -0.04113346               -0.04326270                0.14310092                0.00057070                0.00833822               -0.00147151
               8.95287224               -0.07390310               53.07518571                0.99980553               -0.04380068               -0.04460464                0.14856989                0.00093008                0.00749267               -0.00026655
               9.95242151               -0.07467721               53.07714583                1.00000000               -0.04507216               -0.04625897                0.15374586                0.00090067                0.00579799                0.00573810
              -0.04109109                0.94611049               53.05908430                0.62098400               -0.03449399               -0.02574923                0.10749211                0.00453776                0.00471613                0.00983283
               0.95856397                0.94165123               53.06100683                0.01000000               -0.04008614               -0.03981286                0.11239062                0.01219910                0.01093622               -0.00914358
               1.95810719                0.93738831               53.06305467                0.01000000               -0.06396681                0.02936463                0.11725213                0.11439632                0.02521146               -0.00058450
               2.95728464                0.93370001               53.06527644                0.01000001               -0.08907911                0.07898426                0.12189226                0.20309965                0.03336966                0.00081274
               3.95632561                0.93106946               53.06753912                0.01000000               -0.08477164                0.11532936                0.12618660                0.25499564                0.02483441                0.00101807
               4.95558921                0.92938463               53.06964587                0.01000000               -0.06483101                0.11977551                0.13052669                0.24704523                0.00978682                0.00619010
               5.95502899                0.92822168               53.07163750                0.01000001               -0.05169149                0.14639619                0.13498173                0.14949929                0.00050255                0.00937752
               6.95455538                0.92728960               53.07357075                0.28751622               -0.04607017               -0.04240127                0.13952288               -0.00656633               -0.00369143               -0.00592640
               7.95410759                0.92644850               53.07548232                0.87494059               -0.04473339               -0.04328317                0.14406317               -0.00165098               -0.00318226               -0.00406607
               8.95366071                0.92565086               53.07742698                0.99999999               -0.04514751               -0.04456657                0.14904710                0.00008396               -0.00073716               -0.00036986
               9.95320464                0.92486020               53.07938810                0.99754450               -0.04560724               -0.04632117                0.15426093                0.00007905                0.00004608                0.00568751
              -0.03651361                1.94589370               53.06141000                0.39035728               -0.03413829               -0.00663318                0.11242275                0.01692978                0.00161614                0.01558448
               0.96314501                1.94119939               53.06318178                0.01000000                0.03585256               -0.06187811                0.11728305                0.10669382                0.02779953               -0.01333338
               1.96420344                1.93831619               53.06547597                0.01000001                0.06556209                0.04466880                0.11903616                0.32837933                0.05646024               -0.00161656
               2.96445625                1.93563774               53.06778890                0.01000000               -0.02464311                0.13989088                0.12160201                0.47862609                0.05494706                0.00462377
               3.96371058                1.93374767               53.07006624                0.01000000               -0.11996511                0.25505510                0.12477135                0.61789686                0.04513043                0.01769412
               4.96205695                1.93216661               53.07224702                0.01000001               -0.22932905                0.29353947                0.12855436                0.66416654                0.02642270                0.02338781
               5.95912400                1.93155068               53.07425382                0.01142745               -0.33600934                0.36937566                0.13303245                0.37609334               -0.01188389                0.04114612
               6.95533676                1.92685758               53.07582365                0.01618408               -0.21103745                0.18447402                0.13992051                0.15304928               -0.02873263                0.03194921
               7.95490325                1.92601547               53.07771984                0.01000000               -0.04372693                0.17115425                0.14442138                0.18430486               -0.00979278                0.04692606
               8.95446222                1.92520557               53.07966728                0.09427865               -0.04494185               -0.04187153                0.14952019                0.00343702               -0.00635913               -0.00484120
               9.95400441                1.92439636               53.08163101                0.69984181               -0.04578094               -0.04725566                0.15478402                0.00238909               -0.00551633                0.00572497
              -0.03136388                2.94597782               53.06377641                0.36137193               -0.03607642                0.01237726                0.11742871                0.00667377               -0.00068756                0.02147511
               0.96827536                2.94041366               53.06537348                0.01000001                0.08001526               -0.08382640                0.12198965                0.17664650                0.04093629               -0.01518702
               1.97023643                2.93828169               53.06780235                0.01000000                0.15751647               -0.05189099                0.12184966                0.42977514                0.08606457               -0.01092304
               2.97142569                2.93649782               53.07023884                0.01000000                0.09591255                0.05414642                0.12313910                0.62527798                0.09243146                0.00508895
               3.97215468                2.93617056               53.07278137                0.01197501               -0.01780819                0.13596579                0.12498451                0.73438320                0.07973420                0.01770134
               4.97106952                2.93525542               53.07497852                0.01000000               -0.21473942                0.26240015                0.12896328                0.84410785                0.06003420                0.04565540
               5.96785989                2.93560920               53.07721200                0.01000001               -0.39589753                0.42375382                0.13350217                0.77310560                0.02364465                0.10097274
               6.96315157                2.93097908               53.07893440                0.01000001               -0.42070995                0.70584708                0.13899776                0.75587733                0.00309859                0.16407470
               7.95944569                2.92987159               53.08102773                0.01348507               -0.39015108                0.57400785                0.14470125                0.51506626               -0.05137635                0.15298634
               8.95534855                2.92481343               53.08181878                0.01000000               -0.22874302                0.37850844                0.14910510                0.28935346               -0.06506371                0.14371688
               9.95487083                2.92391508               53.08387437                0.22249575               -0.04777206                0.39356155                0.15542973                0.21541794               -0.00181013                0.15757409
              -0.02525181                3.94614125               53.06617503                0.42972631               -0.03741174                0.00438824                0.12241421               -0.00936993               -0.00275319                0.02482322
               0.97437407                3.93952287               53.06755548                0.01000000                0.09832979               -0.07863330                0.12649769                0.20795517                0.05223440               -0.01891156
               1.97671478                3.93727837               53.07003497                0.01000000                0.23494343               -0.13463529                0.12553762                0.50706978                0.12056395               -0.02974313
               2.97907294                3.93672067               53.07272021                0.01197611                0.14629317               -0.05685270                0.12582899                0.66384244                0.12412208               -0.00937180
               3.97964065                3.93646698               53.07521249                0.01000000                0.02137639               -0.01379863                0.12859840                0.79795976                0.12459466                0.00492333
               4.97950047                3.93741462               53.07793121                0.01000001               -0.03890964                0.21033073                0.13220225                1.08572633                0.14324239                0.08237647
               5.97886245                3.94002576               53.08086354                0.01000001               -0.16542756                0.46362169                0.13551906                1.27052918                0.14283718                0.17614525
               6.97619191                3.94097452               53.08368060                0.01190751               -0.37461145                0.79744286                0.13992850                1.09038196                0.06494999                0.22967483
               7.97137022                3.93749562               53.08523658                0.01059540               -0.49930607                0.84614870                0.14496792                0.76241297                0.00152947                0.25717721
               8.96620579                3.93277574               53.08702521                0.01000000               -0.56303865                1.18616839                0.15005872                0.76049847                0.02689198                0.35093129
               9.96010945                3.93226760               53.08915649                0.25676373               -0.60963424                1.07572146                0.15423694                0.58644982                0.04580552                0.33409814
              -0.01831452                4.94606559               53.06856455                0.55680210               -0.03881487               -0.01671815                0.12745782               -0.00702136               -0.00318822                0.02521326
               0.98129733                4.93884100               53.06971464                0.01000000                0.07472669               -0.06056479                0.13101327                0.19019814                0.05498252               -0.02186071
               1.98318002                4.93558899               53.07202749                0.01000001                0.21082972               -0.20417199                0.13012094                0.50977466                0.14089822               -0.06646652
               2.98551393                4.93536077               53.07486600                0.01000000                0.21199574               -0.23903091                0.13076135                0.70899791                0.16798251               -0.07658814
               3.98741993                4.93589459               53.07766891                0.01000001                0.18556745               -0.08505282                0.13374086                1.01395134                0.21094261                0.00302025
               4.98922528                4.93946203               53.08129761                0.01000001                0.11453192                0.16496556                0.13661720                1.39195997                0.26619307                0.11584338
               5.98971057                4.94488163               53.08517407                0.01185545               -0.08679669                0.34985164                0.14093553                1.35089231                0.21555670                0.17128754
               6.98748934                4.94692793               53.08781604                0.01005493               -0.34089191                0.61635146                0.14592890                1.11835050                0.14830142                0.24182200
               7.98289273                4.94679456               53.09047356                0.01000000               -0.58513967                1.20833361                0.15037470                1.11525985                0.15591289                0.38953889
               8.97578655                4.94853679               53.09341393                0.01000000               -0.76383076                1.68150627                0.15544239                0.83010562                0.11266679                0.47128268
               9.96761612                4.94542951               53.09533937                0.30089510               -0.81704336                1.53348063                0.16128489                0.53190775                0.05544016                0.43812514
              -0.01094306                5.94580688               53.07094969                0.76365090               -0.04023076               -0.03081674                0.13257905               -0.00312991               -0.00370098                0.02498268
               0.98865464                5.93831157               53.07185641                0.01000001                0.06667798               -0.04952225                0.13561502                0.11435437                0.03826581               -0.02319345
               1.99039050                5.93319493               53.07360193                0.01142981                0.21463288               -0.26955282                0.13545465                0.31061473                0.11859022               -0.14259861
               2.99294729                5.93194006               53.07606393                0.01000001                0.27139524               -0.37463766                0.13711760                0.69236914                0.23956644               -0.16458024
               3.99581841                5.93476593               53.08010348                0.01000001                0.27026643               -0.16951513                0.13961917                1.15784505                0.35894638               -0.00450130
               4.99835262                5.94071393               53.08484922                0.01185687                0.12979964                0.00075065                0.14408343                1.33805110                0.34790551                0.06039860
               5.99841440                5.94702279               53.08857930                0.01004127               -0.08533143                0.21469390                0.14946351                1.36217471                0.31404605                0.15112419
               6.99664599                5.95330155               53.09266294                0.01000000               -0.31739195                0.77579273                0.15524185                1.53715095                0.35552405                0.35224027
               7.99206656                5.96166230               53.09727716                0.01000000               -0.62365195                1.51809785                0.16180452                1.53372727                0.32689973                0.54724311
               8.98417295                5.96640587               53.10089872                0.01161784               -0.75521984                1.73783508                0.17156245                0.95665074                0.17741070                0.53768850
               9.97696216                5.96293721               53.10266549                0.36732352               -0.72107899                1.54991023                0.17570928                0.46085486                0.08735704                0.46062501
              -0.00338649                6.94544925               53.07332680                0.99999999               -0.04171382               -0.03802371                0.13772924               -0.00053416               -0.00340983                0.02598460
               0.99619637                6.93785055               53.07399460                0.29710398               -0.04248409               -0.04527995                0.14029621               -0.00477486               -0.02658172               -0.02400055
               1.99576383                6.93019793               53.07419870                0.01618748                0.07969746               -0.17174512                0.14198875                0.15001204                0.06385096               -0.12653078
               2.99779032                6.92786802               53.07667458                0.01000001                0.30195669               -0.32804162                0.14367593                0.64109446                0.35014554               -0.12096595
               4.00180296                6.93250429               53.08248431                0.01191094                0.29695588               -0.30995729                0.14734191                1.07155375                0.46646793               -0.09422861
               5.00372944                6.93947705               53.08709102                0.01005659                0.12817407               -0.13684386                0.15264970                1.23340413                0.44918275               -0.00010989
               6.00436644                6.94917551               53.09246310                0.01000000               -0.00682915                0.23580803                0.16001955                1.61040101                0.54374642                0.22480344
               7.00359285                6.96244379               53.09893295                0.01000000               -0.19517401                0.93579213                0.16928871                1.97006760                0.59875209                0.47036725
               8.00046296                6.97715652               53.10538045                0.01168067               -0.49741002                1.28695517                0.18389734                1.59959709                0.41447721                0.52000356
               8.99364465                6.98329349               53.10807446                0.01000002               -0.83462166                1.80676120                0.18428203                0.64902869                0.14147206                0.70467527
               9.98377053                6.97642772               53.10908548                0.49011796               -0.98741251                1.80758052                0.18422900                0.32815954                0.05664287                0.56951093
               0.00424366                7.94504641               53.07572980                0.99111651               -0.04332006               -0.04153177                0.14292092                0.00063564               -0.00680196                0.03121307
               1.00381046                7.93740597               53.07612117                0.89602820               -0.04351927               -0.04460188                0.14497683               -0.00113263               -0.01738804               -0.01604584
               2.00337328                7.92976003               53.07630085                0.01000000               -0.01738189               -0.04428751                0.14665159                0.16094393                0.09744070               -0.04010837
               3.00346283                7.92537922               53.07898862                0.01349138                0.11335863               -0.30726046                0.15070117                0.57875685                0.30592431               -0.18158141
               4.00564045                7.92856678               53.08326708                0.01060245                0.14433273               -0.27561528                0.15341161                0.90977114                0.49381615               -0.12841653
               5.00634948                7.93797705               53.08953701                0.01000000                0.10076144               -0.10269253                0.16144373                1.21172486                0.67273526                0.05861140
               6.00765568                7.95173895               53.09736405                0.01000000                0.08584274                0.21214378                0.17419293                1.67907514                0.79574032                0.25815778
               7.00806634                7.97201739               53.10599216                0.01168531               -0.22234419                0.60142509                0.19415512                1.81467292                0.67167670                0.35384146
               8.00320880                7.98740140               53.11110841                0.01000002               -0.50920031                1.41392012                0.19695201                1.60577864                0.62893000                0.59807070
               8.99788233                8.00254109               53.11886132                0.43122084               -0.29759443                0.92974198                0.20610352                0.97104864                0.38321687                0.45045678
               9.99725691                7.99908882               53.11889685                0.95931080               -0.06254213                1.09946766                0.21177202                0.50050361               -0.00220913                0.38915201
               0.01190709                8.94461862               53.07821109                0.99990171               -0.04470004               -0.04389711                0.14821837                0.00089701               -0.00094507                0.02934692
               1.01146009                8.93695851               53.07841850                0.99999999               -0.04488205               -0.04528661                0.14995669                0.00008505               -0.00096366               -0.00372354
               2.01100945                8.92931218               53.07862587                0.10836744               -0.04506932               -0.04558677                0.15170073                0.00206907               -0.01624617               -0.02616879
               3.01055871                8.92172281               53.07852786                0.01000000               -0.18044490               -0.20617860                0.15312994                0.61839675                0.30753664               -0.16874969
               4.00740056                8.92699198               53.08521055                0.01000000               -0.28834714                0.02609401                0.16186351                0.74462394                0.69901599               -0.01913221
               5.00479176                8.93742320               53.09307432                0.01000000               -0.17464769                0.02953947                0.17368449                0.80551715                0.80939317                0.07918744
               6.00390760                8.95341838               53.10193513                0.01163907               -0.02839521                0.10641676                0.19528091                0.98845187                0.80603659                0.17377749
               7.00422386                8.97447229               53.10959552                0.01000002               -0.09263824                0.09853879                0.20500862                1.69647825                0.93636781                0.09678621
               8.00205484                9.00543492               53.12093857                0.43733384               -0.14228266                0.86643341                0.22367820                1.49278297                0.56416782                0.40306814
               9.00137821                9.00188833               53.12084494                0.98244672               -0.06848473               -0.06871729                0.22928495               -0.00017659               -0.00559704                0.00725359
              10.00068514                8.99841707               53.12078870                0.99531952               -0.06930652               -0.07058922                0.23488791               -0.00358981               -0.00356381               -0.00527768
               0.01958181                9.94416847               53.08057700                1.00000000               -0.04632084               -0.04501530                0.15330831                0.00064925                0.02402367                0.02354976
               1.01911861                9.93650024               53.08079167                0.99814293               -0.04657228               -0.04582756                0.15507666               -0.00015738                0.02401523                0.00004637
               2.01865037                9.92884830               53.08100683                0.71079605               -0.04838225               -0.04638831                0.15684875                0.00186204                0.02907891               -0.02338876
               3.01815096                9.92125565               53.08132335                0.22378003               -0.69089133               -0.04671570                0.15901750                0.77124347                0.36349288               -0.00599118
               4.00483254                9.92908866               53.08822889                0.25669867               -1.10587706                0.20966799                0.17069166                0.60880802                0.70775178                0.03846828
               4.99603342                9.93856784               53.09600742                0.29907467               -0.72284580                0.11446422                0.18682981                0.36309662                0.80436898                0.04960280
               5.99037563                9.95386728               53.10508053                0.36466244               -0.30270277                0.04488989                0.21046664                0.41781882                0.74905446                0.10104285
               6.98997936                9.97398817               53.11173551                0.48770074                0.76363932               -0.04841217                0.21423994                1.11868952                0.85930677                0.01190339
               8.00564841               10.00473007               53.12275912                0.96747696                0.74586422               -0.07048537                0.24665278                1.71828627                0.56146691                0.00265216
               9.00489665               10.00116674               53.12276156                0.99531848               -0.07603872               -0.07215907                0.25234722               -0.00080764                0.00740014                0.00393166
              10.00412764                9.99767703               53.12270607                0.99097248               -0.07690105               -0.07400376                0.25795055               -0.00472143                0.00435561               -0.00401151
              -0.04753374               -0.05581523               54.05784283                0.89687858               -0.02965811               -0.02964720                0.10233592                0.00192302               -0.00602987                0.00665243
               0.95216968               -0.06033869               54.05981812                0.61980615               -0.02517081               -0.03448964                0.10732274                0.00479849               -0.00605985               -0.00470369
               1.95196285               -0.06470693               54.06178934                0.39010540               -0.00350478               -0.03399285                0.11238423                0.01840499                0.00594026               -0.00223566
               2.95209958               -0.06844406               54.06398859                0.36197628                0.01921874               -0.03575228                0.11745365                0.00678828                0.02465575               -0.00178801
               3.95234722               -0.07107283               54.06628145                0.42999982                0.01180252               -0.03711337                0.12235850               -0.01180678                0.02662270               -0.00139493
               4.95233564               -0.07271196               54.06846372                0.55578644               -0.01171350               -0.03861553                0.12741141               -0.00918037                0.01810454               -0.00116309
               5.95211295               -0.07380847               54.07055511                0.76066923               -0.02823543               -0.04009198                0.13263356               -0.00444671                0.01169582               -0.00112189
               6.95177093               -0.07466578               54.07259598                1.00000000               -0.03695322               -0.04160891                0.13792349               -0.00107760                0.00881022               -0.00098196
               7.95137389               -0.07542805               54.07462562                0.99116578               -0.04113641               -0.04329951                0.14330712                0.00058046                0.00916103               -0.00165743
               8.95094820               -0.07614955               54.07667290                0.99948065               -0.04387317               -0.04466537                0.14888627                0.00094926                0.00825285               -0.00029013
               9.95049642               -0.07686141               54.07868524                1.00000000               -0.04517762               -0.04635197                0.15416487                0.00095683                0.00639696                0.00640083
              -0.04299105                0.94388830               54.06015824                0.62002390               -0.03454341               -0.02528175                0.10729406                0.00481543                0.00468992                0.00982039
               0.95666352                0.93931642               54.06213010                0.01000000               -0.04046855               -0.04016709                0.11226465                0.01303813                0.01087823               -0.00914941
               1.95619958                0.93495314               54.06422680                0.01000000               -0.06565507                0.03036615                0.11717752                0.11784578                0.02494089               -0.00212278
               2.95535041                0.93119842               54.06649488                0.01000001               -0.09182380                0.08108895                0.12179781                0.20926704                0.03263170               -0.00162139
               3.95436310                0.92855604               54.06880025                0.01000000               -0.08693817                0.11763445                0.12602931                0.26297004                0.02385771               -0.00168528
               4.95361165                0.92690189               54.07095036                0.01000000               -0.06588558                0.12124563                0.13035761                0.25482845                0.00889463                0.00355893
               5.95304539                0.92579061               54.07298670                0.01000001               -0.05208553                0.14825108                0.13484531                0.15455730               -0.00026117                0.00709321
               6.95256994                0.92491814               54.07496564                0.28781092               -0.04619064               -0.04239813                0.13944831               -0.00677376               -0.00439033               -0.00668285
               7.95212158                0.92413896               54.07692293                0.87528068               -0.04477828               -0.04328463                0.14405936               -0.00169975               -0.00364558               -0.00456066
               8.95167437                0.92340379               54.07891784                0.99999999               -0.04518630               -0.04458929                0.14913521                0.00008441               -0.00085721               -0.00040439
               9.95121785                0.92267507               54.08093155                0.99725738               -0.04565224               -0.04637780                0.15444592                0.00011859                0.00003564                0.00634012
              -0.03829366                1.94367914               54.06253344                0.39016079               -0.03407347               -0.00509725                0.11226629                0.01788889                0.00158651                0.01567003
               0.96136560                1.93885797               54.06435420                0.01000000                0.03657098               -0.06334710                0.11720408                0.11031890                0.02616444               -0.01350600
               1.96243776                1.93590039               54.06666519                0.01000001                0.06582120                0.04564316                0.11881595                0.33790506                0.05318338               -0.00454629
               2.96268202                1.93317772               54.06900337                0.01000000               -0.02673001                0.14286494                0.12129100                0.49299864                0.05204228                0.00015774
               3.96190315                1.93127986               54.07131221                0.01000000               -0.12421976                0.25953998                0.12440448                0.63610859                0.04263056                0.01231511
               4.96019763                1.92971295               54.07353075                0.01000001               -0.23576540                0.29705941                0.12815575                0.68434116                0.02454744                0.01829291
               5.95718785                1.92915656               54.07558226                0.01142846               -0.34552614                0.37504936                0.13263773                0.39061585               -0.01203332                0.03673925
               6.95328711                1.92448626               54.07722143                0.01618373               -0.21668075                0.18797311                0.13961893                0.16102999               -0.02891802                0.02982894
               7.95285423                1.92370626               54.07916294                0.01000000               -0.04366639                0.17470710                0.14419209                0.19043385               -0.01086888                0.04601788
               8.95241378                1.92295866               54.08116177                0.09390313               -0.04489908               -0.04173745                0.14937658                0.00363342               -0.00704562               -0.00531671
               9.95195625                1.92221103               54.08317857                0.69917497               -0.04575289               -0.04732315                0.15473126                0.00258566               -0.00611950                0.00645400
              -0.03299094                2.94378635               54.06495000                0.36159370               -0.03604207                0.01464650                0.11728325                0.00696862               -0.00075560                0.02170764
               0.96664864                2.93804947               54.06659293                0.01000001                0.08144345               -0.08603161                0.12189770                0.18298884                0.03845274               -0.01572056
               1.96863793                2.93586600               54.06901927                0.01000000                0.15911390               -0.05297061                0.12153876                0.44406856                0.08122889               -0.01311175
               2.96983092                2.93405572               54.07146799                0.01000000                0.09560577                0.05533644                0.12268502                0.64473108                0.08801767                0.00167691
               3.97055004                2.93374684               54.07402870                0.01197640               -0.02045672                0.13813417                0.12443456                0.75664921                0.07617813                0.01406080
               4.96942178                2.93284307               54.07626532                0.01000000               -0.22328210                0.26679979                0.12835417                0.87100923                0.05766994                0.04205323
               5.96608440                2.93329160               54.07854374                0.01000001               -0.40904733                0.43102741                0.13281418                0.80134353                0.02170093                0.09758556
               6.96124083                2.92867760               54.08032095                0.01000001               -0.43132726                0.71588573                0.13828947                0.78370416                0.00187335                0.16111406
               7.95745786                2.92763310               54.08247113                0.01355874               -0.39992798                0.58088530                0.14394058                0.53580171               -0.05269470                0.15095546
               8.95324228                2.92256905               54.08330818                0.01000000               -0.23465125                0.37544224                0.14876378                0.30840782               -0.06610538                0.14321295
               9.95276483                2.92172860               54.08542761                0.22286300               -0.04774446                0.38208107                0.15521647                0.23897223               -0.00195460                0.15706595
              -0.02668053                3.94397207               54.06739840                0.42989600               -0.03737401                0.00603822                0.12225160               -0.00965333               -0.00281744                0.02514810
               0.97294573                3.93713734               54.06881979                0.01000000                0.09967061               -0.08016823                0.12635723                0.21589628                0.04959000               -0.01961384
               1.97531288                3.93484098               54.07128852                0.01000000                0.23750410               -0.13761621                0.12517081                0.52498811                0.11506909               -0.03111607
               2.97769581                3.93428445               54.07397567                0.01197683                0.14679519               -0.05808674                0.12525886                0.68579273                0.11963051               -0.01139850
               3.97824878                3.93404255               54.07649525                0.01000000                0.01886214               -0.01496411                0.12793346                0.82486270                0.12122352                0.00329474
               4.97807305                3.93504895               54.07924953                0.01000001               -0.04342949                0.21420870                0.13140337                1.12068460                0.13966128                0.08010757
               5.97738019                3.93777710               54.08221370                0.01000001               -0.17266807                0.47044411                0.13446104                1.31213145                0.13924411                0.17390052
               6.97461969                3.93880398               54.08507254                0.01192241               -0.38506876                0.80702396                0.13849774                1.12970323                0.06229407                0.22754825
               7.96967882                3.93532397               54.08667842                0.01064939               -0.50666286                0.84997716                0.14347096                0.79139333               -0.00051903                0.25562044
               8.96448643                3.93046751               54.08851771                0.01000000               -0.56311198                1.18506075                0.14855160                0.78714842                0.02556870                0.34966014
               9.95841658                3.92985265               54.09068933                0.25714264               -0.60698543                1.06403870                0.15258594                0.61172602                0.04580875                0.33159918
              -0.01951455                4.94390712               54.06983844                0.55680665               -0.03877976               -0.01598909                0.12731100               -0.00718893               -0.00324370                0.02563021
               0.98009765                4.93644611               54.07102408                0.01000000                0.07525645               -0.06116925                0.13086318                0.19782556                0.05264938               -0.02249453
               1.98199058                4.93311368               54.07332681                0.01000001                0.21237768               -0.20922306                0.12974048                0.52939081                0.13608684               -0.06695883
               2.98434520                4.93289398               54.07617061                0.01000000                0.21461110               -0.24622239                0.13016161                0.73537550                0.16412287               -0.07678633
               3.98628280                4.93344756               54.07900251                0.01000001                0.18778565               -0.08814038                0.13297933                1.04863027                0.20763264                0.00215367
               4.98810092                4.93712725               54.08265896                0.01000001                0.11446029                0.16671531                0.13559791                1.43710149                0.26280528                0.11486344
               5.98857200                4.94270048               54.08657667                0.01186802               -0.09064399                0.35351379                0.13951913                1.39625804                0.21279025                0.17076263
               6.98628804                4.94481808               54.08926677                0.01007650               -0.34749058                0.62062864                0.14426271                1.15662092                0.14565327                0.24219495
               7.98162219                4.94463264               54.09196562                0.01000000               -0.59157380                1.21497838                0.14830564                1.14814828                0.15396643                0.39049655
               8.97445656                4.94627026               54.09495357                0.01000000               -0.76965647                1.69599758                0.15281804                0.85612867                0.11296683                0.47297376
               9.96622906                4.94300938               54.09693692                0.30110833               -0.82274976                1.53734920                0.15860295                0.55592606                0.05788928                0.43915450
              -0.01190229                5.94365228               54.07227501                0.76360675               -0.04020295               -0.03057022                0.13247741               -0.00318182               -0.00376614                0.02545475
               0.98769568                5.93591395               54.07321200                0.01000001                0.06775566               -0.04967800                0.13549556                0.11940281                0.03656083               -0.02370502
               1.98945282                5.93065652               54.07495492                0.01143044                0.21868816               -0.27791334                0.13514862                0.32523573                0.11534042               -0.14200165
               2.99206944                5.92936000               54.07743260                0.01000001                0.27676526               -0.38641875                0.13660855                0.72057907                0.23697011               -0.16417879
               3.99498813                5.93227974               54.08149563                0.01000001                0.27463576               -0.17509943                0.13879266                1.19884441                0.35678993               -0.00444238
               4.99756216                5.93838326               54.08628461                0.01186728                0.13132005               -0.00169553                0.14295571                1.38360432                0.34633273                0.06078275
               5.99761453                5.94484738               54.09006715                0.01006171               -0.08711035                0.21411925                0.14805538                1.40573880                0.31263878                0.15212665
               6.99581995                5.95121655               54.09420620                0.01000000               -0.32124626                0.78014739                0.15344193                1.57893105                0.35457045                0.35420874
               7.99118960                5.95962354               54.09888178                0.01000000               -0.62938373                1.53657861                0.15930400                1.57782663                0.32872047                0.55222432
               8.98323227                5.96438746               54.10259798                0.01171402               -0.75663672                1.74988153                0.16867298                0.98519294                0.17984424                0.53919873
               9.97605687                5.96059964               54.10440590                0.36741997               -0.71754073                1.54525329                0.17280568                0.47544779                0.08899045                0.45776968
              -0.00410153                6.94329571               54.07470390                0.99999999               -0.04170012               -0.03796139                0.13768709               -0.00053175               -0.00346940                0.02648897
               0.99548147                6.93545255               54.07539725                0.29701992               -0.04246164               -0.04529777                0.14023083               -0.00478999               -0.02707471               -0.02444555
               1.99504924                6.92755541               54.07561820                0.01618662                0.08260462               -0.17694449                0.14190339                0.15816546                0.06286061               -0.12643671
               2.99713356                6.92516561               54.07810954                0.01000001                0.30935969               -0.33764742                0.14333315                0.66737913                0.34950335               -0.12024557
               4.00123643                6.92994557               54.08395337                0.01192374                0.30358989               -0.31977057                0.14652498                1.11145667                0.46628310               -0.09427128
               5.00320536                6.93709334               54.08861232                0.01007919                0.13085268               -0.14256339                0.15158931                1.27414437                0.45004037                0.00063629
               6.00385349                6.94698287               54.09405683                0.01000000               -0.00574296                0.23419418                0.15868792                1.65350944                0.54569644                0.22743692
               7.00309050                6.96042102               54.10061601                0.01000000               -0.19228354                0.94679569                0.16739783                2.02207827                0.60399623                0.47756647
               8.00000782                6.97536422               54.10720870                0.01176893               -0.49530913                1.29435058                0.18195061                1.63458451                0.41577549                0.52265054
               8.99318432                6.98126789               54.10990308                0.01000002               -0.83470753                1.80789179                0.18174388                0.65548826                0.13674765                0.70408482
               9.98331367                6.97391444               54.11091085                0.49031765               -0.98706540                1.82068352                0.18128675                0.32035535                0.05397429                0.56914293
               0.00377340                7.94289306               54.07715911                0.99114986               -0.04332221               -0.04152892                0.14293870                0.00064933               -0.00692021                0.03178455
               1.00334018                7.93500800               54.07757092                0.89601713               -0.04351662               -0.04460421                0.14497344               -0.00112709               -0.01769774               -0.01633197
               2.00290307                7.92711763               54.07776723                0.01000000               -0.01566563               -0.04428325                0.14663016                0.16666924                0.09805840               -0.04080101
               3.00302687                7.92260706               54.08049404                0.01356233                0.11932311               -0.31638030                0.15042163                0.59830382                0.30673171               -0.18275585
               4.00528953                7.92588433               54.08479673                0.01065607                0.14904387               -0.28290440                0.15266665                0.93962775                0.49601392               -0.12808476
               5.00600774                7.93553199               54.09114610                0.01000000                0.10337490               -0.10767953                0.16041567                1.24741509                0.67883291                0.06100100
               6.00735703                7.94953126               54.09909875                0.01000000                0.09362118                0.21310794                0.17285117                1.72272449                0.80644034                0.26534823
               7.00788017                7.97015246               54.10792780                0.01177168               -0.21613013                0.60355327                0.19309032                1.84742061                0.67675959                0.35759399
               8.00303443                7.98551055               54.11306958                0.01000002               -0.50441769                1.40806429                0.19542198                1.62143276                0.62887000                0.59962501
               8.99779181                8.00054529               54.12091480                0.43092659               -0.29317777                0.93138846                0.20457550                0.98437307                0.38494418                0.45002570
               9.99717087                7.99701331               54.12100760                0.95912644               -0.06209430                1.12149234                0.21036139                0.51499871               -0.00222518                0.39165243
               0.01168158                8.94246513               54.07969357                0.99956811               -0.04472188               -0.04392178                0.14829885                0.00090883               -0.00093388                0.02986033
               1.01123436                8.93456046               54.07991829                0.99999999               -0.04490047               -0.04530431                0.15001758                0.00008636               -0.00095833               -0.00379162
               2.01078357                8.92666975               54.08014303                0.10838807               -0.04507083               -0.04559788                0.15173842                0.00215971               -0.01638344               -0.02662203
               3.01033294                8.91883800               54.08005962                0.01000000               -0.18397558               -0.21184064                0.15323218                0.63795788                0.31066679               -0.17049584
               4.00710405                8.92428748               54.08682524                0.01000000               -0.29131066                0.02690777                0.16119230                0.76869925                0.70647936               -0.01702254
               5.00450673                8.93493975               54.09480504                0.01000000               -0.17082763                0.02791638                0.17262144                0.82971422                0.82282618                0.08382952
               6.00368750                8.95124503               54.10388465                0.01173331               -0.02235479                0.10740929                0.19466153                1.00957146                0.81765542                0.18154906
               7.00405963                8.97249209               54.11164094                0.01000002               -0.08219309                0.08694192                0.20414614                1.70619841                0.94517034                0.09152241
               8.00204364                9.00352550               54.12317194                0.43675465               -0.13453043                0.86553664                0.22299453                1.50456978                0.57070877                0.40497440
               9.00136902                8.99989566               54.12313499                0.98278219               -0.06830115               -0.06854715                0.22871936               -0.00018425               -0.00562104                0.00735343
              10.00067762                8.99634429               54.12313535                0.99561147               -0.06914051               -0.07045770                0.23443761               -0.00373900               -0.00358761               -0.00527226
               0.01960092                9.94201462               54.08211059                1.00000000               -0.04636240               -0.04505148                0.15345582                0.00066332                0.02451161                0.02394828
               1.01913729                9.93410191               54.08234292                0.99786801               -0.04660971               -0.04585536                0.15520218               -0.00015378                0.02448874                0.00003957
               2.01866872                9.92620567               54.08257575                0.71056159               -0.04845021               -0.04640767                0.15694609                0.00193230                0.02975843               -0.02379888
               3.01816829                9.91837024               54.08291425                0.22423415               -0.70534759               -0.04677613                0.15918066                0.79437558                0.36887394               -0.00610870
               4.00456177                9.92642248               54.08993147                0.25713886               -1.12619041                0.21350019                0.17004229                0.63177541                0.72004713                0.04073986
               4.99564448                9.93609032               54.09787029                0.29928565               -0.72828284                0.11505688                0.18598724                0.37662376                0.82301574                0.05475641
               5.98999611                9.95167945               54.10718307                0.36474640               -0.29604101                0.04344215                0.21016770                0.42091056                0.76142730                0.10578510
               6.98972366                9.97189130               54.11387360                0.48782347                0.78630684               -0.06007886                0.21338204                1.12349451                0.87548967                0.00575718
               8.00572225               10.00282128               54.12522697                0.96702253                0.76228402               -0.07042227                0.24692389                1.73201362                0.57521415                0.00266970
               9.00496934                9.99917435               54.12528696                0.99561271               -0.07617099               -0.07213088                0.25273941               -0.00082450                0.00748488                0.00396980
              10.00419883                9.99560415               54.12528809                0.99105698               -0.07705096               -0.07401379                0.25845806               -0.00489852                0.00438948               -0.00403304
              -0.04959405               -0.05808908               55.05886493                0.89619905               -0.02947963               -0.02946338                0.10207928                0.00197414               -0.00598791                0.00661140
               0.95011115               -0.06272239               55.06089046                0.61889209               -0.02466634               -0.03454555                0.10714703                0.00510028               -0.00596905               -0.00469697
               1.94991262               -0.06719073               55.06291270                0.39004990               -0.00173769               -0.03392582                0.11229269                0.01946726                0.00612321               -0.00224030
               2.95007640               -0.07099026               55.06516282                0.36239731                0.02200001               -0.03569368                0.11738375                0.00705774                0.02488032               -0.00185470
               3.95035262               -0.07362442               55.06750463                0.43039238                0.01401529               -0.03705810                0.12227129               -0.01229207                0.02692014               -0.00149144
               4.95035670               -0.07522543               55.06973759                0.55603387               -0.01059960               -0.03857857                0.12735672               -0.00952753                0.01860186               -0.00125540
               5.95014063               -0.07626287               55.07188154                0.76101011               -0.02780503               -0.04007372                0.13265165               -0.00461139                0.01232353               -0.00122544
               6.94980060               -0.07705336               55.07397578                1.00000000               -0.03683980               -0.04161557                0.13803686               -0.00111539                0.00951866               -0.00107478
               7.94940383               -0.07774665               55.07605975                0.99124158               -0.04114684               -0.04333838                0.14352572                0.00059263                0.01001348               -0.00184598
               8.94897767               -0.07839879               55.07816343                0.99914371               -0.04395348               -0.04473093                0.14922443                0.00096972                0.00904812               -0.00031938
               9.94852476               -0.07904181               55.08022913                1.00000000               -0.04529024               -0.04645155                0.15461251                0.00101506                0.00703534                0.00706749
              -0.04494100                0.94161629               55.06123018                0.61907076               -0.03460152               -0.02477873                0.10709312                0.00512034                0.00465555                0.00979514
               0.95471298                0.93693216               55.06325212                0.01000000               -0.04088827               -0.04055832                0.11214264                0.01395589                0.01079998               -0.00915441
               1.95424123                0.93247001               55.06539822                0.01000000               -0.06745823                0.03117662                0.11711124                0.12129759                0.02459333               -0.00374326
               2.95336382                0.92865280               55.06771239                0.01000001               -0.09469732                0.08290259                0.12169723                0.21543357                0.03174021               -0.00415421
               3.95234728                0.92600500               55.07005971                0.01000000               -0.08915829                0.11949682                0.12585126                0.27095889                0.02272821               -0.00445576
               4.95158065                0.92438878               55.07225302                0.01000000               -0.06694038                0.12214692                0.13016368                0.26262674                0.00790754                0.00086831
               5.95100848                0.92333640               55.07433441                0.01000001               -0.05246561                0.14956443                0.13468808                0.15968595               -0.00107557                0.00475960
               6.95053134                0.92253049               55.07635972                0.28807672               -0.04630011               -0.04238941                0.13936127               -0.00696540               -0.00511639               -0.00746179
               7.95008248                0.92181997               55.07836351                0.87558462               -0.04481975               -0.04328613                0.14405638               -0.00174395               -0.00411937               -0.00506305
               8.94963494                0.92115390               55.08040968                0.99999999               -0.04522708               -0.04461567                0.14923473                0.00008583               -0.00097404               -0.00044114
               9.94917793                0.92049367               55.08247702                0.99695416               -0.04570104               -0.04644046                0.15465075                0.00015992                0.00003478                0.00700397
              -0.04012339                1.94141535               55.06365533                0.39001025               -0.03400649               -0.00346327                0.11211111                0.01891760                0.00155268                0.01572581
               0.95953655                1.93646645               55.06552586                0.01000000                0.03706583               -0.06492514                0.11713349                0.11398053                0.02441643               -0.01372115
               1.96061793                1.93343280               55.06785229                0.01000001                0.06567637                0.04630598                0.11860234                0.34730271                0.04970592               -0.00761945
               2.96085008                1.93066779               55.07021472                0.01000000               -0.02910565                0.14531326                0.12097521                0.50727531                0.04896660               -0.00448285
               3.96003582                1.92876552               55.07255433                0.01000000               -0.12861175                0.26318648                0.12400833                0.65416700                0.03998789                0.00677077
               4.95827784                1.92721751               55.07481014                0.01000001               -0.24215872                0.29944611                0.12771805                0.70450696                0.02255923                0.01305544
               5.95519264                1.92672842               55.07690657                0.01143316               -0.35500594                0.37965361                0.13217588                0.40555769               -0.01224167                0.03217259
               6.95117772                1.92209885               55.07861603                0.01618113               -0.22235514                0.19098828                0.13929227                0.16947623               -0.02912796                0.02757896
               7.95074554                1.92138763               55.08060369                0.01000000               -0.04360229                0.17776247                0.14395324                0.19660644               -0.01197386                0.04492870
               8.95030568                1.92070890               55.08265481                0.09352901               -0.04485629               -0.04160788                0.14923371                0.00383810               -0.00775689               -0.00577940
               9.94984841                1.92002938               55.08472563                0.69848964               -0.04572627               -0.04740142                0.15468940                0.00279558               -0.00674602                0.00723530
              -0.03466485                2.94154702               55.06612208                0.36187439               -0.03600076                0.01702062                0.11712642                0.00728503               -0.00082889                0.02188802
               0.96497514                2.93563365               55.06781143                0.01000001                0.08253978               -0.08835034                0.12180044                0.18941530                0.03583105               -0.01636234
               1.96698594                2.93339613               55.07023313                0.01000000                0.16007318               -0.05421462                0.12123185                0.45838837                0.07614533               -0.01541499
               2.96817660                2.93155906               55.07269254                0.01000000                0.09474822                0.05611458                0.12222177                0.66406696                0.08338886               -0.00186820
               3.96888091                2.93126873               55.07527006                0.01197874               -0.02343593                0.13967767                0.12380802                0.77870408                0.07242009                0.01026583
               4.96770789                2.93037770               55.07754560                0.01000000               -0.23213127                0.27028113                0.12769604                0.89790718                0.05510420                0.03829605
               5.96423828                2.93092947               55.07986828                0.01000001               -0.42231144                0.43712096                0.13206415                0.83021146                0.01952013                0.09390317
               6.95926166                2.92635025               55.08170019                0.01000001               -0.44168605                0.72404040                0.13758542                0.81205536                0.00040014                0.15773394
               7.95540456                2.92537522               55.08390654                0.01363107               -0.40958505                0.58629521                0.14328216                0.55703141               -0.05404555                0.14851190
               8.95106996                2.92032174               55.08479406                0.01000000               -0.24058422                0.37073299                0.14840837                0.32855046               -0.06699547                0.14231489
               9.95059288                2.91954565               55.08697870                0.22323994               -0.04770782                0.36804447                0.15499649                0.26408893               -0.00210190                0.15613888
              -0.02815095                3.94175576               55.06862006                0.43009156               -0.03732989                0.00772825                0.12207098               -0.00992205               -0.00288174                0.02542174
               0.97147575                3.93469944               55.07008263                0.01000000                0.10056194               -0.08173744                0.12620208                0.22397789                0.04682359               -0.02042414
               1.97386029                3.93234851               55.07253838                0.01000000                0.23915317               -0.14063591                0.12479885                0.54299569                0.10931635               -0.03257327
               2.97625881                3.93179008               55.07522539                0.01197785                0.14654865               -0.05954766                0.12468004                0.70773251                0.11492208               -0.01352512
               3.97679126                3.93155907               55.07777116                0.01000000                0.01582162               -0.01657234                0.12723049                0.85181871                0.11763621                0.00156307
               4.97657525                3.93262313               55.08055928                0.01000001               -0.04834684                0.21732566                0.13053833                1.15555565                0.13573342                0.07766004
               5.97582432                3.93547084               55.08355276                0.01000001               -0.18010825                0.47569852                0.13337271                1.35384079                0.13512597                0.17125999
               6.97297308                3.93657966               55.08645056                0.01193821               -0.39548231                0.81439617                0.13714510                1.16972430                0.05907540                0.22492333
               7.96791468                3.93311353               55.08810600                0.01070597               -0.51334112                0.85129546                0.14219906                0.82122972               -0.00300504                0.25369758
               8.96270626                3.92812356               55.08999624                0.01000000               -0.56161453                1.17971269                0.14736640                0.81406844                0.02391785                0.34754642
               9.95668239                3.92739027               55.09220821                0.25752186               -0.60238715                1.04751920                0.15127764                0.63738728                0.04565188                0.32805279
              -0.02075066                4.94170159               55.07111077                0.55681284               -0.03873934               -0.01526175                0.12714382               -0.00733839               -0.00329682                0.02602299
               0.97886195                4.93399891               55.07233191                0.01000000                0.07529364               -0.06175736                0.13069425                0.20560059                0.05020828               -0.02318989
               1.98075522                4.93058341               55.07462230                0.01000001                0.21293689               -0.21424977                0.12936015                0.54928113                0.13102416               -0.06747563
               2.98312069                4.93036811               55.07746923                0.01000000                0.21645085               -0.25362651                0.12956611                0.76205215                0.16001876               -0.07701368
               3.98508423                4.93093728               55.08032849                0.01000001                0.18932691               -0.09164273                0.13222303                1.08335201                0.20399086                0.00116200
               4.98690723                4.93472422               55.08400956                0.01000001                0.11371650                0.16765476                0.13452854                1.48193382                0.25886976                0.11367815
               5.98735856                4.94044344               55.08796445                0.01187757               -0.09468887                0.35571599                0.13812565                1.44176149                0.20939387                0.16996464
               6.98501345                4.94263818               55.09070130                0.01010337               -0.35366513                0.62284127                0.14268215                1.19536865                0.14230438                0.24227373
               7.98028526                4.94240113               55.09343967                0.01000000               -0.59694309                1.21750870                0.14651862                1.18061671                0.15105005                0.39094858
               8.97307459                4.94391600               55.09647029                0.01000000               -0.77390333                1.70583873                0.15075929                0.88171837                0.11254938                0.47383714
               9.96480719                4.94049603               55.09851143                0.30131031               -0.82673929                1.53642011                0.15655644                0.58019048                0.06015443                0.43946001
              -0.01289236                5.94145052               55.07359924                0.76355004               -0.04017033               -0.03033285                0.13235707               -0.00321989               -0.00382951                0.02592037
               0.98670594                5.93346429               55.07456632                0.01000001                0.06845306               -0.04980942                0.13535935                0.12458022                0.03478000               -0.02423894
               1.98847670                5.92806351               55.07630490                0.01143470                0.22200212               -0.28632613                0.13482573                0.34033952                0.11189675               -0.14130576
               2.99114598                5.92671755               55.07879610                0.01000001                0.28127457               -0.39832206                0.13609479                0.74936175                0.23404140               -0.16374001
               3.99410219                5.92972622               55.08287934                0.01000001                0.27808916               -0.18097593                0.13796808                1.24001410                0.35417185               -0.00445418
               4.99670776                5.93597622               55.08770834                0.01187931                0.13216995               -0.00479638                0.14177520                1.42892548                0.34420346                0.06096991
               5.99674559                5.94258516               55.09154041                0.01008208               -0.08924999                0.21246015                0.14670061                1.44891909                0.31064596                0.15308852
               6.99492276                5.94903649               55.09573178                0.01000000               -0.32482021                0.78176691                0.15178687                1.61930004                0.35280479                0.35601563
               7.99024919                5.95746371               55.10046324                0.01000000               -0.63385214                1.55103051                0.15707555                1.62049914                0.32972787                0.55708187
               8.98224572                5.96224033               55.10427218                0.01181664               -0.75615302                1.75711886                0.16637276                1.01289148                0.18187537                0.54024613
               9.97512613                5.95811867               55.10612161                0.36750168               -0.71195929                1.53564241                0.17049054                0.48919774                0.09045016                0.45414554
              -0.00484259                6.94109493               55.07608054                0.99999999               -0.04168399               -0.03790499                0.13763379               -0.00052125               -0.00352848                0.02699019
               0.99474057                6.93300272               55.07679921                0.29689676               -0.04243291               -0.04529991                0.14015750               -0.00477958               -0.02756727               -0.02489436
               1.99430875                6.92485689               55.07703677                0.01618741                0.08523246               -0.18221609                0.14181548                0.16667888                0.06176824               -0.12625611
               2.99644522                6.92240167               55.07954124                0.01000001                0.31585461               -0.34717591                0.14300396                0.69414279                0.34848691               -0.11943788
               4.00062584                6.92731776               55.08541481                0.01194151                0.30907866               -0.32965004                0.14576824                1.15165465                0.46570698               -0.09423058
               5.00262679                6.93462829               55.09012280                0.01010147                0.13254195               -0.14859349                0.15050122                1.31456156                0.45047447                0.00113433
               6.00327668                6.94469264               55.09563686                0.01000000               -0.00529436                0.23164656                0.15738580                1.69512084                0.54700666                0.23007622
               7.00252090                6.95827351               55.10228091                0.01000000               -0.18926405                0.95539266                0.16570651                2.07185164                0.60862176                0.48491653
               7.99949140                6.97342174               55.10901946                0.01186547               -0.49217254                1.29834744                0.18024367                1.66674363                0.41647461                0.52531580
               8.99267745                6.97905837               55.11170934                0.01000002               -0.83284671                1.80346824                0.17956126                0.65923042                0.13140145                0.70341019
               9.98283447                6.97120888               55.11271121                0.49050237               -0.98429865                1.82893470                0.17908001                0.31008378                0.05094440                0.56888087
               0.00328164                7.94069242               55.07858858                0.99118220               -0.04332511               -0.04152914                0.14295377                0.00066570               -0.00703329                0.03236036
               1.00284839                7.93255829               55.07902064                0.89597816               -0.04351570               -0.04460172                0.14497493               -0.00111653               -0.01799797               -0.01661170
               2.00241133                7.92441919               55.07923345                0.01000000               -0.01402159               -0.04428359                0.14662397                0.17237236                0.09858196               -0.04148488
               3.00256796                7.91977403               55.08199705                0.01363959                0.12486705               -0.32544970                0.15021599                0.61793188                0.30727808               -0.18377889
               4.00490867                7.92313321               55.08632041                0.01071019                0.15280792               -0.29004879                0.15211510                0.96946000                0.49780465               -0.12763917
               5.00562412                7.93300435               55.09274533                0.01000000                0.10470584               -0.11263465                0.15946272                1.28234853                0.68451094                0.06320510
               6.00700279                7.94721809               55.10082107                0.01000000                0.10032924                0.21362030                0.17168794                1.76440560                0.81705762                0.27279663
               7.00763070                7.96814434               55.10985397                0.01186482               -0.21017919                0.60417137                0.19217684                1.87658155                0.68143261                0.36149281
               8.00279920                7.98343066               55.11501685                0.01000002               -0.49937563                1.39776408                0.19397173                1.63244602                0.62815163                0.60103369
               8.99764319                7.99830970               55.12295283                0.43058689               -0.28862027                0.93024320                0.20302487                0.99458163                0.38653659                0.44946250
               9.99702680                7.99469737               55.12310408                0.95891464               -0.06163932                1.14111289                0.20892444                0.52767661               -0.00224332                0.39420524
               0.01143898                8.94026435               55.08117707                0.99922715               -0.04475080               -0.04395109                0.14839534                0.00092078               -0.00092725                0.03039220
               1.01099147                8.93211068               55.08141885                0.99999999               -0.04492605               -0.04532591                0.15009879                0.00008462               -0.00095476               -0.00384769
               2.01054046                8.92397121               55.08166064                0.10846800               -0.04508223               -0.04561602                0.15179875                0.00224339               -0.01647662               -0.02707761
               3.01008983                8.91589268               55.08159251                0.01000000               -0.18778698               -0.21749148                0.15336667                0.65751678                0.31351831               -0.17209627
               4.00678472                8.92151679               55.08843440                0.01000000               -0.29504722                0.02788921                0.16074806                0.79258479                0.71353500               -0.01488896
               5.00418888                8.93237560               55.09652675                0.01000000               -0.16799571                0.02640530                0.17182534                0.85331389                0.83629435                0.08853602
               6.00342481                8.94896505               55.10582836                0.01183041               -0.01744569                0.10840233                0.19419030                1.02897118                0.82915522                0.18962893
               7.00383997                8.97035694               55.11367845                0.01000002               -0.07249203                0.07468281                0.20340378                1.71132636                0.95368460                0.08591254
               8.00197497                9.00137702               55.12539846                0.43614332               -0.12687971                0.86213781                0.22230820                1.51232135                0.57724624                0.40675009
               9.00130238                8.99766324               55.12541933                0.98312362               -0.06811543               -0.06837520                0.22814798               -0.00019252               -0.00564406                0.00745629
              10.00061266                8.99403114               55.12547745                0.99591215               -0.06897190               -0.07032336                0.23397730               -0.00389161               -0.00361201               -0.00526507
               0.01960739                9.93981340               55.08364611                1.00000000               -0.04641696               -0.04509451                0.15363727                0.00067786                0.02497843                0.02437971
               1.01914322                9.93165178               55.08389571                0.99758553               -0.04665917               -0.04589068                0.15536000               -0.00015242                0.02494824                0.00004942
               2.01867420                9.92350687               55.08414575                0.71034762               -0.04852477               -0.04643461                0.15707364                0.00199549                0.03048099               -0.02421353
               3.01817272                9.91542420               55.08450696                0.22470481               -0.71983784               -0.04684745                0.15938145                0.81749578                0.37400711               -0.00622494
               4.00427745                9.92369100               55.09162974                0.25758690               -1.14652927                0.21742113                0.16972402                0.65468534                0.73195361                0.04310085
               4.99524214                9.93353246               55.09972717                0.29949818               -0.73382905                0.11568635                0.18557672                0.39008208                0.84186341                0.06016475
               5.98960086                9.94938614               55.10928389                0.36482861               -0.28984382                0.04210909                0.21014614                0.42288265                0.77371787                0.11074132
               6.98944526                9.96963800               55.11600316                0.48794045                0.80692339               -0.07189444                0.21273721                1.12489254                0.89196687               -0.00085178
               8.00573933               10.00067341               55.12769760                0.96655235                0.77699818               -0.07036059                0.24720944                1.74164636                0.58947657                0.00268774
               9.00498522                9.99694219               55.12781635                0.99591122               -0.07630819               -0.07210464                0.25314627               -0.00084108                0.00757327                0.00400892
              10.00421317                9.99329090               55.12787523                0.99115034               -0.07720542               -0.07402370                0.25897627               -0.00507814                0.00442359               -0.00405460
              -0.05170456               -0.06041351               56.05988442                0.89550594               -0.02929123               -0.02926856                0.10181962                0.00203011               -0.00593531                0.00656194
               0.94800253               -0.06515595               56.06196106                0.61801989               -0.02412447               -0.03461253                0.10697369                0.00543172               -0.00586595               -0.00468621
               1.94781295               -0.06972277               56.06403519                0.39003849                0.00013646               -0.03385372                0.11220595                0.02060440                0.00628756               -0.00224454
               2.94800526               -0.07358030               56.06633627                0.36289095                0.02489492               -0.03562698                0.11731217                0.00734471                0.02504364               -0.00192369
               3.94831085               -0.07621281               56.06872688                0.43081759                0.01627481               -0.03699643                0.12217655               -0.01276303                0.02715875               -0.00158974
               4.94833076               -0.07776794               56.07101085                0.55629966               -0.00948143               -0.03853656                0.12729115               -0.00986019                0.01907777               -0.00134814
               5.94812122               -0.07873871               56.07320814                0.76134452               -0.02738336               -0.04005169                0.13266238               -0.00476437                0.01295466               -0.00133042
               6.94778309               -0.07945514               56.07535672                0.99999999               -0.03673613               -0.04162071                0.13815011               -0.00114594                0.01024300               -0.00116853
               7.94738650               -0.08007247               56.07749613                0.99133834               -0.04116527               -0.04337611                0.14374900                0.00060751                0.01089042               -0.00203776
               8.94695978               -0.08064844               56.07965739                0.99879089               -0.04403811               -0.04479645                0.14956534                0.00099148                0.00986712               -0.00034925
               9.94650574               -0.08121584               56.08177749                1.00000000               -0.04540450               -0.04655179                0.15506392                0.00107336                0.00769411                0.00775039
              -0.04694181                0.93929381               56.06230010                0.61815011               -0.03467041               -0.02423661                0.10689127                0.00545549                0.00461396                0.00975704
               0.95271148                0.93449793               56.06437295                0.01000000               -0.04135055               -0.04099072                0.11202544                0.01496597                0.01070029               -0.00915806
               1.95223118                0.92993869               56.06656902                0.01000000               -0.06938773                0.03179326                0.11704981                0.12477791                0.02415109               -0.00545090
               2.95132373                0.92606343               56.06892882                0.01000001               -0.09770682                0.08441102                0.12158956                0.22162914                0.03066902               -0.00677894
               3.95027704                0.92341722               56.07131728                0.01000000               -0.09143134                0.12088710                0.12565536                0.27899584                0.02143275               -0.00729029
               4.94949510                0.92184670               56.07355363                0.01000000               -0.06799278                0.12247078                0.12994653                0.27046863                0.00681730               -0.00186821
               5.94891718                0.92086078               56.07568046                0.01000001               -0.05282932                0.15024213                0.13451190                0.16489259               -0.00194292                0.00234346
               6.94843851                0.92012865               56.07775287                0.28830516               -0.04639793               -0.04237474                0.13926464               -0.00713340               -0.00586866               -0.00825964
               7.94798922                0.91949377               56.07980406                0.87583733               -0.04485656               -0.04328626                0.14405316               -0.00177888               -0.00460274               -0.00557389
               8.94754138                0.91890360               56.08190254                0.99999999               -0.04526731               -0.04464330                0.14933779                0.00008915               -0.00109038               -0.00047763
               9.94708388                0.91831864               56.08402456                0.99664132               -0.04575050               -0.04650497                0.15486265                0.00020090                0.00003691                0.00768511
              -0.04200368                1.93910176               56.06477567                0.38990109               -0.03393461               -0.00172131                0.11195381                0.02002672                0.00151287                0.01574240
               0.95765697                1.93402424               56.06669687                0.01000000                0.03733477               -0.06662311                0.11706829                0.11770265                0.02254573               -0.01398805
               1.95874301                1.93091309               56.06903724                0.01000001                0.06511704                0.04664583                0.11839160                0.35661159                0.04600093               -0.01085211
               2.95895931                1.92810792               56.07142288                0.01000000               -0.03177564                0.14721332                0.12065808                0.52149363                0.04567864               -0.00930465
               3.95810750                1.92620493               56.07379237                0.01000000               -0.13313683                0.26590549                0.12360462                0.67209521                0.03716824                0.00102958
               4.95629657                1.92468148               56.07608511                0.01000001               -0.24851875                0.30065785                0.12726283                0.72458763                0.02041016                0.00769240
               5.95313712                1.92426614               56.07822578                0.01143289               -0.36445698                0.38313506                0.13171691                0.42094568               -0.01252410                0.02737202
               6.94900743                1.91969736               56.08000728                0.01618447               -0.22805731                0.19345491                0.13895289                0.17838627               -0.02932282                0.02524168
               7.94857598                1.91906180               56.08204200                0.01000000               -0.04353708                0.18036303                0.14371402                0.20275937               -0.01310239                0.04380599
               8.94813669                1.91845870               56.08414644                0.09316016               -0.04481510               -0.04148452                0.14909747                0.00405432               -0.00848563               -0.00623082
               9.94767968                1.91785406               56.08627236                0.69778282               -0.04570176               -0.04749151                0.15466012                0.00301833               -0.00738818                0.00806063
              -0.03638623                2.93925938               56.06729252                0.36219793               -0.03595629                0.01950232                0.11696663                0.00762749               -0.00090602                0.02200255
               0.96325420                2.93316546               56.06902893                0.01000001                0.08329791               -0.09079290                0.12170501                0.19595643                0.03306978               -0.01713144
               1.96527973                2.93087160               56.07144390                0.01000000                0.16037790               -0.05563734                0.12092455                0.47278325                0.07079584               -0.01785298
               2.96646176                2.92900769               56.07391242                0.01000000                0.09328273                0.05646682                0.12176270                0.68329472                0.07848100               -0.00556975
               3.96714538                2.92873533               56.07650486                0.01197812               -0.02680593                0.14052228                0.12319077                0.80061396                0.06838922                0.00624601
               4.96592564                2.92785986               56.07881924                0.01000000               -0.24125839                0.27283552                0.12704738                0.92488465                0.05227959                0.03436815
               5.96232021                2.92852348               56.08118502                0.01000001               -0.43575342                0.44199976                0.13135404                0.85961037                0.01716999                0.09002720
               6.95721058                2.92399775               56.08307266                0.01000001               -0.45185671                0.73019880                0.13691326                0.84090357               -0.00123929                0.15398309
               7.95328308                2.92310103               56.08533677                0.01371555               -0.41901818                0.59014950                0.14263240                0.57866071               -0.05541918                0.14566510
               8.94883021                2.91807391               56.08627635                0.01000000               -0.24647782                0.36417553                0.14806032                0.34968381               -0.06787395                0.14123741
               9.94835352                2.91736881               56.08852754                0.22363307               -0.04766901                0.35134581                0.15478427                0.29079091               -0.00225890                0.15487733
              -0.02966330                3.93949181               56.06983982                0.43030500               -0.03728257                0.00945100                0.12187854               -0.01016957               -0.00294478                0.02563481
               0.96996387                3.93220838               56.07134384                0.01000000                0.10098730               -0.08334226                0.12603860                0.23223085                0.04393911               -0.02135671
               1.97235645                3.92980034               56.07378450                0.01000000                0.23988021               -0.14369783                0.12442213                0.56114408                0.10328818               -0.03413289
               2.97476148                3.92923725               56.07646927                0.01197890                0.14555848               -0.06123472                0.12409099                0.72963250                0.10996009               -0.01577075
               3.97526762                3.92901537               56.07903986                0.01000000                0.01223206               -0.01863558                0.12653818                0.87889204                0.11382597               -0.00031233
               4.97500612                3.93013819               56.08186029                0.01000001               -0.05380895                0.21959485                0.12973449                1.19037337                0.13150985                0.07506272
               5.97419144                3.93310613               56.08488116                0.01000001               -0.18790803                0.47943244                0.13237904                1.39555426                0.13053612                0.16830243
               6.97124796                3.93430134               56.08781544                0.01195482               -0.40592018                0.81922875                0.13601064                1.21034944                0.05558396                0.22189526
               7.96607303                3.93086479               56.08952240                0.01076494               -0.51926869                0.84966771                0.14104789                0.85159961               -0.00567484                0.25102151
               8.96086258                3.92574221               56.09146503                0.01000000               -0.55836712                1.16985788                0.14628677                0.84108807                0.02192797                0.34455330
               9.95490569                3.92488097               56.09371488                0.25789411               -0.59568945                1.02581824                0.15026384                0.66369415                0.04507812                0.32379359
              -0.02202277                4.93944840               56.07238132                0.55680709               -0.03869477               -0.01454421                0.12695793               -0.00746562               -0.00334677                0.02638157
               0.97759028                4.93149862               56.07363796                0.01000000                0.07482499               -0.06232557                0.13051051                0.21354922                0.04767125               -0.02395649
               1.97947373                4.92799765               56.07591402                0.01000001                0.21245495               -0.21922043                0.12897825                0.56944550                0.12571949               -0.06803811
               2.98183938                4.92778300               56.07876193                0.01000000                0.21742765               -0.26120280                0.12897837                0.78896645                0.15562666               -0.07725834
               3.98382229                4.92836262               56.08164697                0.01000001                0.19014847               -0.09555166                0.13148618                1.11802304                0.19994898                0.00002412
               4.98564235                4.93225175               56.08534953                0.01000001                0.11229315                0.16756131                0.13353722                1.52642706                0.25445821                0.11224764
               5.98606815                4.93811213               56.08933918                0.01189060               -0.09917236                0.35653051                0.13683869                1.48715683                0.20543458                0.16894040
               6.98365891                4.94038232               56.09212041                0.01012241               -0.35969727                0.62279557                0.14128057                1.23437559                0.13823690                0.24190295
               7.97887420                4.94009438               56.09489600                0.01000000               -0.60115577                1.21602946                0.14503586                1.21297358                0.14761668                0.39070151
               8.97163579                4.94147107               56.09796876                0.01000000               -0.77621657                1.71055624                0.14911301                0.90698096                0.11183753                0.47414494
               9.96334987                4.93788517               56.10006805                0.30150067               -0.82859188                1.53008933                0.15498430                0.60447698                0.06237781                0.43881756
              -0.01391305                5.93920092               56.07492215                0.76344792               -0.04013412               -0.03011117                0.13221879               -0.00323969               -0.00388981                0.02637263
               0.98568561                5.93096187               56.07591918                0.01000001                0.06870114               -0.04991393                0.13521089                0.12993123                0.03290936               -0.02479814
               1.98746097                5.92541594               56.07765143                0.01143541                0.22451124               -0.29479538                0.13450986                0.35600885                0.10819033               -0.14050606
               2.99017584                5.92401320               56.08015450                0.01000001                0.28491740               -0.41035515                0.13562375                0.77871404                0.23080264               -0.16317580
               3.99315932                5.92710434               56.08425500                0.01000001                0.28046585               -0.18713701                0.13718513                1.28114715                0.35108041               -0.00458939
               4.99578515                5.93348942               56.08912012                0.01188849                0.13223391               -0.00863585                0.14069093                1.47414243                0.34159303                0.06090961
               5.99580400                5.94023674               56.09300116                0.01010465               -0.09159673                0.20958023                0.14544123                1.49176006                0.30824968                0.15393816
               6.99395322                5.94675725               56.09724193                0.01000000               -0.32801187                0.78074241                0.15037697                1.65850335                0.35043828                0.35754427
               7.98924376                5.95518538               56.10202329                0.01000000               -0.63709043                1.56112681                0.15540560                1.66153796                0.33032498                0.56192167
               8.98121141                5.95995333               56.10592543                0.01191954               -0.75383753                1.75921875                0.16463436                1.03910949                0.18382718                0.54034289
               9.97416701                5.95548276               56.10781571                0.36757061               -0.70443967                1.52122083                0.16873618                0.50188936                0.09175023                0.44966557
              -0.00560945                6.93884618               56.07745657                0.99999999               -0.04166523               -0.03785943                0.13756724               -0.00050108               -0.00358572                0.02748758
               0.99397390                6.93050034               56.07820040                0.29672307               -0.04239851               -0.04528703                0.14008005               -0.00473522               -0.02805143               -0.02534145
               1.99354258                6.92210174               56.07845451                0.01618771                0.08756815               -0.18759383                0.14174890                0.17564375                0.06056579               -0.12596484
               2.99572526                6.91957590               56.08096962                0.01000001                0.32132157               -0.35664938                0.14271191                0.72138844                0.34715563               -0.11853117
               3.99996901                6.92461988               56.08686874                0.01195830                0.31337700               -0.33961934                0.14504527                1.19205839                0.46461485               -0.09417389
               5.00199280                6.93207904               56.09162234                0.01012597                0.13332524               -0.15486355                0.14949014                1.35480034                0.45048510                0.00148388
               6.00263551                6.94230373               56.09720454                0.01000000               -0.00562323                0.22794792                0.15625841                1.73518396                0.54784018                0.23260441
               7.00188033                6.95599717               56.10393014                0.01000000               -0.18633170                0.96137650                0.16425925                2.11865017                0.61270279                0.49209471
               7.99890888                6.97131692               56.11081357                0.01196302               -0.48798679                1.29834208                0.17874485                1.69565478                0.41650255                0.52710913
               8.99212060                6.97665544               56.11349430                0.01000002               -0.82900396                1.79356078                0.17783839                0.66082930                0.12560155                0.70205826
               9.98232880                6.96830959               56.11449245                0.49067270               -0.97917976                1.83242064                0.17746756                0.29824022                0.04786131                0.56869220
               0.00276861                7.93844373               56.08001819                0.99121931               -0.04332625               -0.04153683                0.14296176                0.00068495               -0.00714086                0.03293292
               1.00233534                7.93005613               56.08047042                0.89590336               -0.04351562               -0.04459517                0.14498423               -0.00109410               -0.01828730               -0.01688349
               2.00189829                7.92166406               56.08069971                0.01000000               -0.01249387               -0.04429219                0.14664516                0.17809412                0.09903268               -0.04215463
               3.00208547                7.91688021               56.08349836                0.01371869                0.12995289               -0.33448638                0.15007462                0.63760902                0.30753897               -0.18461019
               4.00449735                7.92031195               56.08783903                0.01076962                0.15559206               -0.29697513                0.15165664                0.99917195                0.49923197               -0.12709691
               5.00519731                7.93039215               56.09433535                0.01000000                0.10460959               -0.11752049                0.15855438                1.31648031                0.68987203                0.06530492
               6.00658954                7.94479570               56.10253251                0.01000000                0.10578654                0.21355295                0.17068994                1.80380147                0.82750666                0.28041827
               7.00731304                7.96598478               56.11177134                0.01195914               -0.20454756                0.60319891                0.19137065                1.90197018                0.68554949                0.36488434
               8.00249859                7.98115222               56.11694901                0.01000002               -0.49388586                1.38314207                0.19272368                1.63892831                0.62690131                0.60209288
               8.99743532                7.99582455               56.12497529                0.43020617               -0.28375375                0.92629155                0.20146423                1.00177539                0.38804950                0.44868762
               9.99682352                7.99213117               56.12518609                0.95867606               -0.06118040                1.15791216                0.20746754                0.53867975               -0.00226958                0.39648903
               0.01117946                8.93801544               56.08266148                0.99888018               -0.04477725               -0.04398065                0.14847802                0.00093349               -0.00091989                0.03092204
               1.01073169                8.92960844               56.08292027                0.99999999               -0.04495423               -0.04534771                0.15018825                0.00008677               -0.00094806               -0.00389839
               2.01028038                8.92121590               56.08317900                0.10861981               -0.04510722               -0.04564405                0.15189258                0.00232665               -0.01652406               -0.02752738
               3.00982954                8.91288617               56.08312695                0.01000000               -0.19199318               -0.22316900                0.15355426                0.67717286                0.31617197               -0.17356185
               4.00644051                8.91868038               56.09004020                0.01000000               -0.29954434                0.02909343                0.16049005                0.81628729                0.72004216               -0.01261501
               5.00383866                8.92972863               56.09824154                0.01000000               -0.16608026                0.02503123                0.17117226                0.87623555                0.84968908                0.09333837
               6.00311891                8.94657479               56.10776845                0.01193019               -0.01377205                0.10937579                0.19391640                1.04687345                0.84063803                0.19790230
               7.00356322                8.96806115               56.11570902                0.01000002               -0.06356142                0.06200338                0.20283029                1.71206072                0.96206961                0.07987662
               8.00184768                8.99897976               56.12761811                0.43549874               -0.11930314                0.85622695                0.22160932                1.51600603                0.58373166                0.40844942
               9.00117715                8.99518127               56.12769795                0.98348061               -0.06792675               -0.06820243                0.22757222               -0.00020341               -0.00566242                0.00755847
              10.00048914                8.99146783               56.12781490                0.99622535               -0.06880098               -0.07018396                0.23350287               -0.00404270               -0.00363208               -0.00526212
               0.01960128                9.93756412               56.08518333                1.00000000               -0.04646619               -0.04513199                0.15379597                0.00068739                0.02543625                0.02481412
               1.01913662                9.92914917               56.08545012                0.99729127               -0.04670952               -0.04592637                0.15552372               -0.00015389                0.02540369                0.00006497
               2.01866709                9.92075118               56.08571723                0.71018242               -0.04860898               -0.04647191                0.15724022                0.00205453                0.03124247               -0.02462345
               3.01816444                9.91241683               56.08610188                0.22519543               -0.73432273               -0.04693383                0.15963188                0.84062196                0.37896953               -0.00634358
               4.00398064                9.92089382               56.09332595                0.25804431               -1.16684195                0.22134450                0.16962477                0.67780954                0.74371471                0.04554326
               4.99482760                9.93089277               56.10158183                0.29971067               -0.73930764                0.11641440                0.18545822                0.40336425                0.86103069                0.06583979
               5.98919449                9.94698322               56.11138599                0.36491487               -0.28391590                0.04084254                0.21038548                0.42416172                0.78622097                0.11573847
               6.98914929                9.96722485               56.11812834                0.48805501                0.82520527               -0.08363027                0.21241221                1.12328402                0.90883486               -0.00769567
               8.00569859                9.99827676               56.13017116                0.96606993                0.78969448               -0.07029968                0.24751055                1.74687372                0.60406471                0.00271298
               9.00494317                9.99446050               56.13034989                0.99622383               -0.07645274               -0.07207722                0.25357099               -0.00086125                0.00766973                0.00404181
              10.00416954                9.99072750               56.13046762                0.99125363               -0.07736380               -0.07403395                0.25950440               -0.00526126                0.00445564               -0.00407217
              -0.05386603               -0.06278921               57.06090132                0.89483367               -0.02909067               -0.02906112                0.10155623                0.00209176               -0.00587610                0.00649793
               0.94584306               -0.06763990               57.06302993                0.61716777               -0.02354045               -0.03469124                0.10680200                0.00579649               -0.00575528               -0.00467234
               1.94566316               -0.07230329               57.06515682                0.39009765                0.00212604               -0.03377668                0.11212670                0.02182552                0.00643350               -0.00224636
               2.94588558               -0.07621384               57.06750906                0.36345351                0.02790275               -0.03555475                0.11724816                0.00764984                0.02513700               -0.00199701
               3.94622121               -0.07883701               57.06994816                0.43128732                0.01857073               -0.03692878                0.12207843               -0.01321354                0.02732330               -0.00168974
               4.94625700               -0.08033795               57.07228341                0.55656833               -0.00836790               -0.03848893                0.12721471               -0.01017333                0.01952068               -0.00144067
               5.94605386               -0.08123412               57.07453479                0.76165565               -0.02697610               -0.04002559                0.13266444               -0.00490162                0.01358592               -0.00143570
               6.94571747               -0.08186903               57.07673878                0.99999999               -0.03664406               -0.04162391                0.13826010               -0.00116758                0.01098102               -0.00126360
               7.94532097               -0.08240326               57.07893473                0.99142809               -0.04119147               -0.04341229                0.14397224                0.00062535                0.01178537               -0.00222852
               8.94489364               -0.08289608               57.08115474                0.99843230               -0.04412711               -0.04486280                0.14990678                0.00101408                0.01070628               -0.00037512
               9.94443843               -0.08338095               57.08333041                1.00000000               -0.04552128               -0.04665410                0.15551891                0.00113151                0.00837215                0.00844584
              -0.04899442                0.93692018               57.06336801                0.61724174               -0.03475120               -0.02365100                0.10668895                0.00582561                0.00456125                0.00969775
               0.95065807                0.93201319               57.06549263                0.01000000               -0.04185980               -0.04146988                0.11191330                0.01607966                0.01057160               -0.00916316
               1.95016838                0.92735894               57.06773921                0.01000000               -0.07145627                0.03220817                0.11699478                0.12831019                0.02360399               -0.00724237
               2.94922894                0.92343061               57.07014418                0.01000001               -0.10086254                0.08559665                0.12148164                0.22788428                0.02940208               -0.00949145
               3.94815113                0.92079370               57.07257282                0.01000000               -0.09375637                0.12177675                0.12544528                0.28711443                0.01994909               -0.01016996
               4.94735381                0.91927716               57.07485195                0.01000000               -0.06903767                0.12218442                0.12970753                0.27837865                0.00561477               -0.00464479
               5.94677038                0.91836563               57.07702465                0.01000001               -0.05317220                0.15027075                0.13431789                0.17018517               -0.00286213               -0.00008705
               6.94629037                0.91771473               57.07914501                0.28849097               -0.04648133               -0.04235357                0.13915892               -0.00727212               -0.00664082               -0.00907266
               7.94584075                0.91716262               57.08124457                0.87606245               -0.04488703               -0.04328512                0.14404933               -0.00180400               -0.00509219               -0.00608598
               8.94539263                0.91665529               57.08339644                0.99999999               -0.04530680               -0.04467280                0.14944488                0.00009293               -0.00120537               -0.00051055
               9.94493462                0.91615251               57.08557427                0.99631973               -0.04580131               -0.04657195                0.15508194                0.00024096                0.00004173                0.00837870
              -0.04393553                1.93673777               57.06589440                0.38985886               -0.03385778                0.00013686                0.11179715                0.02122412                0.00146850                0.01571896
               0.95572589                1.93153070               57.06786723                0.01000000                0.03737332               -0.06845655                0.11701160                0.12150943                0.02055046               -0.01430964
               1.95681194                1.92834087               57.07022012                0.01000001                0.06413097                0.04664319                0.11819243                0.36586903                0.04206093               -0.01424797
               2.95700851                1.92549809               57.07262789                0.01000000               -0.03474920                0.14853315                0.12035558                0.53569853                0.04217319               -0.01429264
               3.95611695                1.92359852               57.07502642                0.01000000               -0.13779359                0.26762297                0.12321656                0.68991942                0.03413897               -0.00484517
               4.95425264                1.92210574               57.07735540                0.01000001               -0.25484822                0.30063586                0.12681123                0.74461403                0.01812956                0.00220116
               5.95101999                1.92177130               57.07954091                0.01143639               -0.37387988                0.38545036                0.13128498                0.43680252               -0.01283704                0.02253231
               6.94677504                1.91728390               57.08139509                0.01618820               -0.23378278                0.19535093                0.13860647                0.18772480               -0.02955139                0.02283650
               7.94634433                1.91673104               57.08347797                0.01000000               -0.04347164                0.18227527                0.14347796                0.20891486               -0.01424429                0.04252220
               8.94590561                1.91621047               57.08563676                0.09280256               -0.04477585               -0.04136996                0.14896961                0.00428237               -0.00922961               -0.00666446
               9.94544882                1.91568761               57.08781884                0.69707500               -0.04567938               -0.04759214                0.15464300                0.00324958               -0.00804436                0.00892915
              -0.03815580                2.93692292               57.06846141                0.36260153               -0.03590499                0.02209422                0.11680172                0.00799612               -0.00099217                0.02204503
               0.96148515                2.93064406               57.07024553                0.01000001                0.08370836               -0.09337112                0.12161147                0.20264253                0.03016263               -0.01803581
               1.96351837                2.92829181               57.07265162                0.01000000                0.16000544               -0.05725694                0.12063164                0.48729488                0.06516814               -0.02044545
               2.96468526                2.92640128               57.07512779                0.01000000                0.09117509                0.05635306                0.12133661                0.70242429                0.07332524               -0.00945339
               3.96534187                2.92614616               57.07773387                0.01197696               -0.03059732                0.14060976                0.12264758                0.82242043                0.06416222                0.00211508
               4.96407332                2.92528988               57.08008655                0.01000000               -0.25068025                0.27441762                0.12644358                0.95199946                0.04930853                0.03029684
               5.96032827                2.92607464               57.08249536                0.01000001               -0.44940951                0.44557181                0.13072921                0.88958909                0.01467382                0.08595078
               6.95508513                2.92162175               57.08443846                0.01000001               -0.46178927                0.73429540                0.13623255                0.87009811               -0.00291860                0.15019237
               7.95109248                2.92080812               57.08675919                0.01379601               -0.42817130                0.59218484                0.14200386                0.60066997               -0.05672092                0.14257678
               8.94652170                2.91582790               57.08775527                0.01000000               -0.25235854                0.35558752                0.14774649                0.37196363               -0.06859728                0.13986685
               9.94604531                2.91520067               57.09007438                0.22403855               -0.04763886                0.33190096                0.15460203                0.31904959               -0.00242005                0.15347659
              -0.03121788                3.93717966               57.07105763                0.43056353               -0.03722648                0.01119849                0.12166776               -0.01039165               -0.00300937                0.02576897
               0.96840985                3.92966328               57.07260340                0.01000000                0.10092476               -0.08498134                0.12586365                0.24068011                0.04093410               -0.02242799
               1.97080061                3.92719573               57.07502683                0.01000000                0.23963959               -0.14680497                0.12406088                0.57945688                0.09696469               -0.03581537
               2.97320265                3.92662515               57.07770721                0.01197953                0.14380716               -0.06317790                0.12352478                0.75149937                0.10468798               -0.01818681
               3.97367676                3.92641072               57.08030192                0.01000000                0.00807529               -0.02117625                0.12590596                0.90613402                0.10974326               -0.00228224
               4.97336415                3.92759409               57.08315397                0.01000001               -0.05984298                0.22097327                0.12905708                1.22514427                0.12695839                0.07221260
               5.97247990                3.93068274               57.08620034                0.01000001               -0.19603176                0.48138041                0.13151725                1.43719107                0.12565399                0.16501529
               6.96944352                3.93196981               57.08917077                0.01197275               -0.41641550                0.82139952                0.13512992                1.25141212                0.05182438                0.21867724
               7.96415159                3.92857474               57.09092696                0.01082050               -0.52455902                0.84530685                0.14024290                0.88245897               -0.00841048                0.24844488
               8.95895234                3.92332222               57.09292198                0.01000000               -0.55336642                1.15553004                0.14554610                0.86842405                0.02006829                0.34139193
               9.95308426                3.92232563               57.09521348                0.25827079               -0.58680767                0.99854397                0.14951549                0.69088397                0.04483219                0.31884619
              -0.02333087                4.93714689               57.07364993                0.55679011               -0.03864488               -0.01384674                0.12675232               -0.00756311               -0.00339329                0.02669411
               0.97628268                4.92894443               57.07494212                0.01000000                0.07382531               -0.06286962                0.13031436                0.22169023                0.04503793               -0.02480139
               1.97814563                4.92535571               57.07720186                0.01000001                0.21087945               -0.22414217                0.12860200                0.58989339                0.12015982               -0.06864000
               2.98050027                4.92513772               57.08004880                0.01000000                0.21749907               -0.26894038                0.12840717                0.81613766                0.15096198               -0.07756337
               3.98249562                4.92572263               57.08295822                0.01000001                0.19019578               -0.09990278                0.13081144                1.15265267                0.19563297               -0.00123590
               4.98430418                4.92970934               57.08668031                0.01000001                0.11003789                0.16637549                0.13265759                1.57044608                0.24956413                0.11054372
               5.98469637                4.93570224               57.09070123                0.01189818               -0.10414071                0.35579129                0.13581828                1.53246357                0.20113544                0.16763355
               6.98222137                4.93804974               57.09352691                0.01014692               -0.36535598                0.62039195                0.14022912                1.27389473                0.13407699                0.24134722
               7.97738925                4.93771426               57.09634039                0.01000000               -0.60410430                1.21049148                0.14393326                1.24546788                0.14391340                0.39039838
               8.97013928                4.93893850               57.09945255                0.01000000               -0.77665477                1.70997113                0.14808656                0.93174008                0.11104454                0.47418026
               9.96185616                4.93517155               57.10161111                0.30167541               -0.82831253                1.51809745                0.15391184                0.62812125                0.06483836                0.43756925
              -0.01496422                5.93690272               57.07624361                0.76331988               -0.04009370               -0.02991231                0.13206081               -0.00323824               -0.00394673                0.02680584
               0.98463484                5.92840589               57.07727054                0.01000001                0.06847083               -0.04998883                0.13505306                0.13545448                0.03097865               -0.02538114
               1.98640519                5.92271289               57.07899510                0.01143656                0.22618168               -0.30331965                0.13423372                0.37228375                0.10431612               -0.13962257
               2.98915847                5.92124635               57.08150857                0.01000001                0.28764951               -0.42252650                0.13518855                0.80868049                0.22724226               -0.16257732
               3.99215818                5.92441266               57.08562304                0.01000001                0.28174948               -0.19361922                0.13646405                1.32225277                0.34758843               -0.00486923
               4.99479346                5.93092160               57.09052216                0.01190027                0.13152942               -0.01333067                0.13974858                1.51912027                0.33862467                0.06079505
               5.99478877                5.93779856               57.09444923                0.01012797               -0.09420344                0.20555670                0.14432450                1.53426816                0.30538866                0.15451122
               6.99290939                5.94437765               57.09873932                0.01000000               -0.33082907                0.77681313                0.14923280                1.69652810                0.34769179                0.35865573
               7.98817219                5.95278457               57.10357135                0.01000000               -0.63897725                1.56619712                0.15425380                1.70060126                0.33066659                0.56608744
               8.98012985                5.95752164               57.10756487                0.01202921               -0.74958058                1.75555915                0.16356676                1.06371693                0.18572444                0.53990758
               9.97318058                5.95268758               57.10949633                0.36762745               -0.69492705                1.50203979                0.16756849                0.51355617                0.09315627                0.44456173
              -0.00640197                6.93654864               57.07883188                0.99999999               -0.04164350               -0.03782737                0.13748382               -0.00046985               -0.00364090                0.02797388
               0.99318160                6.92794465               57.07960082                0.29651104               -0.04235926               -0.04525630                0.14000046               -0.00465222               -0.02851721               -0.02578257
               1.99275085                6.91928931               57.07987175                0.01618843                0.08962540               -0.19306420                0.14169897                0.18506919                0.05928614               -0.12556848
               2.99497411                6.91668719               57.08239548                0.01000001                0.32572830               -0.36609238                0.14248757                0.74909381                0.34546207               -0.11752893
               3.99926542                6.92185025               57.08831571                0.01197766                0.31632907               -0.34964254                0.14434619                1.23268366                0.46304762               -0.09415504
               5.00130069                6.92944273               57.09311261                0.01014633                0.13301379               -0.16151750                0.14868580                1.39488729                0.45017735                0.00185452
               6.00192569                6.93981338               57.09876203                0.01000000               -0.00673805                0.22319928                0.15526404                1.77357184                0.54829851                0.23475532
               7.00116593                6.95358600               57.10556609                0.01000000               -0.18342021                0.96427510                0.16310357                2.16203113                0.61657908                0.49916112
               7.99825729                6.96903820               57.11259436                0.01206351               -0.48276617                1.29417076                0.17775321                1.72123788                0.41642485                0.52812013
               8.99151060                6.97404968               57.11526610                0.01000002               -0.82309454                1.77790828                0.17671702                0.66056974                0.11975438                0.69977599
               9.98179540                6.96521234               57.11626056                0.49082446               -0.97152088                1.83085588                0.17628506                0.28522834                0.04480387                0.56771178
               0.00223436                7.93614617               57.08144781                0.99126154               -0.04332377               -0.04155020                0.14295360                0.00070736               -0.00723982                0.03349406
               1.00180112                7.92750076               57.08192032                0.89581314               -0.04351595               -0.04458192                0.14499928               -0.00105884               -0.01855949               -0.01714327
               2.00136404                7.91885161               57.08216636                0.01000000               -0.01108539               -0.04430832                0.14670015                0.18380932                0.09941900               -0.04280192
               3.00157941                7.91392450               57.08499855                0.01380112                0.13461357               -0.34346361                0.14999369                0.65730817                0.30758872               -0.18529588
               4.00405631                7.91741981               57.08935355                0.01083180                0.15743325               -0.30363405                0.15121668                1.02861532                0.50023502               -0.12649901
               5.00472808                7.92769125               57.09591642                0.01000000                0.10303112               -0.12234200                0.15778372                1.34982323                0.69496686                0.06738922
               6.00611694                7.94226255               57.10423487                0.01000000                0.10985558                0.21281170                0.16991829                1.84081507                0.83797518                0.28802293
               7.00692519                7.96366315               57.11368138                0.01205677               -0.19918311                0.60057321                0.19075340                1.92356063                0.68947406                0.36786318
               8.00213327                7.97866798               57.11887133                0.01000002               -0.48790446                1.36428294                0.19182035                1.64100191                0.62522026                0.60259283
               8.99716710                7.99307981               57.12698212                0.42978548               -0.27867292                0.91950674                0.19995559                1.00592255                0.38922799                0.44727801
               9.99655981                7.98930470               57.12725343                0.95841380               -0.06072878                1.17160108                0.20596664                0.54802520               -0.00229824                0.39815939
               0.01090301                8.93571764               57.08414663                0.99851608               -0.04480200               -0.04400992                0.14854095                0.00094657               -0.00090682                0.03144229
               1.01045499                8.92705301               57.08442262                0.99999999               -0.04498565               -0.04536944                0.15028570                0.00008932               -0.00093632               -0.00394437
               2.01000330                8.91840315               57.08469849                0.10885408               -0.04514615               -0.04568274                0.15202387                0.00240744               -0.01652335               -0.02796518
               3.00955207                8.90981792               57.08466359                0.01000000               -0.19661644               -0.22885175                0.15382287                0.69691953                0.31866166               -0.17488137
               4.00607097                8.91577757               57.09164420                0.01000000               -0.30488251                0.03052788                0.16034268                0.83967295                0.72613545               -0.01028958
               5.00345442                8.92699589               57.09995019                0.01000000               -0.16504369                0.02387199                0.17061362                0.89833360                0.86304888                0.09833941
               6.00277010                8.94406961               57.10970668                0.01203306               -0.01113548                0.11016401                0.19379316                1.06317047                0.85217127                0.20632095
               7.00323171                8.96559747               57.11773505                0.01000002               -0.05547129                0.04911406                0.20241013                1.70829256                0.97021906                0.07334355
               8.00166067                8.99632386               57.12983065                0.43480451               -0.11196859                0.84767968                0.22084732                1.51540775                0.59005926                0.40978634
               9.00099234                8.99243981               57.12997078                0.98383590               -0.06772794               -0.06803290                0.22698458               -0.00022201               -0.00565154                0.00762182
              10.00030611                8.98864437               57.13014751                0.99655436               -0.06862255               -0.07003391                0.23301892               -0.00419436               -0.00365214               -0.00525869
               0.01958254                9.93526598               57.08672203                1.00000000               -0.04651427               -0.04516619                0.15393525                0.00069262                0.02588833                0.02524041
               1.01911740                9.92659337               57.08700619                0.99698675               -0.04676265               -0.04596418                0.15569618               -0.00016037                0.02585170                0.00008101
               2.01864729                9.91793795               57.08729055                0.71008928               -0.04870065               -0.04651960                0.15744565                0.00210370                0.03203380               -0.02502254
               3.01814339                9.90934746               57.08769960                0.22571178               -0.74877463               -0.04704514                0.15995569                0.86375262                0.38381831               -0.00646366
               4.00367180                9.91803037               57.09502223                0.25851318               -1.18703388                0.22528002                0.16971182                0.70114412                0.75535986                0.04804329
               4.99440271                9.92816869               57.10343633                0.29992573               -0.74465145                0.11728006                0.18550517                0.41660204                0.88052138                0.07186720
               5.98877877                9.94446583               57.11349159                0.36500337               -0.27829579                0.03962156                0.21081286                0.42470415                0.79881397                0.12076387
               6.98883679                9.96464543               57.12025140                0.48816575                0.84101577               -0.09520379                0.21226293                1.11829577                0.92585187               -0.01495227
               8.00559908                9.99562157               57.13264781                0.96556640                0.80026827               -0.07022882                0.24786792                1.74752717                0.61889784                0.00274241
               9.00484216                9.99171915               57.13288777                0.99655478               -0.07661299               -0.07206667                0.25402494               -0.00089540                0.00776510                0.00408284
              10.00406682                9.98790402               57.13306532                0.99136999               -0.07753352               -0.07403443                0.26003898               -0.00544132                0.00447860               -0.00408848
              -0.05607930               -0.06521692               58.06191554                0.89415720               -0.02887682               -0.02883952                0.10128873                0.00216037               -0.00580505                0.00642153
               0.94363193               -0.07017479               58.06409710                0.61635028               -0.02291001               -0.03478436                0.10663442                0.00619923               -0.00563075               -0.00465280
               1.94346250               -0.07493249               58.06627772                0.39023405                0.00423635               -0.03369657                0.11206102                0.02313507                0.00655835               -0.00224727
               2.94371666               -0.07889049               58.06868123                0.36410214                0.03102347               -0.03547382                0.11719081                0.00797945                0.02514814               -0.00207532
               3.94408297               -0.08149592               58.07116845                0.43181206                0.02089401               -0.03685218                0.12197378               -0.01363877                0.02739840               -0.00179226
               4.94413454               -0.08293383               58.07355515                0.55683620               -0.00727010               -0.03843510                0.12712727               -0.01045797                0.01992134               -0.00153227
               5.94393757               -0.08374713               58.07586143                0.76195344               -0.02658854               -0.03999514                0.13265588               -0.00502010                0.01421216               -0.00154088
               6.94360277               -0.08429286               58.07812192                0.99999999               -0.03656579               -0.04162406                0.13836230               -0.00117870                0.01172782               -0.00135851
               7.94320625               -0.08473672               58.08037557                0.99152549               -0.04122663               -0.04344689                0.14419317                0.00064650                0.01269341               -0.00241966
               8.94277824               -0.08513933               58.08265552                0.99808191               -0.04422005               -0.04492932                0.15024507                0.00103732                0.01155705               -0.00039966
               9.94232185               -0.08553465               58.08488787                1.00000000               -0.04563852               -0.04675634                0.15597002                0.00118805                0.00905969                0.00915139
              -0.05109983                0.93449468               58.06443388                0.61636388               -0.03484597               -0.02301690                0.10648763                0.00623515                0.00449780                0.00961981
               0.94855171                0.92947737               58.06661122                0.01000000               -0.04242339               -0.04200353                0.11180940                0.01730941                0.01041316               -0.00916614
               1.94805170                0.92473054               58.06890892                0.01000000               -0.07367716                0.03241089                0.11695145                0.13192365                0.02293843               -0.00911463
               2.94707817                0.92075477               58.07135845                0.01000001               -0.10417248                0.08644725                0.12137277                0.23424122                0.02791609               -0.01227296
               3.94596825                0.91813556               58.07382618                0.01000000               -0.09613012                0.12214431                0.12521881                0.29534216                0.01826259               -0.01307046
               4.94515556                0.91668182               58.07614778                0.01000000               -0.07006855                0.12123682                0.12944831                0.28637496                0.00429372               -0.00742884
               5.94456688                0.91585292               58.07836682                0.01000001               -0.05348949                0.14966005                0.13410633                0.17561015               -0.00383183               -0.00254434
               6.94408578                0.91529089               58.08053605                0.28863242               -0.04654653               -0.04232456                0.13904241               -0.00737612               -0.00742966               -0.00989522
               7.94363595                0.91482881               58.08268504                0.87624258               -0.04490997               -0.04328276                0.14404533               -0.00181756               -0.00558465               -0.00659987
               8.94318758                0.91441137               58.08489143                0.99999999               -0.04534510               -0.04470425                0.14955602                0.00009831               -0.00131861               -0.00054157
               9.94272905                0.91399778               58.08712620                0.99597224               -0.04585266               -0.04664079                0.15530721                0.00027999                0.00004840                0.00908231
              -0.04591997                1.93432274               58.06701161                0.38988745               -0.03377697                0.00211849                0.11164481                0.02251544                0.00141716                0.01564309
               0.95374226                1.92898514               58.06903710                0.01000000                0.03717693               -0.07043955                0.11696773                0.12542594                0.01842662               -0.01469473
               1.95482357                1.92571572               58.07140108                0.01000001                0.06271020                0.04627227                0.11801807                0.37512183                0.03787704               -0.01780391
               2.95499647                1.92283845               58.07382999                0.01000000               -0.03804016                0.14922676                0.12008980                0.54995437                0.03844656               -0.01941425
               3.95406277                1.92094697               58.07625670                0.01000000               -0.14258940                0.26832894                0.12286617                0.70770319                0.03088722               -0.01080226
               4.95214468                1.91949090               58.07862133                0.01000001               -0.26110385                0.29927020                0.12639509                0.76469340                0.01566454               -0.00338014
               5.94884069                1.91924607               58.08085148                0.01143751               -0.38326640                0.38650740                0.13088062                0.45323204               -0.01320803                0.01765638
               6.94447935                1.91486064               58.08277941                0.01618372               -0.23956343                0.19675103                0.13824575                0.19770783               -0.02978639                0.02035903
               7.94404942                1.91439763               58.08491156                0.01000000               -0.04340604                0.18373791                0.14324772                0.21509194               -0.01539173                0.04123041
               8.94361123                1.91396658               58.08712583                0.09246687               -0.04473976               -0.04126740                0.14885341                0.00452031               -0.00997867               -0.00706349
               9.94315463                1.91353253               58.08936522                0.69638259               -0.04566030               -0.04770439                0.15464205                0.00348730               -0.00870597                0.00984620
              -0.03997432                2.93453705               58.06962856                0.36306140               -0.03584310                0.02479627                0.11662907                0.00839963               -0.00108274                0.02199387
               0.95966725                2.92806858               58.07146116                0.01000001                0.08375753               -0.09609547                0.12151888                0.20950142                0.02712189               -0.01909708
               1.96170083                2.92565599               58.07385654                0.01000000                0.15893841               -0.05909661                0.12038111                0.50195436                0.05928236               -0.02318275
               2.96284601                2.92373931               58.07633916                0.01000000                0.08845203                0.05570277                0.12097484                0.72149131                0.06791928               -0.01351340
               3.96346987                2.92350214               58.07895782                0.01197812               -0.03478425                0.13992101                0.12217652                0.84404317                0.05975089               -0.00208730
               4.96215033                2.92266722               58.08134811                0.01000000               -0.26040433                0.27488908                0.12592119                0.97915591                0.04620388                0.02607041
               5.95826178                2.92358306               58.08379961                0.01000001               -0.46309768                0.44772518                0.13014726                0.92028606                0.01197472                0.08174909
               6.95288837                2.91922592               58.08579731                0.01000001               -0.47149639                0.73628955                0.13572248                0.89994920               -0.00453131                0.14638308
               7.94883185                2.91850357               58.08817685                0.01388364               -0.43726495                0.59274327                0.14164928                0.62321512               -0.05791849                0.13991256
               8.94414308                2.91358602               58.08923128                0.01000000               -0.25824802                0.34530921                0.14748256                0.39531609               -0.06929102                0.13863931
               9.94366689                2.91304370               58.09161958                0.22446349               -0.04761831                0.30943169                0.15446392                0.34900210               -0.00258686                0.15197683
              -0.03281502                3.93481867               58.07227317                0.43083680               -0.03716177                0.01296238                0.12144172               -0.01057790               -0.00306945                0.02581523
               0.96681336                3.92706323               58.07386111                0.01000000                0.10034771               -0.08665629                0.12568270                0.24934937                0.03783250               -0.02364578
               1.96919193                3.92453379               58.07626571                0.01000000                0.23833924               -0.14997055                0.12374492                0.59793471                0.09037861               -0.03764256
               2.97158014                3.92395251               58.07893977                0.01197806                0.14118938               -0.06544706                0.12305926                0.77339249                0.09916337               -0.02076249
               3.97201572                3.92374539               58.08155798                0.01000000                0.00333625               -0.02426759                0.12537845                0.93348726                0.10540149               -0.00438764
               4.97164687                3.92498868               58.08444144                0.01000001               -0.06640009                0.22136100                0.12847504                1.25977433                0.12204961                0.06902788
               5.97068772                3.92820057               58.08751150                0.01000001               -0.20445196                0.48164203                0.13082638                1.47901135                0.12052441                0.16162426
               6.96755783                3.92958644               58.09051804                0.01199361               -0.42670503                0.82074003                0.13440273                1.29324136                0.04802962                0.21532268
               7.96215362                3.92625249               58.09232726                0.01088755               -0.52902017                0.83771935                0.13974858                0.91406543               -0.01106698                0.24602324
               8.95697743                3.92087277               58.09437596                0.01000000               -0.54671453                1.13628790                0.14529494                0.89557766                0.01814976                0.33827258
               9.95121932                3.91972117               58.09670519                0.25864019               -0.57581009                0.96550068                0.14922207                0.71797082                0.04434194                0.31351275
              -0.02467501                4.93479630               58.07491637                0.55676664               -0.03858789               -0.01317909                0.12652381               -0.00762529               -0.00343477                0.02695699
               0.97493911                4.92633545               58.07624425                0.01000000                0.07226295               -0.06338427                0.13010608                0.23003056                0.04232204               -0.02572566
               1.97677024                4.92265658               58.07848606                0.01000001                0.20815817               -0.22900946                0.12825794                0.61061207                0.11433093               -0.06932331
               2.97910227                4.92243036               58.08133008                0.01000000                0.21665966               -0.27687670                0.12792997                0.84364039                0.14601025               -0.07792828
               3.98110344                4.92301678               58.08426320                0.01000001                0.18941787               -0.10479635                0.13025715                1.18729323                0.19098094               -0.00271528
               4.98289063                4.92709444               58.08800268                0.01000001                0.10704097                0.16421681                0.13190479                1.61418520                0.24440874                0.10848096
               5.98324426                4.93321591               58.09205554                0.01191609               -0.10946717                0.35327954                0.13499097                1.57765844                0.19668637                0.16607238
               6.98070128                4.93564072               58.09492500                0.01016885               -0.37087126                0.61523731                0.13952009                1.31345813                0.12984130                0.24089419
               7.97582683                4.93525796               58.09777466                0.01000000               -0.60576646                1.20003327                0.14331359                1.27745015                0.14030221                0.38982296
               8.96858595                4.93631178               58.10093049                0.01000000               -0.77486621                1.70325817                0.14758634                0.95596205                0.11038909                0.47324589
               9.96032951                4.93235371               58.10314629                0.30183996               -0.82564471                1.50016902                0.15359754                0.65158691                0.06722439                0.43604736
              -0.01604583                5.93455508               58.07756336                0.76313353               -0.04004728               -0.02974227                0.13187791               -0.00320976               -0.00399833                0.02721340
               0.98355370                5.92579555               58.07862024                0.01000001                0.06775456               -0.05002764                0.13488547                0.14115509                0.02899973               -0.02598496
               1.98530926                5.91995360               58.08033611                0.01143809                0.22695234               -0.31187299                0.13398516                0.38914108                0.10030475               -0.13868475
               2.98809274                5.91841497               58.08285827                0.01000001                0.28941244               -0.43475102                0.13475902                0.83920584                0.22336444               -0.16205123
               3.99109751                5.92164946               58.08698428                0.01000001                0.28193546               -0.20052571                0.13581191                1.36337211                0.34370775               -0.00538332
               4.99373145                5.92827302               58.09191509                0.01191493                0.12985501               -0.01862854                0.13887423                1.56380553                0.33527434                0.06048306
               5.99369461                5.93526616               58.09588765                0.01014791               -0.09732559                0.19986487                0.14346862                1.57609506                0.30216238                0.15478935
               6.99178494                5.94189118               58.10022659                0.01000000               -0.33315282                0.76988120                0.14841654                1.73326471                0.34448009                0.35934775
               7.98703155                5.95025316               58.10510837                0.01000000               -0.63920128                1.56606916                0.15352453                1.73786413                0.33097256                0.56943427
               8.97900091                5.95493793               58.10919677                0.01214131               -0.74321722                1.74609634                0.16326636                1.08674588                0.18778272                0.53883684
               9.97216721                5.94972455               58.11116708                0.36766885               -0.68337065                1.47765102                0.16719382                0.52398442                0.09447620                0.43871621
              -0.00722014                6.93420146               58.08020625                0.99999999               -0.04161748               -0.03781070                0.13737792               -0.00042499               -0.00369303                0.02844586
               0.99236369                6.92533490               58.08100041                0.29622843               -0.04231132               -0.04520433                0.13991888               -0.00452132               -0.02896909               -0.02620952
               1.99193364                6.91641912               58.08128849                0.01618524                0.09134208               -0.19861641                0.14167628                0.19498183                0.05794113               -0.12505416
               2.99419053                6.91373534               58.08381937                0.01000000                0.32895983               -0.37543984                0.14234214                0.77722304                0.34334145               -0.11646270
               3.99851283                6.91900627               58.08975566                0.01199583                0.31797507               -0.35979860                0.14369647                1.27365997                0.46101915               -0.09430022
               5.00055003                6.92672187               58.09459606                0.01017550                0.13175813               -0.16853392                0.14793643                1.43454017                0.44953128                0.00219267
               6.00114800                6.93721320               58.10030982                0.01000000               -0.00852236                0.21726700                0.15435153                1.81029729                0.54847384                0.23669661
               7.00037959                6.95103834               58.10719221                0.01000000               -0.18053150                0.96409523                0.16231096                2.20236302                0.62062115                0.50588379
               7.99753737                6.96657934               58.11436864                0.01216992               -0.47650512                1.28573165                0.17721228                1.74330378                0.41643932                0.52855261
               8.99084948                6.97123371               58.11702864                0.01000002               -0.81507036                1.75637538                0.17611991                0.65821269                0.11386807                0.69630876
               9.98123596                6.96190673               58.11801815                0.49095983               -0.96135226                1.82414366                0.17572295                0.27068833                0.04190964                0.56553139
               0.00167878                7.93379887               58.08287726                0.99130042               -0.04331720               -0.04156957                0.14292410                0.00073316               -0.00732935                0.03403669
               1.00124561                7.92489146               58.08337040                0.89570033               -0.04351650               -0.04456074                0.14502029               -0.00100927               -0.01881199               -0.01738588
               2.00080845                7.91598127               58.08363371                0.01000000               -0.00977802               -0.04433608                0.14679320                0.18950065                0.09974579               -0.04340302
               3.00105005                7.91090618               58.08649823                0.01388872                0.13878663               -0.35239291                0.14999191                0.67693740                0.30732546               -0.18579488
               4.00358418                7.91445349               58.09086337                0.01089636                0.15826369               -0.31001863                0.15075520                1.05799753                0.50074723               -0.12600162
               5.00421532                7.92490234               58.09749103                0.01000000                0.09999497               -0.12731865                0.15714740                1.38225690                0.69969299                0.06950958
               6.00558408                7.93961150               58.10593088                0.01000000                0.11253700                0.21156405                0.16911205                1.87501108                0.84830996                0.29545903
               7.00646606                7.96117309               58.11558641                0.01215809               -0.19409123                0.59598308                0.19039623                1.94101674                0.69335915                0.37049337
               8.00170226                7.97596779               58.12078542                0.01000002               -0.48141422                1.34098297                0.19116611                1.63840620                0.62320364                0.60200528
               8.99683778                7.99006544               58.12897441                0.42934297               -0.27336633                0.90971749                0.19859659                1.00687065                0.39015922                0.44486296
               9.99623493                7.98620742               58.12930542                0.95812289               -0.06028464                1.18220197                0.20446102                0.55553252               -0.00241570                0.39907735
               0.01060935                8.93337006               58.08563230                0.99815481               -0.04482475               -0.04403766                0.14857965                0.00095991               -0.00088902                0.03194536
               1.01016110                8.92444368               58.08592598                0.99999999               -0.04502070               -0.04539070                0.15039199                0.00009279               -0.00091939               -0.00398346
               2.00970893                8.91553239               58.08621948                0.10918389               -0.04520162               -0.04573381                0.15219737                0.00248540               -0.01646021               -0.02838106
               3.00925707                8.90668749               58.08620341                0.01000000               -0.20161558               -0.23453197                0.15420353                0.71662920                0.32096908               -0.17603217
               4.00567662                8.91280590               58.09324706                0.01000000               -0.31099572                0.03225670                0.16020849                0.86274653                0.73184964               -0.00797826
               5.00303715                8.92417550               58.10165382                0.01000000               -0.16495733                0.02277460                0.17016909                0.91959676                0.87649015                0.10354891
               6.00237747                8.94144448               58.11164432                0.01213796               -0.00967594                0.11085838                0.19379212                1.07770617                0.86385747                0.21482620
               7.00284363                8.96295800               58.11975722                0.01000002               -0.04821669                0.03600115                0.20211243                1.69992814                0.97803187                0.06613690
               8.00141314                8.99339900               58.13203505                0.43404473               -0.10481840                0.83647482                0.21985383                1.51039907                0.59626538                0.41048607
               9.00074727                8.98942806               58.13223764                0.98421304               -0.06752487               -0.06786303                0.22643697               -0.00025198               -0.00558253                0.00765493
              10.00006264                8.98555077               58.13247528                0.99689314               -0.06846226               -0.06986600                0.23243892               -0.00427518               -0.00361006               -0.00529500
               0.01955074                9.93291812               58.08826204                1.00000000               -0.04656035               -0.04519469                0.15404992                0.00069202                0.02632600                0.02565524
               1.01908513                9.92398365               58.08856404                0.99666844               -0.04681907               -0.04600378                0.15587852               -0.00017245                0.02628612                0.00010019
               2.01861436                9.91506660               58.08886614                0.71007676               -0.04880031               -0.04657952                0.15769552                0.00213695                0.03285730               -0.02540366
               3.01810913                9.90621554               58.08930100                0.22624503               -0.76316262               -0.04719472                0.16038259                0.88680718                0.38857634               -0.00658297
               4.00335110                9.91509862               58.09672019                0.25898839               -1.20702288                0.22927230                0.16991814                0.72456302                0.76688218                0.05058962
               4.99396867                9.92535783               58.10529193                0.30013423               -0.74977023                0.11823386                0.18559620                0.42965430                0.90028478                0.07823770
               5.98835570                9.94182867               58.11560225                0.36509559               -0.27292812                0.03841878                0.21145741                0.42458622                0.81156113                0.12592301
               6.98851011                9.96189311               58.12237360                0.48827088                0.85422408               -0.10648926                0.21211091                1.11007813                0.94307596               -0.02275222
               8.00544018                9.99269729               58.13512851                0.96504541                0.80854298               -0.07017141                0.24835450                1.74345735                0.63384754                0.00283592
               9.00468097                9.98870818               58.13543038                0.99689869               -0.07680879               -0.07198836                0.25451932               -0.00098916                0.00789921                0.00402085
              10.00390401                9.98481010               58.13566839                0.99149867               -0.07769624               -0.07406706                0.26061826               -0.00567142                0.00448986               -0.00406002
              -0.05834524               -0.06769745               59.06292710                0.89349463               -0.02864965               -0.02860348                0.10102238                0.00223558               -0.00572147                0.00633001
               0.94136826               -0.07276120               59.06516262                0.61559516               -0.02222862               -0.03489393                0.10647345                0.00664427               -0.00549192               -0.00462739
               1.94121019               -0.07761062               59.06739804                0.39046292                0.00647781               -0.03360866                0.11200522                0.02454306                0.00665805               -0.00224718
               2.94149782               -0.08160979               59.06985287                0.36486190                0.03425393               -0.03538150                0.11713856                0.00833225                0.02506147               -0.00215872
               3.94189527               -0.08418833               59.07238764                0.43238041                0.02323097               -0.03676363                0.12186025               -0.01402446                0.02736491               -0.00189464
               4.94196244               -0.08555386               59.07482595                0.55710591               -0.00619718               -0.03837404                0.12702736               -0.01070778                0.02027019               -0.00162188
               5.94177132               -0.08627571               59.07718791                0.76221082               -0.02622771               -0.03995944                0.13263329               -0.00511456                0.01482548               -0.00164468
               6.94143789               -0.08672445               59.07950603                0.99999999               -0.03650411               -0.04162089                0.13845396               -0.00117746                0.01247951               -0.00145299
               7.94104124               -0.08707059               59.08181860                0.99164675               -0.04126986               -0.04347743                0.14440410                0.00067076                0.01360634               -0.00260791
               8.94061249               -0.08737590               59.08415964                0.99770663               -0.04431574               -0.04499504                0.15057466                0.00106125                0.01240904               -0.00041862
               9.94015493               -0.08767458               59.08644981                0.99992337               -0.04575621               -0.04686032                0.15642040                0.00124316                0.00974731                0.00986654
              -0.05325914                0.93201651               59.06549776                0.61554149               -0.03495706               -0.02232951                0.10628875                0.00668852                0.00442135                0.00951821
               0.94639129                0.92688986               59.06772882                0.01000000               -0.04304745               -0.04259712                0.11171376                0.01867299                0.01021988               -0.00916763
               1.94587991                0.92205329               59.07007824                0.01000000               -0.07606478                0.03238996                0.11691597                0.13564651                0.02214054               -0.01105455
               2.94487000                0.91803640               59.07257164                0.01000001               -0.10764281                0.08694474                0.12126237                0.24073720                0.02618661               -0.01509561
               3.94372706                0.91544403               59.07507719                0.01000000               -0.09854722                0.12195876                0.12497572                0.30370454                0.01635735               -0.01595126
               4.94289905                0.91406240               59.07744092                0.01000000               -0.07107922                0.11958311                0.12916892                0.29446891                0.00284616               -0.01018628
               5.94230547                0.91332469               59.07970677                0.01000001               -0.05377506                0.14836746                0.13387610                0.18116830               -0.00485256               -0.00496140
               6.94182355                0.91285934               59.08192586                0.28868582               -0.04659010               -0.04228638                0.13891566               -0.00743579               -0.00822858               -0.01073183
               7.94137367                0.91249463               59.08412548                0.87640507               -0.04492271               -0.04327813                0.14403806               -0.00181765               -0.00607562               -0.00710864
               8.94092510                0.91217415               59.08638756                0.99999999               -0.04538129               -0.04473761                0.14967059                0.00010351               -0.00143138               -0.00056699
               9.94046605                0.91185681               59.08868042                0.99561378               -0.04590514               -0.04671291                0.15554271                0.00031587                0.00005396                0.00979476
              -0.04795817                1.93185596               59.06812730                0.38998446               -0.03368863                0.00423585                0.11149300                0.02391376                0.00135820                0.01550940
               0.95170495                1.92638686               59.07020658                0.01000000                0.03673756               -0.07258797                0.11693366                0.12947690                0.01618119               -0.01514722
               1.95277659                1.92303718               59.07258048                0.01000001                0.06084375                0.04551165                0.11790720                0.38441802                0.03346689               -0.02148317
               2.95292182                1.92012911               59.07502968                0.01000000               -0.04166152                0.14924164                0.11990316                0.56430204                0.03446340               -0.02464719
               3.95194335                1.91825084               59.07748375                0.01000000               -0.14753326                0.26795504                0.12258830                0.72547856                0.02739241               -0.01681014
               4.94997116                1.91683780               59.07988330                0.01000001               -0.26728024                0.29643916                0.12606417                0.78486712                0.01301248               -0.00898462
               5.94659775                1.91669164               59.08215852                0.01144301               -0.39259634                0.38624506                0.13052778                0.47025573               -0.01372788                0.01278458
               6.94211923                1.91242982               59.08416000                0.01618354               -0.24538372                0.19757207                0.13789972                0.20829600               -0.03007203                0.01800163
               7.94169008                1.91206385               59.08634292                0.01000000               -0.04334252                0.18480231                0.14302684                0.22129990               -0.01652213                0.04004948
               8.94125238                1.91172935               59.08861382                0.09216370               -0.04470751               -0.04117984                0.14875310                0.00476781               -0.01072899               -0.00741239
               9.94079593                1.91139116               59.09091168                0.69570638               -0.04564549               -0.04782896                0.15466209                0.00372666               -0.00937004                0.01082012
              -0.04184266                2.93210123               59.07079399                0.36361816               -0.03577239                0.02760971                0.11645591                0.00883858               -0.00118074                0.02184560
               0.95779961                2.92543810               59.07267591                0.01000001                0.08343456               -0.09897900                0.12143431                0.21656549                0.02396703               -0.02032202
               1.95982603                2.92296352               59.07505924                0.01000000                0.15713786               -0.06119065                0.12021870                0.51680341                0.05315320               -0.02607991
               2.96094237                2.92102123               59.07754729                0.01000000                0.08509527                0.05449380                0.12073652                0.74057153                0.06224305               -0.01771380
               3.96152793                2.92080313               59.08017740                0.01198147               -0.03933840                0.13833681                0.12181424                0.86548591                0.05508442               -0.00640344
               4.96015560                2.91999118               59.08260497                0.01000000               -0.27046817                0.27411385                0.12555334                1.00634657                0.04287097                0.02173974
               5.95611857                2.92104960               59.08509831                0.01000001               -0.47691690                0.44838237                0.12969303                0.95178147                0.00905498                0.07749656
               6.95061726                2.91681078               59.08715291                0.01000000               -0.48092149                0.73593754                0.13533949                0.93051031               -0.00630270                0.14248073
               7.94650014                2.91619068               59.08959218                0.01397624               -0.44620611                0.59167689                0.14141392                0.64610157               -0.05922199                0.13700705
               8.94169314                2.91135056               59.09070492                0.01000000               -0.26415866                0.33295553                0.14728956                0.41972857               -0.07004605                0.13758060
               9.94121697                2.91090023               59.09316366                0.22490771               -0.04761749                0.28390134                0.15439374                0.38080308               -0.00275765                0.15075170
              -0.03445514                3.93240815               59.07348646                0.43114416               -0.03708961                0.01473039                0.12120489               -0.01072064               -0.00312861                0.02575699
               0.96517396                3.92440728               59.07511705                0.01000000                0.09923333               -0.08836614                0.12550202                0.25825140                0.03465471               -0.02502311
               1.96752953                3.92181336               59.07750173                0.01000000                0.23598393               -0.15323386                0.12351881                0.61660497                0.08358450               -0.03962546
               2.96989364                3.92121898               59.08016839                0.01198128                0.13767959               -0.06802899                0.12272524                0.79525889                0.09339663               -0.02348959
               3.97028312                3.92101758               59.08280949                0.01000000               -0.00210079               -0.02805493                0.12499051                0.96078961                0.10078052               -0.00664794
               4.96985163                3.92232008               59.08572347                0.01000001               -0.07346689                0.22070628                0.12802115                1.29430584                0.11684940                0.06561925
               5.96881378                3.92565929               59.08881687                0.01000001               -0.21316375                0.47989741                0.13032868                1.52088555                0.11517991                0.15799749
               6.96558835                3.92714857               59.09185882                0.01201014               -0.43707247                0.81741470                0.13400107                1.33599561                0.04413107                0.21177598
               7.96007233                3.92389738               59.09372193                0.01095562               -0.53254771                0.82694628                0.13949084                0.94647790               -0.01377936                0.24349928
               8.95493740                3.91838846               59.09582788                0.01000000               -0.53798494                1.11160226                0.14534338                0.92270493                0.01632943                0.33499871
               9.94931263                3.91706918               59.09819792                0.25901756               -0.56247652                0.92651854                0.14973871                0.74567604                0.04397171                0.30850187
              -0.02605533                4.93239584               59.07618040                0.55672345               -0.03852405               -0.01255229                0.12627181               -0.00764629               -0.00347001                0.02715151
               0.97355943                4.92367078               59.07754424                0.01000000                0.07008768               -0.06386284                0.12988918                0.23855664                0.03954483               -0.02673739
               1.97534642                4.91989885               59.07976702                0.01000001                0.20419503               -0.23383019                0.12799744                0.63168017                0.10831353               -0.07010012
               2.97764333                4.91966065               59.08260740                0.01000000                0.21481020               -0.28514778                0.12758393                0.87135700                0.14078961               -0.07842622
               3.97964263                4.92024204               59.08556336                0.01000001                0.18783419               -0.11025233                0.12981413                1.22185294                0.18595840               -0.00451255
               4.98140001                4.92440531               59.08931840                0.01000001                0.10325801                0.16089031                0.13131207                1.65747295                0.23889506                0.10606099
               5.98170779                4.93064754               59.09340104                0.01192532               -0.11504681                0.34903927                0.13437521                1.62302524                0.19202185                0.16407008
               6.97909908                4.93315908               59.09631731                0.01020635               -0.37589901                0.60744081                0.13908370                1.35359915                0.12566084                0.24020149
               7.97418981                4.93272961               59.09920666                0.01000000               -0.60618193                1.18409460                0.14319927                1.30863290                0.13673554                0.38941514
               8.96697544                4.93358260               59.10240427                0.01000000               -0.77103826                1.69058782                0.14785582                0.97951968                0.10988415                0.47271437
               9.95876904                4.92943060               59.10468306                0.30198603               -0.82063965                1.47604285                0.15434032                0.67564253                0.07009889                0.43427850
              -0.01715795                5.93215711               59.07888117                0.76288695               -0.03999612               -0.02960864                0.13166890               -0.00314951               -0.00404340                0.02758831
               0.98244209                5.92313002               59.07996825                0.01000001                0.06656055               -0.05002395                0.13471164                0.14700988                0.02698524               -0.02660615
               1.98417326                5.91713676               59.08167480                0.01144461                0.22677525               -0.32041087                0.13375186                0.40651467                0.09609001               -0.13766512
               2.98697759                5.91551603               59.08420375                0.01000001                0.29011283               -0.44713391                0.13440071                0.87031067                0.21914857               -0.16156819
               3.98997552                5.91881253               59.08833928                0.01000001                0.28089919               -0.20784399                0.13523275                1.40441705                0.33943823               -0.00623061
               4.99259558                5.92553789               59.09329964                0.01192616                0.12725007               -0.02473313                0.13807127                1.60823381                0.33166819                0.05959395
               5.99252052                5.93264007               59.09731861                0.01017677               -0.10086523                0.19282692                0.14286162                1.61753664                0.29913539                0.15486076
               6.99057827                5.93929739               59.10170765                0.01000000               -0.33495280                0.75923947                0.14792735                1.76798317                0.34165253                0.35985057
               7.98582146                5.94757928               59.10664184                0.01000000               -0.63757402                1.56013010                0.15328059                1.77313307                0.33175201                0.57246932
               8.97782679                5.95220022               59.11083019                0.01226435               -0.73459925                1.73078083                0.16393191                1.10868883                0.19033557                0.53739598
               9.97112948                5.94659004               59.11284021                0.36769628               -0.66973147                1.44770140                0.16794135                0.53325870                0.09606956                0.43213504
              -0.00806415                6.93180367               59.08157944                0.99999999               -0.04158743               -0.03781237                0.13724541               -0.00036485               -0.00374093                0.02889581
               0.99151997                6.92267030               59.08239919                0.29587350               -0.04225678               -0.04512739                0.13983685               -0.00433481               -0.02939174               -0.02661675
               1.99109071                6.91349063               59.08270527                0.01618719                0.09268975               -0.20420995                0.14169877                0.20527686                0.05655851               -0.12441157
               2.99337377                6.91071797               59.08524232                0.01000000                0.33091983               -0.38457300                0.14218862                0.80566011                0.34081013               -0.11532498
               3.99770911                6.91608516               59.09118964                0.01201309                0.31816922               -0.37020757                0.14303862                1.31478094                0.45852900               -0.09465558
               4.99973715                6.92391065               59.09607133                0.01019893                0.12949543               -0.17570992                0.14714066                1.47388888                0.44873830                0.00204150
               6.00029902                6.93450408               59.10184906                0.01000000               -0.01088087                0.20985821                0.15360193                1.84502282                0.54870906                0.23825905
               6.99951954                6.94834386               59.10881231                0.01000000               -0.17746895                0.96053099                0.16168685                2.23938423                0.62471986                0.51201610
               7.99674964                6.96393221               59.11613860                0.01228167               -0.46905433                1.27311970                0.17720609                1.76211184                0.41670940                0.52803554
               8.99013845                6.96819822               59.11878850                0.01000002               -0.80475343                1.72839261                0.17620984                0.65379578                0.10831744                0.69118402
               9.98065457                6.95838463               59.11977502                0.49107846               -0.94838791                1.81195408                0.17605506                0.25464089                0.03943379                0.56175034
               0.00110148                7.93140086               59.08430629                0.99134950               -0.04330523               -0.04159509                0.14286646                0.00076245               -0.00740734                0.03455070
               1.00066843                7.92222747               59.08482073                0.89556233               -0.04351765               -0.04452982                0.14504831               -0.00094252               -0.01903962               -0.01760747
               2.00023113                7.91305256               59.08510222                0.01000000               -0.00860798               -0.04437646                0.14693572                0.19515237                0.10002870               -0.04395378
               3.00049627                7.90782457               59.08799839                0.01397946                0.14236663               -0.36117316                0.15001521                0.69629625                0.30664447               -0.18610521
               4.00307846                7.91140838               59.09236865                0.01095604                0.15790796               -0.31619875                0.15033528                1.08737813                0.50086480               -0.12552620
               5.00365443                7.92202369               59.09905936                0.01000000                0.09546479               -0.13223390                0.15644732                1.41393303                0.70423897                0.07136359
               6.00498776                7.93683724               59.10761711                0.01000000                0.11417016                0.20953401                0.16823639                1.90645722                0.85894906                0.30281030
               7.00593783                7.95850801               59.11748930                0.01226811               -0.18892053                0.58945732                0.19023713                1.95432526                0.69763577                0.37250620
               8.00120935                7.97304167               59.12269465                0.01000002               -0.47437743                1.31291397                0.19074421                1.63079905                0.62091842                0.60001931
               8.99645028                7.98676807               59.13095405                0.42894061               -0.26799392                0.89693571                0.19773714                1.00447327                0.39110577                0.44086057
               9.99584947                7.98282912               59.13134265                0.95789466               -0.06008156                1.18954300                0.20329534                0.56130824               -0.00232911                0.39869663
               0.01029787                8.93097176               59.08711822                0.99778045               -0.04484444               -0.04406285                0.14858690                0.00097279               -0.00086523                0.03241911
               1.00984942                8.92177971               59.08743046                0.99999999               -0.04505993               -0.04541108                0.15050816                0.00009643               -0.00089584               -0.00401627
               2.00939667                8.91260310               59.08774244                0.10963306               -0.04527751               -0.04579993                0.15242216                0.00255778               -0.01631166               -0.02876683
               3.00894387                8.90349451               59.08774766                0.01000000               -0.20695585               -0.24019708                0.15471524                0.73613372                0.32301426               -0.17699493
               4.00525755                8.90976118               59.09484837                0.01000000               -0.31784551                0.03437582                0.16006466                0.88557528                0.73716927               -0.00558511
               5.00258696                8.92126597               59.10335358                0.01000000               -0.16568547                0.02167663                0.16967045                0.94027474                0.89012314                0.10872079
               6.00194384                8.93869476               59.11358253                0.01225399               -0.00926776                0.11155921                0.19370007                1.09038019                0.87562687                0.22362624
               7.00240161                8.96013301               59.12177730                0.01000002               -0.04191423                0.02248067                0.20174587                1.68649695                0.98519624                0.05794494
               8.00110556                8.99019049               59.13422772                0.43317921               -0.09805728                0.82248501                0.21871343                1.50069122                0.60275933                0.40982880
               9.00044046                8.98613693               59.13449952                0.98459326               -0.06734635               -0.06770003                0.22567682               -0.00025083               -0.00518434                0.00721714
               9.99975863                8.98217549               59.13479628                0.99724299               -0.06818308               -0.06962687                0.23182377               -0.00458742               -0.00392617               -0.00543933
               0.01950506                9.93051960               59.08980303                0.99993814               -0.04660330               -0.04521615                0.15413367                0.00068387                0.02674693                0.02604629
               1.01903902                9.92131925               59.09012376                0.99633731               -0.04687869               -0.04604520                0.15607138               -0.00019206                0.02670440                0.00012012
               2.01856748                9.91213656               59.09044446                0.71017267               -0.04890793               -0.04665377                0.15799753                0.00214989                0.03372540               -0.02575926
               3.01806086                9.90302063               59.09090725                0.22680923               -0.77744874               -0.04738828                0.16093231                0.90966597                0.39321554               -0.00669760
               4.00301851                9.91209590               59.09842060                0.25946995               -1.22672606                0.23347185                0.17014943                0.74792526                0.77819671                0.05326999
               4.99352634                9.92245722               59.10714826                0.30034907               -0.75450943                0.11912519                0.18568649                0.44256402                0.92032263                0.08474053
               5.98792832                9.93906842               59.11772074                0.36518749               -0.26771478                0.03736568                0.21207088                0.42346765                0.82417674                0.13131618
               6.98817205                9.95895762               59.12449362                0.48836659                0.86454658               -0.11753896                0.21161066                1.09819149                0.96024094               -0.03150339
               8.00521925                9.98949137               59.13761490                0.96445515                0.81441075               -0.06991171                0.24882933                1.73419161                0.64867432                0.00242583
               9.00446026                9.98541407               59.13797815                0.99724362               -0.07693248               -0.07228624                0.25503817               -0.00075919                0.00781154                0.00465012
              10.00368060                9.98143659               59.13827768                0.99163963               -0.07796616               -0.07389066                0.26118862               -0.00555150                0.00461152               -0.00431031
              -0.06066478               -0.07023165               60.06393599                0.89285219               -0.02840676               -0.02835030                0.10075573                0.00231867               -0.00562595                0.00621930
               0.93905115               -0.07539973               60.06622657                0.61487928               -0.02149063               -0.03502175                0.10632009                0.00713759               -0.00534005               -0.00459581
               1.93890541               -0.08033785               60.06851783                0.39079682                0.00885688               -0.03351454                0.11196587                0.02605516                0.00672721               -0.00224308
               2.93922829               -0.08437119               60.07102400                0.36572770                0.03758901               -0.03527571                0.11709309                0.00871181                0.02485983               -0.00224479
               3.93965719               -0.08691293               60.07360565                0.43299500                0.02556890               -0.03666538                0.12174395               -0.01435708                0.02721160               -0.00199545
               4.93973967               -0.08819620               60.07609569                0.55737504               -0.00515940               -0.03830568                0.12691378               -0.01091777                0.02055541               -0.00170800
               5.93955400               -0.08881776               60.07851410                0.76243778               -0.02589991               -0.03991701                0.13259204               -0.00518024                0.01541778               -0.00174573
               6.93922167               -0.08916158               60.08089100                0.99999999               -0.03646179               -0.04161341                0.13853037               -0.00116125                0.01322585               -0.00154490
               7.93882477               -0.08940264               60.08326366                0.99174592               -0.04132330               -0.04350466                0.14460375                0.00069925                0.01451472               -0.00279152
               8.93839521               -0.08960354               60.08566702                0.99733735               -0.04441492               -0.04506096                0.15089443                0.00108562                0.01326038               -0.00043299
               9.93793647               -0.08979854               60.08801628                0.99957285               -0.04587383               -0.04696548                0.15686414                0.00129535                0.01043979                0.01057954
              -0.05547352                0.92948485               60.06655966                0.61476528               -0.03508572               -0.02158248                0.10609148                0.00719115                0.00432919                0.00938897
               0.94417563                0.92425006               60.06884549                0.01000000               -0.04373959               -0.04325840                0.11162738                0.02018566                0.00998577               -0.00916690
               1.94365169                0.91932701               60.07124724                0.01000000               -0.07863389                0.03214532                0.11689384                0.13951974                0.02119561               -0.01301696
               2.94260295                0.91527605               60.07378370                0.01000000               -0.11127861                0.08705246                0.12115151                0.24737926                0.02419856               -0.01790068
               3.94142612                0.91272042               60.07632570                0.01000000               -0.10100221                0.12117379                0.12472156                0.31222532                0.01421386               -0.01875465
               4.94058291                0.91142075               60.07873116                0.01000000               -0.07206156                0.11716750                0.12886960                0.30265697                0.00126691               -0.01283525
               5.93998489                0.91078307               60.08104434                0.01000001               -0.05402028                0.14639919                0.13362563                0.18684838               -0.00592224               -0.00732843
               6.93950250                0.91042229               60.08331436                0.28868900               -0.04660764               -0.04223969                0.13877780               -0.00744593               -0.00903600               -0.01155108
               7.93905274                0.91016232               60.08556581                0.87650493               -0.04492450               -0.04327221                0.14403142               -0.00180212               -0.00656335               -0.00760949
               8.93860401                0.90994585               60.08788485                0.99999999               -0.04541602               -0.04477428                0.14979217                0.00010909               -0.00153794               -0.00058727
               9.93814442                0.90973181               60.09023706                0.99523708               -0.04595934               -0.04678868                0.15578883                0.00034846                0.00006597                0.01050669
              -0.05005137                1.92933670               60.06924147                0.39018443               -0.03359214                0.00649756                0.11134346                0.02542728                0.00129184                0.01531371
               0.94961271                1.92373511               60.07137577                0.01000000                0.03605910               -0.07491939                0.11691130                0.13370326                0.01385062               -0.01567071
               1.95066981                1.92030506               60.07375923                0.01000001                0.05848801                0.04430663                0.11792712                0.39377842                0.02876674               -0.02533426
               2.95078247                1.91736986               60.07622805                0.01000000               -0.04564041                0.14851348                0.11989195                0.57876252                0.03022528               -0.02989969
               3.94975700                1.91551055               60.07870847                0.01000000               -0.15261563                0.26639527                0.12247908                0.74325227                0.02356199               -0.02282751
               4.94773015                1.91414715               60.08114262                0.01000001               -0.27337861                0.29205482                0.12584155                0.80518103                0.01015392               -0.01442503
               5.94428943                1.91411023               60.08346203                0.01144867               -0.40183205                0.38457885                0.13022718                0.48782652               -0.01438716                0.00783958
               6.93969351                1.90999363               60.08553740                0.01618382               -0.25121357                0.19772115                0.13756050                0.21938201               -0.03039947                0.01571174
               7.93926516                1.90973192               60.08777210                0.01000000               -0.04328097                0.18511942                0.14282411                0.22750085               -0.01765091                0.03897196
               8.93882789                1.90950097               60.09010089                0.09191520               -0.04468190               -0.04111328                0.14867649                0.00502171               -0.01146980               -0.00768195
               9.93837152                1.90926569               60.09245846                0.69508262               -0.04563735               -0.04796619                0.15471003                0.00396357               -0.01002788                0.01186767
              -0.04376178                2.92961480               60.07195768                0.36425820               -0.03568878                0.03053450                0.11628000                0.00931702               -0.00128694                0.02158092
               0.95588133                2.92275167               60.07388985                0.01000000                0.08271446               -0.10203330                0.12135837                0.22384141                0.02074961               -0.02172049
               1.95789251                2.92021314               60.07626091                0.01000000                0.15456894               -0.06357794                0.12023423                0.53185614                0.04685818               -0.02908987
               2.95897271                2.91824632               60.07875389                0.01000000                0.08106808                0.05263745                0.12075465                0.75965142                0.05621573               -0.02212585
               3.95951387                2.91804832               60.08139410                0.01198537               -0.04429326                0.13579610                0.12161686                0.88673850                0.05006211               -0.01091244
               4.95808685                2.91726184               60.08385918                0.01000000               -0.28094625                0.27202436                0.12539354                1.03363261                0.03922762                0.01739569
               5.95389495                2.91847465               60.08639347                0.01000001               -0.49091975                0.44737776                0.12942382                0.98406991                0.00602413                0.07331071
               6.94826845                2.91437671               60.08850410                0.01000000               -0.48997710                0.73319637                0.13494421                0.96159644               -0.00823009                0.13890617
               7.94409540                2.91386470               60.09100512                0.01407045               -0.45488901                0.58880380                0.14132779                0.66953478               -0.06056698                0.13436270
               8.93917067                2.90912359               60.09217707                0.01000000               -0.27005739                0.31862037                0.14718686                0.44539544               -0.07081796                0.13692030
               9.93869426                2.90877249               60.09470746                0.22538288               -0.04764144                0.25530538                0.15440970                0.41424727               -0.00293073                0.15018520
              -0.03613877                3.92994739               60.07469727                0.43149455               -0.03700373                0.01649131                0.12094864               -0.01081049               -0.00318452                0.02557834
               0.96349119                3.92169444               60.07637115                0.01000000                0.09755257               -0.09010792                0.12531696                0.26740809                0.03146205               -0.02657045
               1.96581228                3.91903350               60.07873609                0.01000000                0.23245598               -0.15658232                0.12346824                0.63545048                0.07661761               -0.04184586
               2.96814031                3.91842261               60.08139427                0.01197989                0.13319849               -0.07099213                0.12260119                0.81709910                0.08736327               -0.02646839
               3.96847625                3.91822647               60.08405779                0.01000000               -0.00819161               -0.03257891                0.12480583                0.98813819                0.09594850               -0.00915406
               4.96797648                3.91958764               60.08700186                0.01000001               -0.08101448                0.21888229                0.12777416                1.32876552                0.11147454                0.06210637
               5.96685596                3.92305778               60.09011807                0.01000001               -0.22205449                0.47604587                0.13006780                1.56303777                0.10968445                0.15433455
               6.96353539                3.92465755               60.09319806                0.01203200               -0.44734921                0.81096039                0.13395475                1.37953223                0.04037131                0.20852902
               7.95790898                3.92150799               60.09511707                0.01102391               -0.53536847                0.81308239                0.13968217                0.97975017               -0.01631931                0.24124154
               8.95282802                3.91587338               60.09728282                0.01000000               -0.52751559                1.08200838                0.14605097                0.95001828                0.01470071                0.33258716
               9.94735866                3.91437180               60.09969996                0.25939197               -0.54693554                0.88122551                0.15118629                0.77382406                0.04383887                0.30460258
              -0.02747209                4.92994463               60.07744180                0.55665123               -0.03845294               -0.01197887                0.12599495               -0.00761552               -0.00349820                0.02726798
               0.97214338                4.92094951               60.07884203                0.01000000                0.06727200               -0.06429845                0.12966686                0.24727227                0.03676582               -0.02783757
               1.97387335                4.91708150               60.08104601                0.01000001                0.19891704               -0.23857245                0.12782012                0.65301191                0.10217893               -0.07100287
               2.97612172                4.91682648               60.08388176                0.01000000                0.21191245               -0.29369575                0.12740969                0.89930901                0.13530996               -0.07912786
               3.97811160                4.91739675               60.08685948                0.01000001                0.18545597               -0.11639541                0.12958321                1.25635725                0.18065388               -0.00663735
               4.97983084                4.92163949               60.09062893                0.01000001                0.09870930                0.15621651                0.13092721                1.70039148                0.23322261                0.10317081
               5.98008579                4.92799557               60.09474305                0.01194033               -0.12109787                0.34287906                0.13412883                1.66848861                0.18747351                0.16206830
               6.97740889                4.93059592               60.09770667                0.01022580               -0.38056048                0.59678189                0.13909133                1.39450754                0.12149499                0.23904617
               7.97247458                4.93012635               60.10063865                0.01000000               -0.60508272                1.16313018                0.14378420                1.34014565                0.13366025                0.38908546
               8.96530723                4.93076375               60.10388760                0.01000000               -0.76503362                1.67141193                0.14947254                1.00259399                0.10999233                0.47347894
               9.95717391                4.92639700               60.10623309                0.30211380               -0.81333260                1.44517456                0.15669299                0.69881953                0.07327383                0.43265979
              -0.01830085                5.92970781               60.08019674                0.76257572               -0.03993817               -0.02951885                0.13142823               -0.00305285               -0.00408081                0.02791994
               0.98129977                5.92040847               60.08131448                0.01000001                0.06482011               -0.04997157                0.13453126                0.15304404                0.02492724               -0.02724237
               1.98299555                5.91426205               60.08301115                0.01144902                0.22557364               -0.32890138                0.13357717                0.42442735                0.09161146               -0.13657659
               2.98581124                5.91254869               60.08554628                0.01000001                0.28974173               -0.45961321                0.13416025                0.90185728                0.21458831               -0.16109351
               3.98879038                5.91589856               60.08968893                0.01000001                0.27871234               -0.21564813                0.13472885                1.44530387                0.33475546               -0.00766131
               4.99138549                5.92271197               60.09467652                0.01193971                0.12394594               -0.03182553                0.13739827                1.65256707                0.32805110                0.05810369
               5.99126930                5.92991537               60.09874488                0.01020153               -0.10453643                0.18421552                0.14245411                1.65883168                0.29630491                0.15435032
               6.98929476                5.93659319               60.10318514                0.01000000               -0.33626258                0.74505481                0.14801824                1.80153908                0.33929004                0.35992372
               7.98454405                5.94477060               60.10817398                0.01000000               -0.63427513                1.54804453                0.15423362                1.80646086                0.33375632                0.57665172
               8.97660926                5.94930162               60.11247541                0.01238880               -0.72377415                1.70848905                0.16613060                1.12884372                0.19387093                0.53535089
               9.97006857                5.94327529               60.11452591                0.36771139               -0.65406858                1.41211509                0.17053208                0.54125131                0.09767679                0.42482732
              -0.00893446                6.92935425               60.08295116                0.99999999               -0.04155162               -0.03783543                0.13707973               -0.00028647               -0.00378366                0.02931348
               0.99065003                6.91995008               60.08379715                0.29542876               -0.04219307               -0.04502113                0.13975437               -0.00408288               -0.02977862               -0.02699803
               1.99022168                6.91050347               60.08412247                0.01618489                0.09361677               -0.20985106                0.14177676                0.21599771                0.05505205               -0.12360323
               2.99252236                6.90763421               60.08666314                0.01000000                0.33163608               -0.39349796                0.14204077                0.83427915                0.33782077               -0.11420779
               3.99685440                6.91308378               60.09261643                0.01203184                0.31715114               -0.38071637                0.14220509                1.35594398                0.45571715               -0.09545262
               4.99886538                6.92100298               60.09753887                0.01023122                0.12633996               -0.18322983                0.14623374                1.51311257                0.44796691                0.00111387
               5.99938120                6.93167988               60.10338186                0.01000000               -0.01404735                0.20094388                0.15302247                1.87789274                0.54906536                0.23894578
               6.99858444                6.94549701               60.11042595                0.01000000               -0.17429173                0.95325154                0.16147814                2.27269221                0.62946434                0.51795886
               7.99589537                6.96108724               60.11791276                0.01239718               -0.46025108                1.25542297                0.17811997                1.77741746                0.41771704                0.52696284
               8.98937941                6.96493353               60.12055284                0.01000002               -0.79218853                1.69350065                0.17754791                0.64773465                0.10325684                0.68503857
               9.98005160                6.95463930               60.12153925                0.49116764               -0.93278192                1.79424006                0.17768096                0.23770550                0.03729148                0.55694244
               0.00050176                7.92895110               60.08573459                0.99139783               -0.04328684               -0.04162705                0.14277398                0.00079582               -0.00747016                0.03502477
               1.00006889                7.91950805               60.08627137                0.89540384               -0.04351940               -0.04448745                0.14508414               -0.00085665               -0.01923426               -0.01780289
               1.99963137                7.91006503               60.08657243                0.01000000               -0.00761918               -0.04443281                0.14713612                0.20072481                0.10020538               -0.04443713
               2.99991651                7.90467873               60.08949854                0.01407261                0.14545657               -0.36977474                0.15001577                0.71541313                0.30567404               -0.18622658
               4.00254050                7.90828424               60.09387007                0.01102505                0.15675682               -0.32207678                0.14975853                1.11641672                0.50071020               -0.12508879
               5.00305164                7.91904737               60.10061997                0.01000000                0.08963110               -0.13709804                0.15534659                1.44450422                0.70880306                0.07223892
               6.00433312                7.93393424               60.10929560                0.01000000                0.11447986                0.20667480                0.16729140                1.93479673                0.87000865                0.30965487
               7.00534124                7.95565822               60.11939115                0.01238466               -0.18386216                0.58077867                0.19024281                1.96313690                0.70192611                0.37354700
               8.00065588                7.96987906               60.12460030                0.01000002               -0.46646735                1.27940412                0.19078341                1.61820796                0.61851943                0.59643690
               8.99601189                7.98317163               60.13292915                0.42878792               -0.26223642                0.88073822                0.19769315                0.99883197                0.39224546                0.43523432
               9.99541115                7.97916009               60.13337133                0.95799042               -0.06007408                1.19338253                0.20323559                0.56579509               -0.00225510                0.39684847
               0.00996757                8.92852171               60.08860404                0.99740208               -0.04486059               -0.04408424                0.14855585                0.00098536               -0.00083371                0.03285618
               1.00951897                8.91906033               60.08893614                0.99999999               -0.04510393               -0.04543035                0.15063547                0.00010019               -0.00086389               -0.00404029
               2.00906549                8.90961481               60.08926792                0.11022651               -0.04537728               -0.04588363                0.15270762                0.00261949               -0.01605978               -0.02911460
               3.00861142                8.90023872               60.08929771                0.01000000               -0.21256987               -0.24581627                0.15537853                0.75541190                0.32473266               -0.17767203
               4.00481410                8.90664225               60.09644835                0.01000000               -0.32529796                0.03676658                0.15984263                0.90779151                0.74165831               -0.00309967
               5.00210546                8.91826102               60.10504723                0.01000000               -0.16739041                0.02079534                0.16864607                0.95972310                0.90368973                0.11342915
               6.00146629                8.93581338               60.11551832                0.01237373               -0.01015499                0.11221594                0.19330801                1.10061604                0.88749823                0.23223733
               7.00190236                8.95711259               60.12379214                0.01000002               -0.03600868                0.00860930                0.20112826                1.66707403                0.99196547                0.04866103
               8.00074611                8.98667532               60.13640932                0.43222698               -0.09136702                0.80461984                0.21791670                1.48544825                0.60863990                0.40765555
               9.00007502                8.98254830               60.13675117                0.98498051               -0.06777646               -0.06638654                0.22511040               -0.00029270               -0.00409961                0.00540222
               9.99939058                8.97850695               60.13711175                0.99760372               -0.06844364               -0.06994981                0.23167817               -0.00483380               -0.00319006               -0.00587244
               0.01944422                9.92806942               60.09134471                0.99957306               -0.04664310               -0.04522871                0.15418085                0.00066703                0.02714192                0.02641052
               1.01897779                9.91859944               60.09168547                0.99598216               -0.04694247               -0.04608884                0.15627680               -0.00022064                0.02709785                0.00014249
               2.01850537                9.90914736               60.09202609                0.71041091               -0.04902412               -0.04674520                0.15836128                0.00213608                0.03464338               -0.02608306
               3.01799731                9.89976241               60.09251964                0.22740338               -0.79156682               -0.04763122                0.16162195                0.93219909                0.39764367               -0.00680527
               4.00267403                9.90901957               60.10012318                0.25996896               -1.24611645                0.23773185                0.17039651                0.77103757                0.78927985                0.05595099
               4.99307498                9.91946328               60.10900566                0.30055151               -0.75900798                0.12022637                0.18557646                0.45490143                0.94066115                0.09129902
               5.98749387                9.93617856               60.11984367                0.36528320               -0.26271033                0.03651863                0.21231670                0.42111516                0.83647120                0.13669454
               6.98782077                9.95583041               60.12660581                0.48845439                0.87176290               -0.12821781                0.21054931                1.08148561                0.97760804               -0.04118220
               8.00492913                9.98597145               60.14010510                0.96366798                0.81768218               -0.07038711                0.24860092                1.71897670                0.66405513                0.00219675
               9.00417441                9.98184390               60.14053115                0.99760317               -0.07659785               -0.07043953                0.25504887               -0.00057853                0.00734673                0.00339783
              10.00339718                9.97776109               60.14089217                0.99179088               -0.07772391               -0.07458540                0.26138315               -0.00762172                0.00419523               -0.00389785
              -0.06303891               -0.07282040               61.06494221                0.89223082               -0.02814686               -0.02807883                0.10049002                0.00241080               -0.00551376                0.00608933
               0.93667963               -0.07809097               61.06728902                0.61423873               -0.02069002               -0.03517127                0.10617669                0.00768475               -0.00516853               -0.00455683
               1.93654729               -0.08311430               61.06963736                0.39126234                0.01137839               -0.03341465                0.11194667                0.02767683                0.00676101               -0.00223741
               2.93690719               -0.08717408               61.07219474                0.36670506                0.04102577               -0.03515873                0.11706253                0.00912993                0.02452793               -0.00233471
               3.93736781               -0.08966833               61.07482251                0.43368496                0.02789556               -0.03655471                0.12162264               -0.01463650                0.02691647               -0.00209574
               4.93746511               -0.09085895               61.07736423                0.55762962               -0.00417184               -0.03822790                0.12678269               -0.01107497                0.02075491               -0.00178975
               5.93728437               -0.09137112               61.07983975                0.76258844               -0.02561313               -0.03986952                0.13253217               -0.00521079                0.01597570               -0.00184212
               6.93695284               -0.09160207               61.08227664                0.99999999               -0.03644259               -0.04160151                0.13858775               -0.00112769                0.01396263               -0.00163381
               7.93655552               -0.09173072               61.08471067                0.99186693               -0.04138842               -0.04352772                0.14478696                0.00073231                0.01541134               -0.00296840
               8.93612507               -0.09182022               61.08717753                0.99697040               -0.04451632               -0.04512516                0.15119501                0.00110968                0.01409635               -0.00044267
               9.93566519               -0.09190455               61.08958709                0.99920535               -0.04598794               -0.04706818                0.15728756                0.00134160                0.01111896                0.01128836
              -0.05774422                0.92689882               61.06761959                0.61404927               -0.03523488               -0.02076961                0.10589847                0.00774879                0.00422167                0.00923056
               0.94190343                0.92155732               61.06996137                0.01000000               -0.04450790               -0.04399725                0.11155366                0.02186542                0.00970963               -0.00916282
               1.94136562                0.91655155               61.07241612                0.01000000               -0.08139595                0.03155596                0.11688779                0.14346792                0.02008859               -0.01492504
               2.94027551                0.91247433               61.07499467                0.01000000               -0.11508693                0.08675032                0.12104537                0.25422311                0.02192857               -0.02056286
               3.93906388                0.90996612               61.07757162                0.01000000               -0.10348798                0.11971114                0.12445471                0.32083309                0.01181838               -0.02134776
               4.93820575                0.90875877               61.08001831                0.01000000               -0.07300264                0.11401134                0.12854945                0.31098173               -0.00045665               -0.01532049
               5.93760383                0.90823019               61.08237929                0.01000001               -0.05421903                0.14352089                0.13335864                0.19269934               -0.00704276               -0.00957849
               6.93712137                0.90798192               61.08470141                0.28859355               -0.04659536               -0.04218050                0.13862973               -0.00739260               -0.00984088               -0.01236810
               7.93667192                0.90783400               61.08700611                0.87655881               -0.04491406               -0.04326566                0.14402809               -0.00176700               -0.00703927               -0.00809474
               8.93622309                0.90772853               61.08938340                0.99999999               -0.04544881               -0.04481466                0.14992172                0.00011571               -0.00164125               -0.00060163
               9.93576294                0.90762477               61.09179619                0.99484786               -0.04601435               -0.04686694                0.15604322                0.00037592                0.00007728                0.01121479
              -0.05220093                1.92676421               61.07035417                0.39050044               -0.03348660                0.00891145                0.11119907                0.02706108                0.00121692                0.01504932
               0.94746420                1.92102909               61.07254481                0.01000000                0.03502863               -0.07745019                0.11690456                0.13802738                0.01150518               -0.01626842
               1.94849964                1.91751682               61.07493902                0.01000001                0.05564434                0.04266568                0.11854315                0.40326898                0.02432742               -0.02875425
               2.94857709                1.91456093               61.07742752                0.01000000               -0.04998029                0.14690793                0.12050044                0.59335307                0.02507050               -0.03533586
               3.94750003                1.91272589               61.07993333                0.01000000               -0.15782064                0.26347201                0.12242355                0.76101766                0.01933627               -0.02867581
               4.94542067                1.91142128               61.08240013                0.01000001               -0.27924070                0.28605399                0.12573450                0.82542239                0.00697583               -0.01958881
               5.94191522                1.91149930               61.08476307                0.01144369               -0.41097484                0.38147905                0.13009848                0.50616754               -0.01528802                0.00309969
               6.93720118                1.90755432               61.08691121                0.01618283               -0.25708255                0.19731656                0.13722323                0.23121527               -0.03080056                0.01353721
               7.93677357                1.90740397               61.08919940                0.01000000               -0.04322763                0.18494783                0.14265326                0.23365370               -0.01873772                0.03813444
               8.93633662                1.90728349               61.09158735                0.09174726               -0.04466647               -0.04107488                0.14863520                0.00527522               -0.01219531               -0.00785207
               9.93588024                1.90715811               61.09400588                0.69454013               -0.04563861               -0.04811672                0.15479506                0.00419393               -0.01067394                0.01300009
              -0.04573275                2.92707705               61.07311959                0.36501499               -0.03558793                0.03356897                0.11609880                0.00984449               -0.00140026                0.02118751
               0.95391137                2.92000832               61.07510308                0.01000000                0.08159535               -0.10526990                0.12129083                0.23140039                0.01757668               -0.02330300
               1.95589916                2.91740487               61.07746393                0.01000000                0.15110626               -0.06627330                0.12087998                0.54716474                0.04023068               -0.03290258
               2.95693350                2.91541249               61.07996238                0.01000000                0.07623624                0.05004084                0.12097384                0.77864073                0.04973948               -0.02674617
               3.95742388                2.91523556               61.08260974                0.01198452               -0.04963544                0.13216132                0.12174928                0.90809156                0.04453016               -0.01560867
               4.95594079                2.91447985               61.08511285                0.01000000               -0.29148724                0.26855915                0.12546101                1.06121862                0.03520830                0.01317644
               5.95159414                2.91585977               61.08768678                0.01000001               -0.50498892                0.44485478                0.12933583                1.01722207                0.00264399                0.06934199
               6.94584101                2.91192825               61.08985179                0.01000000               -0.49891552                0.72811292                0.13466777                0.99343962               -0.01012870                0.13579933
               7.94161583                2.91153296               61.09241873                0.01417612               -0.46332802                0.58423620                0.14132327                0.69332007               -0.06189219                0.13254572
               8.93657445                2.90690703               61.09364865                0.01000000               -0.27591244                0.30230929                0.14718305                0.47206857               -0.07171131                0.13702432
               9.93609758                2.90666243               61.09625185                0.22589978               -0.04768705                0.22387451                0.15451435                0.44928478               -0.00310848                0.15075403
              -0.03786658                3.92743559               61.07590544                0.43188942               -0.03690283                0.01823411                0.12067298               -0.01084033               -0.00323573                0.02525926
               0.96176439                3.91892369               61.07762339                0.01000000                0.09526699               -0.09188069                0.12513150                0.27674666                0.02835910               -0.02829405
               1.96403876                3.91619135               61.07997109                0.01000000                0.22774084               -0.16005664                0.12342775                0.65445894                0.06965823               -0.04437919
               2.96631920                3.91556174               61.08262042                0.01198415                0.12778736               -0.07432062                0.12272981                0.83901624                0.08115065               -0.02970973
               3.96659450                3.91536912               61.08530561                0.01000000               -0.01491829               -0.03787056                0.12490636                1.01576866                0.09093556               -0.01189901
               4.96602084                3.91679246               61.08827895                0.01000001               -0.08916179                0.21571072                0.12790417                1.36336966                0.10587412                0.05856914
               5.96481127                3.92039640               61.09141822                0.01000001               -0.23120296                0.47011668                0.13009858                1.60547465                0.10400896                0.15078177
               6.96139678                3.92211658               61.09453792                0.01205181               -0.45750417                0.80123384                0.13413171                1.42423324                0.03648363                0.20585542
               7.95566118                3.91908869               61.09651557                0.01109414               -0.53741288                0.79607231                0.14005335                1.01396749               -0.01867452                0.24010771
               8.95064852                3.91332967               61.09874890                0.01000000               -0.51530257                1.04762829                0.14727970                0.97766507                0.01374791                0.33183398
               9.94535513                3.91163560               61.10122165                0.25977591               -0.52933899                0.82977114                0.15383970                0.80289065                0.04419480                0.30309831
              -0.02892575                4.92744173               61.07870030                0.55656229               -0.03837056               -0.01147210                0.12568672               -0.00752514               -0.00351713                0.02728969
               0.97069054                4.91817070               61.08013758                0.01000000                0.06380149               -0.06468159                0.12943710                0.25619238                0.03399805               -0.02903172
               1.97235028                4.91420373               61.08232343                0.01000001                0.19227549               -0.24312934                0.12776599                0.67451529                0.09601290               -0.07212402
               2.97453605                4.91392608               61.08515560                0.01000000                0.20791287               -0.30244885                0.12745274                0.92733945                0.12964629               -0.08000625
               3.97650854                4.91447815               61.08815502                0.01000001                0.18224237               -0.12333807                0.12963233                1.29069403                0.17491132               -0.00930268
               4.97818090                4.91879407               61.09193695                0.01000001                0.09354883                0.14987741                0.13089243                1.74318824                0.22725992                0.09986834
               5.97837951                4.92526210               61.09608362                0.01195500               -0.12737608                0.33459339                0.13423861                1.71427923                0.18298346                0.15978509
               6.97563338                4.92795292               61.09909914                0.01025899               -0.38487162                0.58300036                0.13954771                1.43652478                0.11800320                0.23875575
               7.97068208                4.92745441               61.10208234                0.01000000               -0.60262701                1.13747540                0.14506617                1.37259058                0.13161442                0.39052950
               8.96358084                4.92785960               61.10539373                0.01000000               -0.75692721                1.64561622                0.15258347                1.02536071                0.11114496                0.47619399
               9.95554354                4.92325786               61.10781692                0.30221839               -0.80373026                1.40724137                0.16149366                0.72116979                0.07725353                0.43351545
              -0.01947503                5.92720615               61.08150973                0.76217029               -0.03987353               -0.02948191                0.13115250               -0.00291212               -0.00410837                0.02819428
               0.98012623                5.91763006               61.08265887                0.01000001                0.06243587               -0.04986273                0.13434739                0.15925814                0.02287698               -0.02789221
               1.98177368                5.91132876               61.08434635                0.01145028                0.22326725               -0.33732240                0.13354479                0.44290960                0.08693488               -0.13544287
               2.98459157                5.90951277               61.08688696                0.01000001                0.28833564               -0.47222586                0.13410401                0.93368797                0.20964832               -0.16077891
               3.98754040                5.91290236               61.09103385                0.01000001                0.27545380               -0.22415937                0.13438664                1.48582149                0.32971229               -0.01006526
               4.99010065                5.91979001               61.09604761                0.01195341                0.11988003               -0.04023016                0.13704330                1.69680362                0.32443751                0.05566873
               5.98993800                5.92708826               61.10016769                0.01023282               -0.10828394                0.17350856                0.14234792                1.70001574                0.29387464                0.15325257
               6.98793497                5.93377659               61.10466802                0.01000000               -0.33658378                0.72720539                0.14867474                1.83472401                0.33772161                0.36017684
               7.98320632                5.94183820               61.10972651                0.01000000               -0.62913432                1.52953695                0.15644294                1.83802090                0.33705061                0.58105699
               8.97535229                5.94624200               61.11415281                0.01252013               -0.71121541                1.67928256                0.17093944                1.14692406                0.19869966                0.53443868
               9.96898201                5.93978043               61.11625085                0.36770381               -0.63702739                1.37101029                0.17645298                0.54804485                0.09989545                0.41830190
              -0.00983181                6.92685209               61.08432104                0.99999999               -0.04151014               -0.03788373                0.13687577               -0.00018686               -0.00381919                0.02968867
               0.98975309                6.91717345               61.08519428                0.29490587               -0.04212165               -0.04488174                0.13967316               -0.00375646               -0.03011009               -0.02734548
               1.98932576                6.90745728               61.08554081                0.01618630                0.09415646               -0.21552003                0.14190668                0.22712515                0.05345471               -0.12264612
               2.99163622                6.90448156               61.08808314                0.01000000                0.33109816               -0.40236498                0.14196801                0.86291045                0.33417305               -0.11333220
               3.99594772                6.90999496               61.09403375                0.01205358                0.31474221               -0.39138332                0.14114807                1.39693667                0.45241558               -0.09733899
               4.99793106                6.91798946               61.09899601                0.01025769                0.12227645               -0.19149482                0.14526057                1.55208089                0.44736958               -0.00125437
               5.99839325                6.92873227               61.10490951                0.01000000               -0.01765697                0.19028059                0.15269254                1.90931634                0.54999336                0.23861401
               6.99757793                6.94249703               61.11204188                0.01000000               -0.17080830                0.94180866                0.16201457                2.30247771                0.63530552                0.52360055
               7.99497709                6.95804514               61.11970100                0.01252247               -0.45004173                1.23178229                0.18028055                1.78918168                0.41971057                0.52532897
               8.98857709                6.96144525               61.12233946                0.01000002               -0.77747564                1.65162130                0.18040051                0.64023990                0.09867746                0.67817110
               9.97942757                6.95067806               61.12332864                0.49124581               -0.91495171                1.77065834                0.18102020                0.22018092                0.03545113                0.55160443
              -0.00012149                7.92644848               61.08716177                0.99144599               -0.04326074               -0.04166642                0.14263972                0.00083401               -0.00751580                0.03544715
               0.99944591                7.91673242               61.08772241                0.89519636               -0.04352218               -0.04443243                0.14513109               -0.00074715               -0.01939103               -0.01796608
               1.99900807                7.90701836               61.08804494                0.01000000               -0.00669002               -0.04450703                0.14741104                0.20605964                0.10022726               -0.04484684
               2.99931211                7.90146547               61.09099870                0.01417718                0.14815787               -0.37808008                0.14996412                0.73391020                0.30401169               -0.18622633
               4.00197123                7.90507469               61.09536382                0.01110036                0.15464263               -0.32744407                0.14847128                1.14440631                0.49952360               -0.12544656
               5.00240496                7.91596011               61.10216629                0.01000000                0.08227647               -0.14202989                0.15359120                1.47394561                0.71331234                0.07148726
               6.00361676                7.93089388               61.11096294                0.01000000                0.11333492                0.20295858                0.16628306                1.96041444                0.88225662                0.31570720
               7.00467166                7.95261276               61.12129416                0.01250707               -0.17875103                0.56972675                0.19077120                1.96759767                0.70677895                0.37345320
               8.00004174                7.96647384               61.12651032                0.01000002               -0.45737445                1.23968274                0.19146360                1.60019481                0.61580885                0.59192672
               8.99552417                7.97927442               61.13490791                0.42902565               -0.25608651                0.85988638                0.19837725                0.98993491                0.39314766                0.42880780
               9.99492001                7.97519359               61.13540736                0.95855360               -0.06041615                1.19295716                0.20467534                0.56922203               -0.00215129                0.39425229
               0.00961698                8.92601876               61.09008934                0.99702092               -0.04487199               -0.04410062                0.14847749                0.00099699               -0.00079473                0.03324368
               1.00916826                8.91628480               61.09044317                0.99999999               -0.04515366               -0.04544853                0.15077627                0.00010399               -0.00082328               -0.00405407
               2.00871391                8.90656714               61.09079659                0.11099880               -0.04550805               -0.04598978                0.15306759                0.00266353               -0.01567974               -0.02941163
               3.00825810                8.89691996               61.09085523                0.01000000               -0.21863515               -0.25124053                0.15622529                0.77417413                0.32594791               -0.17797051
               4.00434120                8.90344608               61.09804522                0.01000000               -0.33336540                0.03952882                0.15923077                0.92878827                0.74508633               -0.00112406
               5.00159079                8.91514887               61.10672650                0.01000000               -0.16961536                0.02031096                0.16634611                0.97797404                0.91747285                0.11703554
               6.00094890                8.93279145               61.11744869                0.01250259               -0.01204398                0.11288660                0.19238615                1.10917646                0.90053993                0.24049163
               7.00134991                8.95389157               61.12579987                0.01000002               -0.03147892               -0.00530689                0.20036492                1.64192355                0.99916298                0.03835876
               8.00031932                8.98283880               61.13858606                0.43122829               -0.08469361                0.78349511                0.21771225                1.46423465                0.61444547                0.40520652
               8.99965604                8.97864298               61.13900172                0.98537338               -0.06728224               -0.06761727                0.22543880               -0.00028160               -0.00301375                0.00353376
               9.99897367                8.97453720               61.13942985                0.99797300               -0.06823657               -0.06978977                0.23233644               -0.00445417               -0.00244647               -0.00634929
               0.01936638                9.92556646               61.09288665                0.99920724               -0.04667757               -0.04522984                0.15417948                0.00063874                0.02750345                0.02673714
               1.01889960                9.91582345               61.09324930                0.99562639               -0.04701007               -0.04613471                0.15649415               -0.00026040                0.02745994                0.00016787
               2.01842618                9.90609857               61.09361169                0.71082490               -0.04914764               -0.04685753                0.15879782                0.00208739                0.03561929               -0.02636357
               3.01791665                9.89644066               61.09413969                0.22803728               -0.80540452               -0.04793038                0.16246514                0.95419004                0.40179419               -0.00690782
               4.00231809                9.90586527               61.10182853                0.26048096               -1.26487877                0.24191848                0.17064784                0.79397214                0.80046852                0.05813631
               4.99261907                9.91636633               61.11085979                0.30075828               -0.76302500                0.12174665                0.18441030                0.46714551                0.96116719                0.09775374
               5.98705759                9.93315161               61.12196708                0.36538071               -0.25781506                0.03601630                0.21182341                0.41788346                0.84892937                0.14184637
               6.98746277                9.95250662               61.12870460                0.48853453                0.87587157               -0.13849445                0.20896084                1.06089315                0.99474342               -0.05153919
               8.00457502                9.98214375               61.14258692                0.96257326                0.81786782               -0.06950526                0.24711302                1.69634290                0.67947543                0.00199050
               9.00382013                9.97792208               61.14307913                0.99797459               -0.07662759               -0.07208980                0.25403984               -0.00088825                0.00686041                0.00213764
              10.00304247                9.97379780               61.14350535                0.99195644               -0.07776634               -0.07394051                0.26093698               -0.00554858                0.00377112               -0.00348914
              -0.06546868               -0.07546462               62.06594579                0.89163720               -0.02786819               -0.02778748                0.10022835                0.00251229               -0.00538367                0.00593736
               0.93425264               -0.08083555               62.06835010                0.61369576               -0.01982027               -0.03534387                0.10604348                0.00829024               -0.00497680               -0.00450907
               1.93413492               -0.08594012               62.07075676                0.39188102                0.01405254               -0.03330367                0.11194263                0.02941434                0.00675901               -0.00222943
               2.93453369               -0.09001775               62.07336525                0.36784742                0.04455544               -0.03502417                0.11703887                0.00958573                0.02404696               -0.00243101
               3.93502603               -0.09245306               62.07603811                0.43441304                0.03019203               -0.03642919                0.12149494               -0.01483792                0.02644830               -0.00219249
               4.93513753               -0.09354015               62.07863135                0.55788288               -0.00324593               -0.03814117                0.12663367               -0.01117287                0.02085780               -0.00186474
               5.93496111               -0.09393367               62.08116474                0.76269450               -0.02537650               -0.03981407                0.13244626               -0.00520065                0.01648900               -0.00193320
               6.93463000               -0.09404381               62.08366276                0.99999999               -0.03645048               -0.04158419                0.13862088               -0.00107400                0.01467279               -0.00171832
               7.93423210               -0.09405287               62.08615940                0.99199634               -0.04146444               -0.04354367                0.14494336                0.00077026                0.01627998               -0.00313450
               8.93380071               -0.09402414               62.08869092                0.99657412               -0.04461849               -0.04518695                0.15146834                0.00113376                0.01490628               -0.00044338
               9.93333973               -0.09399097               62.09116203                0.99882922               -0.04609851               -0.04717119                0.15769295                0.00138205                0.01177915                0.01198703
              -0.06007263                0.92425750               62.06867763                0.61340329               -0.03540768               -0.01988450                0.10571187                0.00836915                0.00409580                0.00903948
               0.93957329                0.91881102               62.07107657                0.01000000               -0.04536037               -0.04482144                0.11149234                0.02373261                0.00938496               -0.00915354
               1.93902016                0.91372684               62.07358499                0.01000000               -0.08436378                0.03111444                0.11689213                0.14798602                0.01880619               -0.01627002
               2.93788602                0.90963201               62.07620461                0.01000000               -0.11906572                0.08565870                0.12093942                0.26058417                0.01935241               -0.02258269
               3.93663885                0.90718265               62.07881479                0.01000000               -0.10599542                0.11759864                0.12417677                0.32957602                0.00915279               -0.02378678
               4.93576611                0.90607844               62.08130215                0.01000000               -0.07389591                0.11004956                0.12821085                0.31939701               -0.00232667               -0.01755438
               5.93516093                0.90566819               62.08371151                0.01000001               -0.05436228                0.13991988                0.13307268                0.19866946               -0.00820947               -0.01158765
               6.93467886                0.90554035               62.08608696                0.28839895               -0.04654835               -0.04210997                0.13847293               -0.00726684               -0.01064130               -0.01316211
               7.93422996                0.90551169               62.08844637                0.87655770               -0.04488823               -0.04325724                0.14402571               -0.00170949               -0.00750004               -0.00855603
               8.93378110                0.90552399               62.09088328                1.00000000               -0.04547894               -0.04485916                0.15005962                0.00012131               -0.00173843               -0.00060618
               9.93332038                0.90553732               62.09335792                0.99445586               -0.04607148               -0.04694990                0.15631181                0.00039541                0.00009009                0.01191297
              -0.05440832                1.92413769               62.07146545                0.39093390               -0.03337274                0.01148876                0.11106320                0.02882720                0.00113157                0.01470633
               0.94525795                1.91826803               62.07371386                0.01000000                0.03409811               -0.08019949                0.11691682                0.14298573                0.00964396               -0.01694427
               1.94627364                1.91468217               62.07613009                0.01000001                0.05158064                0.03980896                0.12308885                0.41225267                0.01459495               -0.03773307
               2.94628957                1.91169542               62.07863806                0.01000000               -0.05512628                0.14432471                0.12020376                0.60762074                0.01888098               -0.04002938
               3.94517112                1.90989891               62.08115694                0.01000000               -0.16248175                0.25906127                0.12257915                0.77902897                0.01436546               -0.03410829
               4.94303993                1.90866084               62.08365731                0.01000001               -0.28492672                0.27840549                0.12578890                0.84568380                0.00359975               -0.02437428
               5.93947258                1.90886473               62.08606400                0.01145229               -0.41993842                0.37690732                0.13007121                0.52505502               -0.01658613               -0.00103742
               6.93464116                1.90511399               62.08828187                0.01617695               -0.26291620                0.19628202                0.13691906                0.24361598               -0.03137296                0.01154106
               7.93421426                1.90508198               62.09062516                0.01000000               -0.04318267                0.18438800                0.14252186                0.23977139               -0.01977838                0.03744661
               8.93377751                1.90507868               62.09307360                0.09168449               -0.04466342               -0.04107322                0.14863813                0.00551374               -0.01289412               -0.00790161
               9.93332099                1.90507003               62.09555436                0.69410344               -0.04565187               -0.04827607                0.15492631                0.00440029               -0.01129877                0.01421904
              -0.04775676                2.92448728               62.07427965                0.36588914               -0.03547111                0.03670865                0.11591784                0.01042083               -0.00151991                0.02064735
               0.95188853                2.91720703               62.07631567                0.01000000                0.07972884               -0.10869837                0.12123671                0.23852533                0.01495030               -0.02507810
               1.95383782                2.91452302               62.07867851                0.01000000                0.14665784               -0.06978742                0.12054067                0.56231258                0.03403370               -0.03767745
               2.95482169                2.91251850               62.08117336                0.01000000                0.07080978                0.04698877                0.12138638                0.79900460                0.04207508               -0.03241805
               3.95525401                2.91236387               62.08382909                0.01198424               -0.05538570                0.12721472                0.12221771                0.92966736                0.03882116               -0.01981554
               4.95371397                2.91164655               62.08636840                0.01000000               -0.30225670                0.26370398                0.12592353                1.08919360                0.03079067                0.00926519
               5.94920888                2.91320633               62.08898019                0.01000001               -0.51900217                0.44059268                0.12942003                1.05120155               -0.00165765                0.06560658
               6.94333393                2.90946599               62.09119745                0.01000000               -0.50740898                0.72066635                0.13440798                1.02598314               -0.01248214                0.13303051
               7.93906070                2.90919945               62.09383159                0.01428256               -0.47153028                0.57822777                0.14126887                0.71733955               -0.06349946                0.13099329
               8.93390332                2.90470253               62.09512073                0.01000000               -0.28175043                0.28431548                0.14732539                0.49958682               -0.07259123                0.13795720
               9.93342569                2.90457180               62.09779775                0.22645153               -0.04776326                0.18993312                0.15471397                0.48572952               -0.00329394                0.15308758
              -0.03963939                3.92487186               62.07711073                0.43230276               -0.03678859                0.01994208                0.12038405               -0.01079129               -0.00327945                0.02477989
               0.95999272                3.91609406               62.07887378                0.01000000                0.09239069               -0.09368152                0.12495459                0.28631250                0.02523545               -0.03020333
               1.96220842                3.91328642               62.08120464                0.01000000                0.22180436               -0.16296314                0.12357291                0.67394586                0.06271590               -0.04750953
               2.96442881                3.91263520               62.08384887                0.01199007                0.12140019               -0.07793469                0.12305559                0.86090769                0.07491882               -0.03312504
               3.96463642                3.91244321               62.08655592                0.01000000               -0.02237312               -0.04407139                0.12544736                1.04370906                0.08555623               -0.01461260
               4.96398134                3.91393492               62.08955994                0.01000001               -0.09796249                0.21108273                0.12853174                1.39834228                0.09978721                0.05500515
               5.96267717                3.91767658               62.09272005                0.01000001               -0.24068158                0.46177361                0.13051881                1.64833944                0.09780342                0.14761851
               6.95916771                3.91952732               62.09588070                0.01207172               -0.46763321                0.78874718                0.13432905                1.47031282                0.03183821                0.20405660
               7.95332451                3.91664654               62.09791814                0.01116916               -0.53854061                0.77632773                0.13994721                1.04946268               -0.02135639                0.24034031
               8.94839690                3.91076499               62.10022842                0.01000000               -0.50137281                1.00905961                0.14860599                1.00571923                0.01337719                0.33380195
               9.94329705                3.90886869               62.10277676                0.26016846               -0.50998478                0.77331545                0.15787271                0.83271468                0.04535297                0.30655586
              -0.03041698                4.92488612               62.07995554                0.55643361               -0.03827999               -0.01104480                0.12534989               -0.00736744               -0.00352533                0.02720257
               0.96920022                4.91533340               62.08143077                0.01000000                0.05962854               -0.06500676                0.12920761                0.26528057                0.03133761               -0.03032103
               1.97077559                4.91126376               62.08360133                0.01000001                0.18414145               -0.24753021                0.12789379                0.69620765                0.08990702               -0.07324927
               2.97288305                4.91095981               62.08643081                0.01000000                0.20264410               -0.31148141                0.12781114                0.95532897                0.12387014               -0.08116540
               3.97482848                4.91148245               62.08945213                0.01000001                0.17821972               -0.13123357                0.13006778                1.32479756                0.16907589               -0.01224590
               4.97644745                4.91586820               62.09324677                0.01000001                0.08773971                0.14156824                0.13145183                1.78592090                0.22111976                0.09622006
               5.97658327                4.92244181               62.09742782                0.01196767               -0.13386081                0.32389747                0.13500490                1.76109716                0.17816763                0.15760776
               6.97377023                4.92524093               62.10049762                0.01029044               -0.38854952                0.56633361                0.14035230                1.48034254                0.11431830                0.23942581
               7.96881228                4.92472600               62.10353997                0.01000000               -0.59873395                1.10632697                0.14667574                1.40592796                0.13039404                0.39413289
               8.96179555                4.92488372               62.10693927                0.01000000               -0.74698496                1.61398342                0.15656832                1.04870546                0.11377858                0.48345928
               9.95387258                4.92003810               62.10946297                0.30230302               -0.79229707                1.36304583                0.16919279                0.74410502                0.08205390                0.43885866
              -0.02068129                5.92465097               62.08281979                0.76168455               -0.03980140               -0.02950690                0.13083496               -0.00272203               -0.00412443                0.02840053
               0.97892069                5.91479392               62.08400142                0.01000001                0.05937256               -0.04968848                0.13416024                0.16563397                0.02090272               -0.02854908
               1.98050616                5.90833582               62.08568204                0.01145059                0.21980022               -0.34559045                0.13370228                0.46189864                0.08233394               -0.13438470
               2.98331670                5.90640557               62.08822836                0.01000001                0.28589118               -0.48519905                0.13436311                0.96562760                0.20437545               -0.16097924
               3.98622398                5.90981854               62.09237666                0.01000001                0.27118519               -0.23377050                0.13450651                1.52610388                0.32438683               -0.01365167
               4.98874040                5.91676628               62.09741738                0.01196970                0.11512012               -0.05044993                0.13729014                1.74127797                0.32096086                0.05226097
               5.98852639                5.92415453               62.10159184                0.01026099               -0.11250176                0.16075515                0.14299824                1.74198193                0.29179617                0.15178929
               6.98649037                5.93085399               62.10615863                0.01000000               -0.33630539                0.70509752                0.15013341                1.86736835                0.33689515                0.36118856
               7.98180028                5.93877308               62.11130284                0.01000000               -0.62157292                1.50420063                0.15943375                1.86851920                0.34282965                0.58728939
               8.97405891                5.94304466               62.11589420                0.01266084               -0.69649437                1.64290630                0.17877721                1.16431555                0.20651995                0.53757816
               9.96787039                5.93612961               62.11805497                0.36768753               -0.61885188                1.32383857                0.18696742                0.55397883                0.10399111                0.41654339
              -0.01075733                6.92429598               62.08568867                0.99999999               -0.04146148               -0.03796101                0.13662555               -0.00006312               -0.00384755                0.03000597
               0.98882805                6.91433963               62.08659061                0.29426537               -0.04203750               -0.04470408                0.13959482               -0.00334141               -0.03039204               -0.02765120
               1.98840192                6.90435195               62.08696060                0.01618480                0.09424144               -0.22117524                0.14210689                0.23848352                0.05173171               -0.12156497
               2.99071288                6.90125583               62.08950250                0.01000000                0.32939614               -0.41117318                0.14209070                0.89081241                0.32958709               -0.11280843
               3.99498984                6.90680704               62.09543940                0.01207646                0.31120652               -0.40273551                0.14018292                1.43713848                0.44838718               -0.10153881
               4.99693701                6.91485920               62.10044409                0.01029043                0.11726807               -0.20098265                0.14457607                1.59141217                0.44733384               -0.00559130
               5.99733520                6.92565691               62.10643571                0.01000000               -0.02189807                0.17773396                0.15298708                1.94038430                0.55198962                0.23708240
               6.99649905                6.93934288               62.11366624                0.01000000               -0.16716046                0.92576525                0.16346683                2.32960897                0.64261189                0.52978192
               7.99399199                6.95481002               62.12151837                0.01265192               -0.43868619                1.20297307                0.18391554                1.79784966                0.42257433                0.52428787
               8.98772533                6.95774185               62.12416085                0.01000002               -0.76048685                1.60204333                0.18533482                0.63118763                0.09433309                0.67180772
               9.97878226                6.94651488               62.12515966                0.49130784               -0.89430711                1.74071602                0.18723231                0.20224474                0.03390823                0.54841737
              -0.00076984                7.92389175               62.08858738                0.99148736               -0.04322604               -0.04171394                0.14245597                0.00087717               -0.00753794                0.03580160
               0.99879790                7.91389984               62.08917399                0.89497566               -0.04352661               -0.04436303                0.14519078               -0.00061212               -0.01949560               -0.01808955
               1.99835963                7.90391231               62.08952065                0.01000000               -0.00600199               -0.04460598                0.14777071                0.21100885                0.09998204               -0.04514432
               2.99867786                7.89818211               62.09249782                0.01428509                0.15018755               -0.38587559                0.14993568                0.75101896                0.30118798               -0.18617710
               4.00136338                7.90176383               62.09683950                0.01117110                0.15204564               -0.33259877                0.14583909                1.17096204                0.49775346               -0.12828730
               5.00171877                7.91274663               62.10369180                0.01000000                0.07435061               -0.14754837                0.15155669                1.50299123                0.71938039                0.06732132
               6.00285039                7.92770921               62.11262127                0.01000000                0.11053339                0.19810795                0.16546159                1.98455889                0.89711238                0.31983444
               7.00392944                7.94936929               62.12320657                0.01263233               -0.17460435                0.55632170                0.19244736                1.96862626                0.71298326                0.37332832
               7.99935830                7.96283254               62.12842957                0.01000002               -0.44758194                1.19464185                0.19311645                1.57787021                0.61274593                0.58798984
               8.99497780                7.97508553               62.13689669                0.42949889               -0.24945367                0.83529531                0.19966379                0.97785117                0.39346810                0.42263935
               9.99436923                7.97094393               62.13746483                0.95941495               -0.06085707                1.18835501                0.20701632                0.57099799               -0.00201794                0.39165875
               0.00924402                8.92346170               62.09157359                0.99663865               -0.04487738               -0.04411030                0.14834174                0.00100784               -0.00074441                0.03356915
               1.00879525                8.91345237               62.09195167                0.99999999               -0.04520958               -0.04546521                0.15093171                0.00010859               -0.00077024               -0.00405675
               2.00833983                8.90345983               62.09232928                0.11198258               -0.04567508               -0.04612114                0.15351451                0.00268410               -0.01514463               -0.02965061
               3.00788174                8.89353832               62.09242222                0.01000000               -0.22476348               -0.25633874                0.15731995                0.79168623                0.32627154               -0.17770395
               4.00384456                8.90015506               62.09963297                0.01000000               -0.34151451                0.04259291                0.15704155                0.94849247                0.74740844               -0.00136104
               5.00105145                8.91190823               62.10837415                0.01000000               -0.17204215                0.02025717                0.16125521                0.99525034                0.93495618                0.11701444
               6.00040372                8.92961907               62.11936604                0.01263776               -0.01516032                0.11347494                0.19133745                1.11691679                0.91686235                0.24749959
               7.00074825                8.95046932               62.12779943                0.01000002               -0.02852753               -0.01895732                0.20016210                1.61250713                1.00743500                0.02746278
               7.99983317                8.97870285               62.14076357                0.43014121               -0.07886456                0.75885042                0.21779761                1.43821248                0.62065403                0.40384152
               8.99917096                8.97444776               62.14125995                0.98577223               -0.06738790               -0.06768424                0.22591926               -0.00027421               -0.00260021                0.00300568
               9.99848541                8.97028198               62.14175848                0.99834961               -0.06855495               -0.07018086                0.23342946               -0.00403112               -0.00274563               -0.00656065
               0.01926899                9.92300954               62.09442830                0.99881563               -0.04670486               -0.04521642                0.15411766                0.00059715                0.02782216                0.02701614
               1.01880195                9.91299054               62.09481535                0.99525887               -0.04708176               -0.04618281                0.15672441               -0.00031268                0.02778067                0.00019379
               2.01832736                9.90298989               62.09520205                0.71145489               -0.04927963               -0.04699422                0.15932074                0.00199285                0.03664832               -0.02659484
               3.01781635                9.89305533               62.09576895                0.22871120               -0.81820246               -0.04829831                0.16347475                0.97475070                0.40552458               -0.00700549
               4.00196331                9.90261568               62.10353613                0.26100527               -1.28282907                0.24606238                0.16899670                0.81669715                0.81016571                0.05857724
               4.99215977                9.91315177               62.11269387                0.30095231               -0.76678325                0.12435395                0.17862085                0.47898288                0.98646652                0.10187408
               5.98662765                9.92997871               62.12408014                0.36548017               -0.25319866                0.03596391                0.21115463                0.41431162                0.86266609                0.14668881
               6.98709580                9.94899015               62.13078503                0.48860894                0.87582348               -0.14791680                0.20731018                1.03629693                1.01128334               -0.06209296
               8.00414411                9.97800955               62.14504736                0.96129147                0.81486977               -0.06933077                0.24487242                1.66817960                0.69439982                0.00160632
               9.00339319                9.97373184               62.14561195                0.99834955               -0.07619741               -0.07159136                0.25253521               -0.00123787                0.00675323                0.00275399
              10.00262017                9.96954031               62.14611091                0.99214032               -0.07730277               -0.07416628                0.26013745               -0.00567692                0.00387850               -0.00374269
              -0.06795519               -0.07816532               63.06694678                0.89107837               -0.02756876               -0.02747361                0.09997257                0.00262381               -0.00523442                0.00576225
               0.93176912               -0.08363408               63.06940989                0.61324983               -0.01887442               -0.03554323                0.10592344                0.00896199               -0.00476380               -0.00444963
               1.93166732               -0.08881535               63.07187621                0.39267353                0.01688352               -0.03318254                0.11195906                0.03127171                0.00671020               -0.00221776
               2.93210679               -0.09290141               63.07453551                0.36912794                0.04816820               -0.03487196                0.11702584                0.01008659                0.02339776               -0.00252608
               3.93263068               -0.09526555               63.07725241                0.43522710                0.03244186               -0.03628953                0.12136317               -0.01495027                0.02579632               -0.00228351
               4.93275563               -0.09623784               63.07989690                0.55811841               -0.00239688               -0.03804310                0.12646200               -0.01120215                0.02083396               -0.00193207
               5.93258275               -0.09650333               63.08248867                0.76269467               -0.02519925               -0.03974982                0.13232942               -0.00514147                0.01693814               -0.00201480
               6.93225164               -0.09648484               63.08504905                0.99999999               -0.03648922               -0.04156038                0.13862294               -0.00099654                0.01534878               -0.00179665
               7.93185296               -0.09636735               63.08760954                0.99210658               -0.04155385               -0.04355325                0.14506977                0.00081406                0.01710931               -0.00328508
               8.93142057               -0.09621382               63.09020690                0.99620309               -0.04472064               -0.04524585                0.15170755                0.00115767                0.01568325               -0.00043546
               9.93095855               -0.09605659               63.09274095                0.99842970               -0.04620174               -0.04727082                0.15806285                0.00141373                0.01241963                0.01265796
              -0.06246019                0.92155995               63.06973383                0.61287714               -0.03560541               -0.01891860                0.10553046                0.00905692                0.00394830                0.00881593
               0.93718376                0.91601049               63.07219121                0.01117549               -0.04630571               -0.04574090                0.11144321                0.02580948                0.00900440               -0.00913322
               1.93661370                0.91085282               63.07475396                0.01000000               -0.08755006                0.02419957                0.11691000                0.14697033                0.01732937               -0.01363653
               2.93543276                0.90674987               63.07741346                0.01000000               -0.12321506                0.08464966                0.12083564                0.26698968                0.01645894               -0.02535597
               3.93414940                0.90437155               63.08005516                0.01000000               -0.10851319                0.11474934                0.12389167                0.33846348                0.00620416               -0.02578534
               4.93326249                0.90338173               63.08258253                0.01000000               -0.07472844                0.10526903                0.12785400                0.32788011               -0.00435569               -0.01944082
               5.93265483                0.90309917               63.08504074                0.01000001               -0.05444023                0.13566056                0.13276920                0.20470096               -0.00942323               -0.01336324
               6.93217369                0.90309956               63.08747087                0.28807930               -0.04646179               -0.04202596                0.13830844               -0.00705716               -0.01142391               -0.01392452
               7.93172559                0.90319711               63.08988662                0.87649858               -0.04484629               -0.04324849                0.14402947               -0.00162637               -0.00793657               -0.00898359
               8.93127676                0.90333372               63.09238459                1.00000000               -0.04550652               -0.04490888                0.15020860                0.00012813               -0.00182502               -0.00060077
               9.93081546                0.90347070               63.09492243                0.99403328               -0.04613007               -0.04703689                0.15659225                0.00040685                0.00010843                0.01258608
              -0.05667513                1.92145631               63.07257543                0.39155265               -0.03324360                0.01423812                0.11092813                0.03072912                0.00103429                0.01428301
               0.94299244                1.91545110               63.07488314                0.01000000                0.02712327               -0.08318245                0.11694122                0.14200423                0.01166740               -0.01769531
               1.94386734                1.91166864               63.07740080                0.01000001                0.04677099                0.03619710                0.11841035                0.42244615                0.00416653               -0.04639897
               2.94392786                1.90879159               63.07983160                0.01000000               -0.05496198                0.14017255                0.12013471                0.62762285                0.00966426               -0.04402636
               3.94276810                1.90702943               63.08238491                0.01000000               -0.16711242                0.25343613                0.12284868                0.79659115                0.01030220               -0.03889930
               4.94058561                1.90586754               63.08491591                0.01000001               -0.29045825                0.26903960                0.12614901                0.86617283               -0.00010707               -0.02834528
               5.93695893                1.90620988               63.08736449                0.01145838               -0.42865252                0.37083436                0.13017475                0.54421041               -0.01828217               -0.00504105
               6.93201256                1.90267465               63.08964959                0.01617475               -0.26863313                0.19452342                0.13665464                0.25620344               -0.03206505                0.00965675
               7.93158627                1.90276768               63.09204984                0.01000000               -0.04315059                0.18313672                0.14244251                0.24551617               -0.02074996                0.03689888
               8.93114955                1.90288800               63.09456012                0.09175843               -0.04467660               -0.04111842                0.14869773                0.00573469               -0.01355646               -0.00778217
               9.93069274                1.90300267               63.09710440                0.69381627               -0.04568071               -0.04844552                0.15511686                0.00457672               -0.01189483                0.01551754
              -0.04983518                2.92184471               63.07543795                0.36691843               -0.03533040                0.03994957                0.11572947                0.01105551               -0.00165154                0.01994593
               0.94981152                2.91434684               63.07752781                0.01000000                0.07786568               -0.11232922                0.12119390                0.24573998                0.01135445               -0.02704511
               1.95172213                2.91157676               63.07987474                0.01000000                0.14064520               -0.06751463                0.12043622                0.58285672                0.02837275               -0.04517171
               2.95262442                2.90955332               63.08239011                0.01000000                0.06415659                0.04251048                0.12159366                0.82009785                0.03585404               -0.03658025
               3.95300527                2.90944027               63.08505410                0.01198798               -0.06094603                0.12121960                0.12307790                0.95178259                0.03322377               -0.02348506
               4.95140550                2.90876252               63.08763132                0.01000000               -0.31366674                0.25733262                0.12692047                1.11712188                0.02599761                0.00599129
               5.94673193                2.91051586               63.09027518                0.01000001               -0.53327693                0.43456256                0.12988968                1.08575783               -0.00670210                0.06241110
               6.94073996                2.90699003               63.09253995                0.01000000               -0.51546877                0.71114466                0.13413494                1.05834405               -0.01595743                0.13062740
               7.93642256                2.90685985               63.09524411                0.01438892               -0.47917478                0.57097192                0.14115645                0.74106949               -0.06609159                0.12874723
               8.93115647                2.90251136               63.09659516                0.01000001               -0.28724428                0.26495841                0.14768214                0.52749205               -0.07332587                0.13970440
               9.93067767                2.90250179               63.09934613                0.22705312               -0.04787956                0.15494142                0.15503453                0.52268187               -0.00347594                0.15775910
              -0.04145827                3.92225530               63.07831312                0.43278887               -0.03665485                0.02160038                0.12007648               -0.01065644               -0.00331842                0.02412110
               0.95817518                3.91320452               63.08012248                0.01000000                0.08881261               -0.09551003                0.12478571                0.29615162                0.02236134               -0.03230211
               1.96031798                3.91031835               63.08244255                0.01000000                0.21455606               -0.16577069                0.12386110                0.69317645                0.05595933               -0.04947477
               2.96246630                3.90964180               63.08508153                0.01198780                0.11382850               -0.08150241                0.12390881                0.88368547                0.06872664               -0.03633559
               3.96259455                3.90945382               63.08781455                0.01000000               -0.03069229               -0.05138914                0.12663348                1.07206107                0.08020396               -0.01685026
               4.96185246                3.91101419               63.09084959                0.01000001               -0.10739863                0.20492544                0.12976400                1.43347064                0.09333903                0.05183480
               5.96044658                3.91490113               63.09402860                0.01000001               -0.25085049                0.45133028                0.13160946                1.69217142                0.09037915                0.14535032
               6.95683545                3.91689754               63.09722450                0.01209549               -0.47801238                0.77367373                0.13466433                1.51768080                0.02473772                0.20358088
               7.95088633                3.91418712               63.09931452                0.01124653               -0.53890003                0.75462568                0.13875251                1.08576961               -0.02718442                0.24162252
               8.94605745                3.90818717               63.10172102                0.01000000               -0.48604103                0.96758253                0.14980447                1.03456639                0.00842304                0.33913047
               9.94116551                3.90610150               63.10437910                0.26057577               -0.48919352                0.71275159                0.16254418                0.86440995                0.04152285                0.30535328
              -0.03194673                4.92227672               63.08120730                0.55629576               -0.03817624               -0.01071400                0.12497656               -0.00713423               -0.00352217                0.02697693
               0.96767151                4.91243664               63.08272173                0.01000000                0.05475565               -0.06526396                0.12897812                0.27457415                0.02884543               -0.03171243
               1.96914838                4.90826135               63.08488130                0.01000001                0.17455726               -0.25182761                0.12832712                0.71810390                0.08411631               -0.07440204
               2.97116265                4.90792328               63.08771182                0.01000000                0.19628542               -0.32101535                0.12874549                0.98346484                0.11834347               -0.08240289
               3.97307409                4.90841249               63.09075638                0.01000001                0.17324758               -0.14058831                0.13134258                1.35911567                0.16346498               -0.01512547
               4.97462760                4.91286103               63.09456599                0.01000001                0.08089616                0.13118629                0.13303047                1.82911052                0.21491429                0.09261721
               5.97469201                4.91954246               63.09878372                0.01198529               -0.14100046                0.31075136                0.13678807                1.80942810                0.17277577                0.15647403
               6.97180760                4.92246350               63.10190618                0.01032706               -0.39218504                0.54671025                0.14169398                1.52681608                0.10960761                0.24181047
               7.96684831                4.92195236               63.10501586                0.01000000               -0.59370908                1.07092362                0.14847606                1.44202594                0.12842019                0.40154621
               8.95993341                4.92186301               63.10852509                0.01000000               -0.73555452                1.57924047                0.15973889                1.07387833                0.11795105                0.49688175
               9.95213722                4.91675682               63.11120078                0.30236768               -0.77961900                1.31565546                0.17797709                0.76812014                0.08916241                0.44719431
              -0.02192079                5.92204102               63.08412643                0.76109261               -0.03971779               -0.02960496                0.13046626               -0.00247411               -0.00412588                0.02851301
               0.97768203                5.91189924               63.08534208                0.01000001                0.05571043               -0.04943903                0.13396961                0.17212922                0.01909497               -0.02921400
               1.97919342                5.90528179               63.08702039                0.01145615                0.21512135               -0.35369848                0.13410016                0.48111866                0.07791217               -0.13336272
               2.98198446                5.90322149               63.08957422                0.01000001                0.28228468               -0.49836683                0.13512803                0.99733907                0.19899682               -0.16148475
               3.98483911                5.90664206               63.09372398                0.01000001                0.26601162               -0.24555675                0.13559799                1.56581120                0.31883211               -0.01825562
               4.98730469                5.91363792               63.09879341                0.01198908                0.10967773               -0.06289037                0.13874987                1.78639615                0.31746630                0.04776936
               5.98703267                5.92111616               63.10302765                0.01029734               -0.11714105                0.14510155                0.14485849                1.78563510                0.28981306                0.15068958
               6.98496187                5.92783174               63.10767069                0.01000000               -0.33526597                0.67906129                0.15259747                1.90146691                0.33665040                0.36339386
               7.98032735                5.93560559               63.11291519                0.01000000               -0.61156572                1.47259032                0.16324170                1.90129428                0.35210674                0.59732534
               8.97273056                5.93977198               63.11772835                0.01281810               -0.67935296                1.60079502                0.18695533                1.18490338                0.21970534                0.54793005
               9.96674029                5.93241461               63.11999020                0.36767097               -0.59902680                1.27398616                0.19771966                0.56280732                0.11161259                0.42278582
              -0.01171264                6.92168462               63.08705355                0.99999999               -0.04140416               -0.03807152                0.13632046                0.00008967               -0.00386456                0.03025196
               0.98787332                6.91144786               63.08798618                0.29350196               -0.04194303               -0.04448309                0.13952139               -0.00282721               -0.03059645               -0.02790452
               1.98744850                6.90118738               63.08838294                0.01617809                0.09379241               -0.22674940                0.14240836                0.24992735                0.05001164               -0.12041341
               2.98974917                6.89795594               63.09092495                0.01000000                0.32626915               -0.41996376                0.14265154                0.91732637                0.32403131               -0.11269897
               3.99397389                6.90350135               63.09683740                0.01209305                0.30661274               -0.41633418                0.14023763                1.47702418                0.44415810               -0.10917354
               4.99588143                6.91160322               63.10188753                0.01032684                0.11185027               -0.21307200                0.14501831                1.63246224                0.44805127               -0.01284763
               5.99621089                6.92244450               63.10796925                0.01000000               -0.02669599                0.16220390                0.15454488                1.97265345                0.55539227                0.23451692
               6.99534751                6.93604473               63.11531121                0.01000000               -0.16384655                0.90571933                0.16618425                2.35604061                0.65135455                0.53697602
               7.99293396                6.95140417               63.12337932                0.01279389               -0.42625208                1.16914282                0.18867750                1.80566807                0.42671972                0.52458461
               8.98682246                6.95387891               63.12604616                0.01003478               -0.74129182                1.54280651                0.19360727                0.62300417                0.09210274                0.67202332
               9.97810812                6.94223654               63.12707329                0.49135439               -0.87143397                1.70066710                0.19998056                0.18591717                0.03234768                0.56033419
              -0.00144547                7.92127959               63.09001089                0.99152535               -0.04318049               -0.04176981                0.14221187                0.00092620               -0.00753632                0.03607224
               0.99812273                7.91100957               63.09062623                0.89468746               -0.04353253               -0.04427768                0.14526647               -0.00044711               -0.01954515               -0.01816614
               1.99768388                7.90074681               63.09100036                0.01000000               -0.00528572               -0.04473242                0.14823571                0.21523019                0.09947438               -0.04532336
               2.99801701                7.89482221               63.09399741                0.01438921                0.15242166               -0.39305919                0.14988656                0.76496183                0.29726789               -0.18558501
               4.00073232                7.89831537               63.09828060                0.01124853                0.14968914               -0.33895652                0.14337211                1.19589098                0.49423454               -0.13698735
               5.00101080                7.90937648               63.10519743                0.01000000                0.06559572               -0.15580661                0.15035240                1.53601397                0.72922879                0.05517844
               6.00204423                7.92436024               63.11427217                0.01000000                0.10561074                0.19190357                0.16595434                2.01098083                0.91565910                0.32217389
               7.00312301                7.94594613               63.12514311                0.01277775               -0.17188483                0.54088168                0.19569170                1.96908924                0.72075029                0.37406472
               7.99860653                7.95898844               63.13037264                0.01000002               -0.43823716                1.14468370                0.19606893                1.55099525                0.60792107                0.58506758
               8.99435827                7.97062811               63.13890119                0.43001203               -0.24315855                0.80544658                0.20130587                0.96130797                0.39262467                0.41552928
               9.99374336                7.96642795               63.13954769                0.96032987               -0.06149059                1.17616889                0.20956302                0.57066218               -0.00211664                0.38718213
               0.00884593                8.92084922               63.09305617                0.99623637               -0.04487588               -0.04411187                0.14813755                0.00101715               -0.00068421                0.03381451
               1.00839717                8.91056230               63.09346180                0.99999999               -0.04527298               -0.04548068                0.15110482                0.00011267               -0.00070524               -0.00404583
               2.00794047                8.90029273               63.09386688                0.11322027               -0.04586645               -0.04628377                0.15406517                0.00270618               -0.01439006               -0.02981116
               3.00747984                8.89009476               63.09400163                0.01000725               -0.23015129               -0.26075610                0.15870710                0.80527658                0.32437856               -0.17673088
               4.00333744                8.89672222               63.10118605                0.01000000               -0.34614992                0.04575511                0.15056506                0.96282491                0.76220727               -0.01475948
               5.00055684                8.90848709               63.10995160                0.01000000               -0.17382925                0.01939513                0.15554845                1.01769743                0.96335089                0.10647369
               5.99986086                8.92628257               63.12127544                0.01278351               -0.02278784                0.11484777                0.19199092                1.12753925                0.93901840                0.25411942
               7.00010108                8.94686236               63.12980311                0.01000002               -0.02944868               -0.03262802                0.20148598                1.58067388                1.01574226                0.01634668
               7.99927188                8.97429784               63.14294201                0.42896073               -0.07459817                0.73099200                0.21771146                1.40775210                0.62556362                0.40269741
               8.99860912                8.96998784               63.14352011                0.98618264               -0.06750922               -0.06774718                0.22615211               -0.00022714               -0.00250460                0.00298457
               9.99792170                8.96575992               63.14409844                0.99872130               -0.06874218               -0.07049262                0.23445540               -0.00385434               -0.00268834               -0.00662521
               0.01914872                9.92039736               63.09596900                0.99844038               -0.04672468               -0.04518668                0.15398651                0.00053977                0.02809013                0.02723318
               1.01868147                9.91009996               63.09638378                0.99488690               -0.04715839               -0.04623409                0.15697001               -0.00038077                0.02805304                0.00022254
               2.01820555                9.89982113               63.09679811                0.71234876               -0.04942095               -0.04716019                0.15994373                0.00186506                0.03772435               -0.02675906
               3.01769305                9.88960709               63.09740919                0.22942767               -0.83045355               -0.04876644                0.16470987                0.99178881                0.40671514               -0.00706834
               4.00159648                9.89923048               63.10520846                0.26154272               -1.29443256                0.25082518                0.14690606                0.83376842                0.85625530                0.04115018
               4.99180440                9.90976438               63.11443220                0.30113925               -0.76883692                0.12772912                0.17335552                0.49609210                1.02483120                0.10076041
               5.98621974                9.92665719               63.12619017                0.36558022               -0.25415943                0.03746259                0.21159470                0.41234804                0.88117482                0.15206962
               6.98672121                9.94529357               63.13285081                0.48867273                0.87081791               -0.15687934                0.20680443                1.00956762                1.02653345               -0.07308372
               8.00363610                9.97360828               63.14748437                0.95995357                0.80852174               -0.06895585                0.24263746                1.63540176                0.70905019                0.00170967
               9.00289165                9.96927317               63.14812983                0.99872982               -0.07569939               -0.07146693                0.25107543               -0.00125658                0.00688839                0.00268181
              10.00212211                9.96501809               63.14870810                0.99233195               -0.07695362               -0.07418249                0.25935370               -0.00546595                0.00387680               -0.00371314
              -0.07049959               -0.08092347               64.06794524                0.89055336               -0.02724690               -0.02713540                0.09972522                0.00274624               -0.00506256                0.00555925
               0.92922794               -0.08648718               64.07046857                0.61294006               -0.01784521               -0.03577243                0.10581916                0.00970578               -0.00452512               -0.00437941
               1.92914350               -0.09173998               64.07299594                0.39367110                0.01987527               -0.03304953                0.11199699                0.03325143                0.00661520               -0.00220293
               2.92962544               -0.09582416               64.07570577                0.37059634                0.05185314               -0.03470370                0.11702978                0.01064397                0.02256093               -0.00262507
               3.93018056               -0.09810422               64.07846537                0.43610296                0.03462537               -0.03613372                0.12122617               -0.01496438                0.02491898               -0.00236756
               4.93031795               -0.09895004               64.08116059                0.55831988               -0.00164228               -0.03793442                0.12626732               -0.01114739                0.02066415               -0.00198774
               5.93014772               -0.09907810               64.08381133                0.76260270               -0.02509176               -0.03967949                0.13218177               -0.00502684                0.01730978               -0.00208593
               6.92981611               -0.09892338               64.08643521                0.99999999               -0.03656388               -0.04153029                0.13858783               -0.00089287                0.01597273               -0.00186655
               7.92941644               -0.09867274               64.08906079                0.99222184               -0.04165733               -0.04355462                0.14515616                0.00086387                0.01788135               -0.00341831
               8.92898297               -0.09838824               64.09172507                0.99580755               -0.04482113               -0.04530012                0.15190025                0.00118078                0.01640364               -0.00041731
               9.92852002               -0.09810077               64.09432329                0.99803058               -0.04629495               -0.04736479                0.15838422                0.00143384                0.01301436                0.01330167
              -0.06490843                0.91880517               64.07078823                0.61244964               -0.03583198               -0.01786468                0.10535578                0.00981966                0.00377848                0.00855095
               0.93473325                0.91315510               64.07330543                0.01111396               -0.04735312               -0.04676519                0.11140768                0.02811746                0.00856533               -0.00910504
               1.93414451                0.90792952               64.07592319                0.01000000               -0.09096245                0.01866966                0.11694059                0.14693643                0.01564809               -0.01966988
               2.93291400                0.90382881               64.07862132                0.01000000               -0.12753220                0.08311994                0.12073878                0.27391093                0.01322711               -0.02725196
               3.93159386                0.90153444               64.08129263                0.01000000               -0.11102930                0.11131049                0.12360116                0.34770491                0.00295902               -0.02750178
               4.93069341                0.90067062               64.08385923                0.01000000               -0.07548715                0.09975916                0.12748423                0.33654647               -0.00654568               -0.02075267
               5.93008412                0.90052511               64.08636690                0.01000001               -0.05444541                0.13037799                0.13245580                0.21081196               -0.01067715               -0.01475893
               6.92960451                0.90066132               64.08885312                0.28763243               -0.04633051               -0.04192883                0.13813998               -0.00674960               -0.01218199               -0.01463608
               7.92915751                0.90089172               64.09132696                0.87636678               -0.04478576               -0.04323961                0.14404212               -0.00151303               -0.00834213               -0.00936961
               8.92870879                0.90115876               64.09388745                1.00000000               -0.04553110               -0.04496455                0.15037073                0.00013588               -0.00190267               -0.00058296
               9.92824689                0.90142558               64.09648977                0.99360821               -0.04619035               -0.04712769                0.15688486                0.00040740                0.00012676                0.01323295
              -0.05900306                1.91871923               64.07368401                0.39232922               -0.03310047                0.01716699                0.11079682                0.03277448                0.00092620                0.01376592
               0.94066594                1.91257752               64.07605269                0.01000000                0.02057915               -0.08641571                0.11698029                0.14298767                0.00492612               -0.01852309
               1.94140852                1.90863341               64.07849830                0.01000001                0.04164015                0.03241580                0.11381333                0.43295940                0.00604432               -0.04277753
               2.94149874                1.90583824               64.08104076                0.01000000               -0.05578353                0.13540803                0.12036366                0.64669957                0.00969914               -0.04861737
               3.94029285                1.90412199               64.08361392                0.01000000               -0.17202628                0.24650445                0.12342796                0.81451610                0.00600016               -0.04250408
               4.93805821                1.90304514               64.08618029                0.01000001               -0.29597993                0.25810374                0.12688575                0.88634484               -0.00377050               -0.03121661
               5.93437325                1.90352946               64.08866750                0.01145371               -0.43718498                0.36326698                0.13071725                0.56374918               -0.02050806               -0.00849892
               6.92931451                1.90023804               64.09101496                0.01617094               -0.27422584                0.19211555                0.13643955                0.26871782               -0.03298028                0.00790433
               7.92888874                1.90046247               64.09347401                0.01000000               -0.04313483                0.18090008                0.14243283                0.25002876               -0.02163592                0.03637046
               8.92845182                1.90071247               64.09604755                0.09200710               -0.04471086               -0.04115200                0.14883021                0.00600999               -0.01416613               -0.00742869
               9.92799452                1.90095668               64.09865670                0.69371876               -0.04572967               -0.04866522                0.15538033                0.00478794               -0.01244716                0.01690051
              -0.05196952                2.91914851               64.07659424                0.36809267               -0.03516552                0.04328488                0.11553951                0.01175586               -0.00178450                0.01906814
               0.94767882                2.91142679               64.07873955                0.01000000                0.07562464               -0.11617115                0.12116803                0.25369529                0.00851198               -0.02920186
               1.94954297                2.90857784               64.08108724                0.01000000                0.13402934               -0.06715235                0.12078467                0.60351094                0.02181987               -0.04326906
               2.95035941                2.90653697               64.08360524                0.01000000                0.05671555                0.03742693                0.12223477                0.84096448                0.03094098               -0.03902486
               3.95067728                2.90646453               64.08629064                0.01198420               -0.06732868                0.11409646                0.12467876                0.97376558                0.02857195               -0.02611746
               4.94901284                2.90583269               64.08890681                0.01000000               -0.32555414                0.24959012                0.12863877                1.14508909                0.02109276                0.00362928
               5.94416620                2.90779045               64.09157798                0.01000001               -0.54834914                0.42727938                0.13108645                1.12037646               -0.01258238                0.06012402
               6.93804585                2.90450363               64.09388015                0.01000000               -0.52412714                0.69973298                0.13435938                1.08906534               -0.02083346                0.12882422
               7.93368366                2.90450972               64.09665472                0.01450414               -0.48555364                0.56223839                0.14112581                0.76138294               -0.06987665                0.12535505
               8.92833478                2.90033572               64.09807438                0.01036898               -0.29147128                0.24526002                0.14824310                0.54957596               -0.07365741                0.14215578
               9.92785423                2.90045228               64.10089844                0.22771594               -0.04805500                0.10822171                0.15554966                0.55249650               -0.00363599                0.16454782
              -0.04332449                3.91958493               64.07951226                0.43331173               -0.03649919                0.02319163                0.11974991               -0.01042106               -0.00334492                0.02326049
               0.95631052                3.91025410               64.08136949                0.01000000                0.08465267               -0.09736161                0.12462976                0.30648695                0.01957715               -0.03459306
               1.95836856                3.90729036               64.08368187                0.01000000                0.20604091               -0.16899816                0.12450133                0.71287707                0.05007587               -0.05149600
               2.96043133                3.90658678               64.08632704                0.01198783                0.10519402               -0.08589552                0.12556108                0.90644933                0.06334220               -0.03813932
               3.96047244                3.90640392               64.08908859                0.01000000               -0.03986274               -0.05970121                0.12870015                1.10082440                0.07527598               -0.01826604
               4.95963408                3.90803695               64.09215522                0.01000001               -0.11812986                0.19720162                0.13201911                1.46883430                0.08674670                0.04964730
               5.95810984                3.91207505               64.09535223                0.01000001               -0.26287643                0.43908936                0.13375253                1.73640728                0.08168098                0.14447927
               6.95437655                3.91423270               64.09857398                0.01211712               -0.49127694                0.75636626                0.13605271                1.56582880                0.01390530                0.20471596
               7.94828431                3.91170724               64.10069319                0.01133046               -0.54378881                0.73232707                0.13813042                1.12315417               -0.03859601                0.24351866
               8.94350077                3.90561767               64.10322451                0.01000000               -0.47364859                0.92391514                0.14918379                1.05243709               -0.00731508                0.34811726
               9.93881133                3.90312111               64.10602764                0.26100247               -0.46894408                0.64593086                0.15950545                0.87285504                0.02607462                0.28612156
              -0.03351628                4.91961234               64.08245507                0.55609694               -0.03805912               -0.01049745                0.12456570               -0.00680908               -0.00350241                0.02659361
               0.96610313                4.90947955               64.08401034                0.01000000                0.04920545               -0.06544512                0.12875513                0.28418244                0.02673409               -0.03320467
               1.96746783                4.90519787               64.08616787                0.01000001                0.16358556               -0.25617221                0.12917811                0.74015991                0.07898681               -0.07520898
               2.96937484                4.90481906               64.08900572                0.01000000                0.18878883               -0.33120187                0.13047553                1.01171711                0.11329391               -0.08313787
               3.97124361                4.90527051               64.09207898                0.01000001                0.16717753               -0.15157590                0.13372663                1.39333303                0.15803419               -0.01752839
               4.97271839                4.90977672               64.09590738                0.01000001                0.07274899                0.11815901                0.13601965                1.87268537                0.20868156                0.09003107
               5.97269859                4.91657223               64.10016358                0.01200450               -0.14940743                0.29538705                0.13997475                1.85948786                0.16635260                0.15683885
               6.96973024                4.91963095               64.10333150                0.01036542               -0.39684064                0.52420668                0.14423613                1.57716578                0.10301956                0.24629493
               7.96476177                4.91915626               64.10650949                0.01000000               -0.58802971                1.03244437                0.15036722                1.48417563                0.12371033                0.41377318
               8.95796965                4.91881402               64.11013405                0.01000000               -0.72286610                1.54322623                0.16101756                1.10459329                0.12327477                0.51421362
               9.95030445                4.91337090               64.11302251                0.30241163               -0.76651973                1.27958535                0.18250563                0.79406783                0.09939985                0.45270298
              -0.02319509                5.91937498               64.08542912                0.76035633               -0.03962715               -0.02978901                0.13004845               -0.00215878               -0.00410943                0.02851966
               0.97640863                5.90894520               64.08668082                0.01000001                0.05136751               -0.04910860                0.13378785                0.17877672                0.01756340               -0.02987586
               1.97783226                5.90216692               64.08836404                0.01145694                0.20922040               -0.36170784                0.13488205                0.50065470                0.07385372               -0.13240110
               2.98059304                5.89996274               64.09093093                0.01000001                0.27745899               -0.51202006                0.13671086                1.02848440                0.19409180               -0.16177127
               3.98338144                5.90337240               64.09508862                0.01000001                0.25965083               -0.26017805                0.13812861                1.60520985                0.31378615               -0.02302239
               4.98578606                5.91040013               64.10019238                0.01200083                0.10319666               -0.07892461                0.14225032                1.83290950                0.31430406                0.04339807
               5.98544537                5.91798279               64.10448901                0.01033373               -0.12251087                0.12652483                0.14853603                1.83187458                0.28766636                0.15066746
               6.98333584                5.92471684               64.10921058                0.01000000               -0.33303103                0.64895140                0.15617145                1.93795832                0.33615598                0.36758759
               7.97878475                5.93235612               64.11456768                0.01000000               -0.59789197                1.43439950                0.16730096                1.93975132                0.36250608                0.61086393
               8.97137800                5.93648220               64.11963330                0.01298195               -0.66029021                1.55977267                0.19251212                1.21302269                0.23433514                0.56397975
               9.96557895                5.92871282               64.12200936                0.36764463               -0.57990578                1.23965876                0.20411735                0.57658705                0.11903381                0.43518083
              -0.01269988                6.91901656               64.08841508                0.99999999               -0.04133891               -0.03822076                0.13595406                0.00027442               -0.00387004                0.03040940
               0.98688673                6.90849738               64.08938104                0.29260100               -0.04183697               -0.04421497                0.13945895               -0.00219748               -0.03071098               -0.02809120
               1.98646338                6.89796372               64.08980877                0.01617686                0.09261602               -0.23225061                0.14282244                0.26134736                0.04848316               -0.11923737
               2.98873905                6.89457866               64.09235554                0.01000000                0.32235229               -0.42845093                0.14372045                0.94265782                0.31840645               -0.11315712
               3.99291042                6.90006695               64.09824415                0.01212025                0.30135721               -0.43484857                0.14225140                1.51430968                0.44036753               -0.11859934
               4.99476619                6.90819823               64.10334445                0.01036033                0.10544719               -0.23069982                0.14793391                1.67807536                0.44948626               -0.02154905
               5.99501937                6.91910273               64.10952661                0.01000000               -0.03250576                0.14318551                0.15824188                2.00921386                0.55966615                0.23241737
               6.99411608                6.93260998               64.11698992                0.01000000               -0.16139619                0.88209273                0.17056363                2.38248231                0.66070895                0.54615934
               7.99179144                6.94784425               64.12529192                0.01295645               -0.41213336                1.13075341                0.19484112                1.81866944                0.43280857                0.52659023
               8.98587341                6.95000948               64.12803300                0.01025667               -0.72082476                1.47199820                0.20169002                0.62985366                0.09491160                0.67466832
               9.97737495                6.93816407               64.12915927                0.49139744               -0.84984618                1.64748028                0.21051279                0.18820728                0.03613924                0.57919405
              -0.00215124                7.91861057               64.09143162                0.99154945               -0.04312266               -0.04183398                0.14189563                0.00098130               -0.00750100                0.03623935
               0.99741753                7.90806090               64.09207932                0.89437460               -0.04354144               -0.04417440                0.14536161               -0.00024767               -0.01951922               -0.01818465
               1.99697793                7.89752191               64.09248536                0.01000000               -0.00372810               -0.04489299                0.14882680                0.21908228                0.09851947               -0.04535350
               2.99734297                7.89139373               64.09549555                0.01450889                0.15350626               -0.39933654                0.14967076                0.77323089                0.29247718               -0.18436050
               4.00004806                7.89467543               64.09970694                0.01133141                0.14844058               -0.35674667                0.14409670                1.23103589                0.48933492               -0.15295665
               5.00031178                7.90578613               64.10669885                0.01000000                0.05849198               -0.16976490                0.15151157                1.58169858                0.74174137                0.03810214
               6.00121790                7.92084650               64.11594035                0.01000000                0.09660944                0.18403630                0.16945996                2.04428869                0.93673635                0.32523310
               7.00224397                7.94235869               64.12712041                0.01293653               -0.17296255                0.52392829                0.20118141                1.97025664                0.72840571                0.37586556
               7.99775864                7.95497119               64.13235095                0.01000002               -0.42943588                1.09004155                0.20060551                1.51997310                0.60001310                0.58130173
               8.99365525                7.96592216               64.14092281                0.43049775               -0.23623713                0.76346616                0.20307503                0.93911306                0.39043769                0.40529057
               9.99303390                7.96166242               64.14165610                0.96121575               -0.06213517                1.14124958                0.21208754                0.56902834               -0.00214263                0.37622290
               0.00841908                8.91817988               64.09453634                0.99585904               -0.04486477               -0.04410107                0.14784777                0.00102463               -0.00061073                0.03396692
               1.00797043                8.90761389               64.09497377                0.99999999               -0.04534436               -0.04549384                0.15129650                0.00011719               -0.00062472               -0.00401899
               2.00751219                8.89706586               64.09541058                0.11476401               -0.04601454               -0.04648245                0.15473904                0.00282717               -0.01337561               -0.02988659
               3.00705014                8.88659192               64.09559636                0.01074830               -0.21867285               -0.26474337                0.16037311                0.80317425                0.31706786               -0.17481217
               4.00313874                8.89293201               64.10264427                0.01000000               -0.34105255                0.03592223                0.14202450                1.01141760                0.78455238               -0.05818138
               5.00022909                8.90480293               64.11148512                0.01000000               -0.19030799                0.02098235                0.15517814                1.06071749                1.00089965                0.09313617
               5.99933258                8.92278346               64.12320586                0.01294029               -0.04162867                0.11720651                0.19609187                1.14501295                0.96392724                0.26155133
               6.99939652                8.94308855               64.13182915                0.01000002               -0.03525697               -0.04628087                0.20496980                1.54749615                1.02188208                0.00532167
               7.99862744                8.96964508               64.14511780                0.42770579               -0.07160393                0.69939175                0.21739394                1.37388495                0.62874994                0.40061627
               8.99796444                8.96527880               64.14578299                0.98657303               -0.06762260               -0.06780670                0.22641555               -0.00020186               -0.00246808                0.00302118
               9.99727499                8.96098906               64.14644759                0.99910328               -0.06894537               -0.07078459                0.23537606               -0.00360972               -0.00269749               -0.00662571
               0.01900123                9.91772854               64.09750803                0.99804312               -0.04673292               -0.04513402                0.15376319                0.00046269                0.02828726                0.02738163
               1.01853390                9.90715102               64.09795475                0.99449754               -0.04723949               -0.04628746                0.15722810               -0.00046732                0.02825892                0.00025348
               2.01805644                9.89659226               64.09840092                0.71356525               -0.04968018               -0.04736000                0.16068455                0.00181681                0.03886878               -0.02685054
               3.01754030                9.88609886               64.09906314                0.23019985               -0.79955215               -0.04930673                0.16629973                0.98909657                0.38662022               -0.00709482
               4.00206540                9.89539387               64.10647425                0.26210661               -1.29328060                0.24618611                0.12262769                0.89801222                0.92113891               -0.02650130
               4.99167469                9.90620578               64.11616098                0.30132859               -0.81164308                0.14028435                0.17451906                0.53439753                1.08385651                0.10292646
               5.98583254                9.92319063               64.12831203                0.36569577               -0.26712084                0.04071747                0.21434436                0.41136106                0.89878486                0.15736620
               6.98633227                9.94143307               64.13492112                0.48873351                0.86067768               -0.16554735                0.20827266                0.98199513                1.03876997               -0.08416004
               8.00304609                9.96895903               64.14990011                0.95859054                0.79874809               -0.06860518                0.24057469                1.59851296                0.72216547                0.00174415
               9.00230723                9.96456603               64.15063345                0.99910616               -0.07524552               -0.07127742                0.24967849               -0.00133542                0.00698826                0.00271563
              10.00154118                9.96024673               64.15129798                0.99254072               -0.07660515               -0.07423305                0.25863674               -0.00530977                0.00388818               -0.00372749
              -0.07310309               -0.08374011               65.06894128                0.89009549               -0.02689902               -0.02676879                0.09948562                0.00288051               -0.00486744                0.00532780
               0.92662792               -0.08939539               65.07152628                0.61277909               -0.01672439               -0.03603399                0.10572935                0.01052906               -0.00426110               -0.00429450
               1.92656242               -0.09471391               65.07411615                0.39489704                0.02303333               -0.03290199                0.11205631                0.03535419                0.00646655               -0.00218383
               2.92708858               -0.09878501               65.07687611                0.37227748                0.05559137               -0.03451416                0.11704298                0.01125287                0.02151515               -0.00272420
               3.92767425               -0.10096742               65.07967694                0.43705379                0.03671839               -0.03596122                0.12108420               -0.01485071                0.02379318               -0.00244242
               4.92782295               -0.10167487               65.08242225                0.55850210               -0.00099660               -0.03781490                0.12604873               -0.01100280                0.02031899               -0.00203156
               5.92765431               -0.10165619               65.08513231                0.76239406               -0.02506587               -0.03959878                0.13199174               -0.00484831                0.01757735               -0.00214403
               6.92732163               -0.10135799               65.08782081                0.99999999               -0.03667893               -0.04149209                0.13850597               -0.00075744                0.01652625               -0.00192658
               7.92692074               -0.10096805               65.09051266                0.99232536               -0.04177458               -0.04354498                0.14518861                0.00092099                0.01857766               -0.00352828
               8.92648614               -0.10054694               65.09324490                0.99542658               -0.04491711               -0.04534837                0.15203122                0.00120208                0.01705741               -0.00038843
               9.92602239               -0.10012352               65.09590863                0.99763550               -0.04637488               -0.04745318                0.15864590                0.00143910                0.01356271                0.01389679
              -0.06741901                0.91599220               65.07184094                0.61220056               -0.03608863               -0.01671310                0.10518556                0.01066380                0.00358142                0.00824791
               0.93222011                0.91024427               65.07441937                0.01109342               -0.04851122               -0.04790420                0.11138356                0.03068126                0.00805688               -0.00905891
               1.93161077                0.90495707               65.07709277                0.01000000               -0.09461197                0.01814786                0.11698281                0.15316596                0.01374582               -0.02164493
               2.93032787                0.90086985               65.07982823                0.01000000               -0.13200480                0.08101664                0.12064524                0.28167684                0.00964868               -0.02959849
               3.92897067                0.89867297               65.08252718                0.01000000               -0.11352797                0.10743759                0.12331119                0.35757258               -0.00058730               -0.02845869
               4.92805731                0.89794698               65.08513221                0.01000000               -0.07616421                0.09352493                0.12710731                0.34542598               -0.00890315               -0.02133326
               5.92744739                0.89794782               65.08768986                0.01000001               -0.05436585                0.12425051                0.13213095                0.21699482               -0.01197022               -0.01548670
               6.92696999                0.89822709               65.09023367                0.28701106               -0.04614834               -0.04181541                0.13796965               -0.00632610               -0.01290318               -0.01529123
               7.92652442                0.89859650               65.09276746                0.87613904               -0.04470458               -0.04323124                0.14406700               -0.00136443               -0.00870601               -0.00970075
               8.92607590                0.89899958               65.09539201                1.00000000               -0.04555262               -0.04502768                0.15054867                0.00014219               -0.00196527               -0.00055136
               9.92561337                0.89940195               65.09806013                0.99317227               -0.04625300               -0.04722348                0.15719115                0.00039237                0.00015041                0.01383471
              -0.06139395                1.91592562               65.07479137                0.39334836               -0.03293763                0.02028133                0.11066540                0.03496631                0.00080398                0.01316063
               0.93827667                1.90964652               65.07722275                0.01000000                0.01970532               -0.08991369                0.11703189                0.14960390                0.00212241               -0.01941910
               1.93900015                1.90564905               65.07967706                0.01000001                0.03647751                0.02853730                0.11821542                0.44354377                0.00548413               -0.04223204
               2.93900622                1.90283532               65.08223887                0.01000000               -0.06257916                0.13083440                0.12043517                0.66221249                0.00734213               -0.05139430
               3.93774857                1.90118133               65.08485347                0.01000000               -0.17748034                0.23851404                0.12467635                0.83323797                0.00279025               -0.04463737
               4.93545662                1.90019562               65.08745362                0.01000001               -0.30172375                0.24565960                0.12809563                0.90651017               -0.00758482               -0.03249673
               5.93171410                1.90082882               65.08997884                0.01145492               -0.44550896                0.35428899                0.13173334                0.58348175               -0.02335751               -0.01046223
               6.92654644                1.89780570               65.09237838                0.01616321               -0.27965677                0.18901996                0.13630168                0.28075334               -0.03435421                0.00670200
               7.92612096                1.89816732               65.09489850                0.01000000               -0.04314482                0.17756366                0.14251998                0.25265910               -0.02240047                0.03596579
               8.92568354                1.89855251               65.09753672                0.09248054               -0.04477276               -0.04110316                0.14905623                0.00641922               -0.01470850               -0.00683142
               9.92522551                1.89893201               65.10021201                0.69387413               -0.04580338               -0.04900738                0.15573117                0.00512291               -0.01294435                0.01840329
              -0.05416148                2.91639783               65.07774874                0.36944740               -0.03497610                0.04670309                0.11535375                0.01253272               -0.00192836                0.01799802
               0.94548876                2.90844599               65.07995117                0.01000000                0.07271588               -0.12023298                0.12116691                0.26252189                0.00511899               -0.03154558
               1.94729284                2.90552782               65.08229043                0.01000000                0.12755344               -0.07206266                0.12090304                0.62011703                0.01663019               -0.04367229
               2.94803983                2.90348654               65.08483481                0.01000000                0.04911451                0.03216001                0.12403298                0.86178177                0.02765326               -0.03944666
               3.94827513                2.90344325               65.08754767                0.01199461               -0.07499053                0.10594177                0.12713812                0.99484779                0.02468196               -0.02719919
               4.94654002                2.90286017               65.09020409                0.01000000               -0.33840941                0.24054703                0.13123338                1.17287443                0.01618428                0.00275143
               5.94150694                2.90503360               65.09289691                0.01000001               -0.56467334                0.41881470                0.13315458                1.15473329               -0.01936951                0.05927074
               6.93524655                2.90200749               65.09522714                0.01000000               -0.53380720                0.68673996                0.13546821                1.11701662               -0.02628239                0.12844141
               7.93083080                2.90214777               65.09806662                0.01462883               -0.49034773                0.55176950                0.14160401                0.77564760               -0.07397327                0.12265081
               8.92543960                2.89817752               65.09956002                0.01117979               -0.29369858                0.22686670                0.14895760                0.55835912               -0.07372405                0.14337505
               9.92495683                2.89842180               65.10245713                0.22844702               -0.04827721                0.03839228                0.15632501                0.56718999               -0.00377362                0.16572662
              -0.04523963                3.91685969               65.08070812                0.43390334               -0.03632483                0.02469547                0.11941380               -0.01007422               -0.00336135                0.02216970
               0.95439712                3.90724186               65.08261508                0.01000000                0.08007904               -0.09923866                0.12450065                0.31763670                0.01735476               -0.03707387
               1.95636195                3.90420779               65.08493257                0.01000000                0.19646521               -0.17264114                0.12584818                0.73382780                0.04523365               -0.05221501
               2.95832642                3.90347852               65.08759275                0.01199221                0.09549735               -0.09149497                0.12809847                0.92849805                0.05893593               -0.03883827
               3.95827190                3.90330017               65.09038856                0.01000000               -0.05013377               -0.06906798                0.13178266                1.12930110                0.07083798               -0.01844598
               4.95732375                3.90500657               65.09348997                0.01000001               -0.13052281                0.18821620                0.13540665                1.50407809                0.08017173                0.04886192
               5.95566144                3.90920512               65.09670365                0.01000001               -0.27755751                0.42544322                0.13735162                1.78109702                0.07239714                0.14552806
               6.95177260                3.91154050               65.09994555                0.01214269               -0.50987757                0.73726558                0.13920255                1.61365608                0.00107320                0.20799074
               7.94546389                3.90920271               65.10207712                0.01141935               -0.55979514                0.71027841                0.14021559                1.16192571               -0.05368242                0.24649455
               8.94057670                3.90308984               65.10470469                0.01000000               -0.46915750                0.87804840                0.14609293                1.04717156               -0.03179794                0.35841817
               9.93608074                3.89969985               65.10756921                0.26146382               -0.44959573                0.57036796                0.14707664                0.83057482                0.00145722                0.27587772
              -0.03512731                4.91689173               65.08369861                0.55588656               -0.03792967               -0.01041419                0.12411722               -0.00638870               -0.00346668                0.02602462
               0.96449339                4.90646122               65.08529683                0.01000000                0.04300242               -0.06554243                0.12854768                0.29422559                0.02516308               -0.03479571
               1.96573274                4.90207499               65.08746486                0.01000001                0.15120143               -0.26074615                0.13052244                0.76269284                0.07495560               -0.07581601
               2.96751742                4.90165664               65.09032133                0.01000000                0.18001888               -0.34211380                0.13312637                1.04010953                0.10915871               -0.08316509
               3.96933311                4.90206189               65.09343091                0.01000001                0.15996078               -0.16418620                0.13730074                1.42746707                0.15341268               -0.01869496
               4.97071663                4.90662449               65.09728638                0.01000001                0.06309162                0.10311226                0.14066432                1.91736104                0.20280853                0.08946982
               5.97059494                4.91354247               65.10158321                0.01202896               -0.15972789                0.27806832                0.14497456                1.91173319                0.15900347                0.15920555
               6.96752208                4.91675280               65.10479091                0.01040825               -0.40374853                0.49922858                0.14857752                1.63223003                0.09415509                0.25301166
               7.96251997                4.91635334               65.10802320                0.01000000               -0.58180925                0.99188621                0.15265542                1.53382712                0.11535708                0.42833860
               8.95588589                4.91573848               65.11174544                0.01000000               -0.70858365                1.50313938                0.16107778                1.14373482                0.12535573                0.53510087
               9.94834830                4.90982916               65.11485089                0.30244503               -0.75375899                1.26408036                0.17988443                0.82347301                0.10772520                0.46646226
              -0.02450638                5.91665140               65.08672740                0.75951174               -0.03952507               -0.03007148                0.12956946               -0.00177081               -0.00407402                0.02838932
               0.97509837                5.90593101               65.08801783                0.01000001                0.04633806               -0.04868466                0.13361459                0.18567466                0.01652330               -0.03053170
               1.97642039                5.89899287               65.08971803                0.01145639                0.20216720               -0.36968375                0.13614676                0.52080859                0.07090775               -0.13154599
               2.97914172                5.89663625               65.09230844                0.01000001                0.27164984               -0.52642332                0.13924517                1.05940381                0.19034956               -0.16196034
               3.98185338                5.90001644               65.09648656                0.01000001                0.25243361               -0.27754178                0.14227665                1.64458848                0.31012372               -0.02660541
               4.98419039                5.90706881               65.10163842                0.01202845                0.09572055               -0.09793601                0.14792426                1.88110467                0.31200138                0.04124389
               5.98376779                5.91476648               65.10599837                0.01038316               -0.12920324                0.10495161                0.15435616                1.88100312                0.28537753                0.15239443
               6.98160633                5.92152508               65.11079412                0.01000000               -0.33065217                0.61526442                0.16125397                1.97741272                0.33453248                0.37471738
               7.97715475                5.92904044               65.11626120                0.01000000               -0.58153752                1.38996772                0.17181753                1.98273196                0.37045794                0.62783752
               8.96997558                5.93315263               65.12157859                0.01315671               -0.63929505                1.51721407                0.19610508                1.24542385                0.24582697                0.58038484
               9.96436885                5.92498146               65.12407254                0.36762923               -0.56067257                1.21722652                0.20754797                0.59438618                0.12499192                0.44382759
              -0.01372195                6.91629031               65.08977263                0.99999999               -0.04126317               -0.03841387                0.13551405                0.00049629               -0.00386048                0.03045181
               0.98586542                6.90548753               65.09077536                0.29154820               -0.04171877               -0.04389293                0.13941014               -0.00143798               -0.03071377               -0.02820359
               1.98544367                6.89468132               65.09123939                0.01616407                0.09082529               -0.23774714                0.14337906                0.27291518                0.04731481               -0.11820431
               2.98768192                6.89112817               65.09379936                0.01000000                0.31743241               -0.43710343                0.14553820                0.96664987                0.31410262               -0.11412288
               3.99179232                6.89651105               65.09968243                0.01214105                0.29533834               -0.45801606                0.14649890                1.54999678                0.43781797               -0.12678771
               4.99358869                6.90466577               65.10484621                0.01040867                0.09832111               -0.25354774                0.15369702                1.72761339                0.45149253               -0.02846829
               5.99375874                6.91564150               65.11113409                0.01000000               -0.03961574                0.12095846                0.16401723                2.04909612                0.56337677                0.23220789
               6.99279637                6.92905809               65.11872248                0.01000000               -0.16058420                0.85495675                0.17687805                2.40926978                0.67018824                0.55909705
               7.99054706                6.94415270               65.12727614                0.01312873               -0.39715141                1.08740817                0.20227382                1.83371576                0.43768083                0.53233274
               8.98485335                6.94608277               65.13007996                0.01049132               -0.69843478                1.39156489                0.20828568                0.64536490                0.09342508                0.66908263
               9.97657836                6.93417369               65.13128354                0.49142167               -0.82749826                1.58413121                0.21588744                0.20234690                0.03795072                0.57883324
              -0.00289089                7.91588313               65.09284880                0.99155110               -0.04305063               -0.04190788                0.14149524                0.00104347               -0.00743120                0.03627784
               0.99667860                7.90505316               65.09353346                0.89398503               -0.04355327               -0.04405185                0.14548109               -0.00000900               -0.01941156               -0.01813776
               1.99623804                7.89423793               65.09397689                0.01000000               -0.00168114               -0.04509382                0.14956723                0.22238576                0.09694384               -0.04521113
               2.99664498                7.88789418               65.09699083                0.01462928                0.15388371               -0.40486260                0.15002391                0.77618903                0.28769298               -0.18317001
               3.99931572                7.89085612               65.10116254                0.01142671                0.14836158               -0.38598860                0.14790706                1.27255432                0.48646520               -0.17082129
               4.99961221                7.90199786               65.10822766                0.01000000                0.05208401               -0.18890443                0.15586208                1.63770417                0.75293629                0.02518379
               6.00035740                7.91718565               65.11766137                0.01000000                0.08341569                0.17502084                0.17595565                2.08314881                0.95749881                0.33162843
               7.00128053                7.93862421               65.12916673                0.01310786               -0.17765030                0.50549957                0.20899288                1.97166820                0.73527993                0.37965340
               7.99680439                7.95078860               65.13438475                0.01000002               -0.42093226                1.03041574                0.20888789                1.48528514                0.59087070                0.57848297
               8.99286188                7.96098393               65.14296269                0.43093809               -0.22852260                0.71274266                0.20490521                0.91260516                0.38605071                0.39379261
               9.99223394                7.95666409               65.14378944                0.96206505               -0.06279400                1.09059156                0.21457967                0.56602530               -0.00216683                0.36545146
               0.00795886                8.91545215               65.09601313                0.99546205               -0.04484225               -0.04407621                0.14745625                0.00102986               -0.00052294                0.03399937
               1.00751043                8.90460649               65.09648773                0.99999999               -0.04542468               -0.04550497                0.15150929                0.00012272               -0.00052653               -0.00397464
               2.00705036                8.89377944               65.09696166                0.11667218               -0.04614629               -0.04672457                0.15555736                0.00304633               -0.01208534               -0.02985042
               3.00658751                8.88303092               65.09720910                0.01153744               -0.19553158               -0.26812760                0.16241900                0.78594923                0.30500074               -0.17178121
               4.00313973                8.88879128               65.10402654                0.01000000               -0.32871327                0.00921764                0.13772999                1.07312363                0.79108751               -0.09707553
               5.00001324                8.90088768               65.11305516                0.01000000               -0.21721835                0.02366686                0.16030329                1.11910911                1.03611832                0.08554687
               5.99879536                8.91914192               65.12519727                0.01311049               -0.06932278                0.12032615                0.20390451                1.16791477                0.98614844                0.27151570
               6.99862679                8.93916808               65.13390250                0.01000002               -0.04511603               -0.05988865                0.21097449                1.51235506                1.02333006               -0.00520343
               7.99789304                8.96476101               65.14728989                0.42640346               -0.06984107                0.66449682                0.21701022                1.33661098                0.62903456                0.39637394
               8.99722997                8.96033762               65.14804842                0.98697488               -0.06772443               -0.06786847                0.22666610               -0.00019134               -0.00246361                0.00311021
               9.99653855                8.95598552               65.14880596                0.99948043               -0.06914107               -0.07106619                0.23628846               -0.00336575               -0.00270858               -0.00661563
               0.01882102                9.91500160               65.09904427                0.99762701               -0.04672592               -0.04505465                0.15342794                0.00036221                0.02840861                0.02743579
               1.01835376                9.90414306               65.09952835                0.99409293               -0.04732422               -0.04634329                0.15749814               -0.00057524                0.02839250                0.00028573
               2.01787454                9.89330344               65.10001180                0.71517532               -0.05008198               -0.04760049                0.16156185                0.00184623                0.04016852               -0.02684576
               3.01735212                9.88253163               65.10073518                0.23106141               -0.74765563               -0.04992921                0.16833503                0.96331357                0.36165411               -0.00712002
               4.00292143                9.89104047               65.10766102                0.26271248               -1.28541830                0.22491936                0.11761906                0.97514777                0.94148106               -0.08399201
               4.99164376                9.90247119               65.11792259                0.30151492               -0.87430654                0.15835085                0.17863506                0.59063657                1.13600298                0.10571501
               5.98543530                9.91959217               65.13047706                0.36580597               -0.28676129                0.04502577                0.21977677                0.41175536                0.91216834                0.16306612
               6.98590853                9.93742644               65.13701626                0.48878399                0.84658904               -0.17416453                0.21152562                0.95249279                1.04573616               -0.09527590
               8.00236708                9.96407854               65.15229586                0.95721094                0.78625057               -0.06824719                0.23858705                1.55740936                0.73267013                0.00177565
               9.00163354                9.95962656               65.15312340                0.99948811               -0.07481272               -0.07110592                0.24832403               -0.00143099                0.00708695                0.00274430
              10.00087082                9.95524276               65.15388083                0.99276462               -0.07627220               -0.07427580                0.25794168               -0.00515300                0.00390986               -0.00374278
              -0.07576693               -0.08661624               66.06993496                0.88969106               -0.02652192               -0.02637143                0.09925383                0.00302797               -0.00464443                0.00506057
               0.92396785               -0.09235924               66.07258315                0.61279906               -0.01550351               -0.03633079                0.10565395                0.01143707               -0.00396584               -0.00419529
               1.92392300               -0.09773691               66.07523707                0.39640138                0.02635527               -0.03273832                0.11213642                0.03757357                0.00625910               -0.00215932
               2.92449496               -0.10178289               66.07804663                0.37417707                0.05936442               -0.03430377                0.11706699                0.01192855                0.02023234               -0.00282152
               3.92511029               -0.10385356               66.08088705                0.43809488                0.03869993               -0.03577078                0.12093577               -0.01460050                0.02238970               -0.00250503
               4.92526895               -0.10441059               66.08368156                0.55863445               -0.00047926               -0.03768278                0.12580085               -0.01075338                0.01976724               -0.00205949
               5.92510070               -0.10423607               66.08645116                0.76205177               -0.02513337               -0.03950823                0.13175397               -0.00459681                0.01771923               -0.00218476
               6.92476629               -0.10378763               66.08920533                0.99999999               -0.03684005               -0.04144479                0.13836738               -0.00058693                0.01698968               -0.00197424
               7.92436390               -0.10325290               66.09196456                0.99241630               -0.04190720               -0.04352297                0.14515665                0.00098553                0.01917494               -0.00360657
               8.92392814               -0.10269022               66.09476569                0.99507391               -0.04500456               -0.04538655                0.15208035                0.00122229                0.01762143               -0.00034421
               9.92346381               -0.10212582               66.09749621                0.99722509               -0.04643329               -0.04752845                0.15881591                0.00142570                0.01404433                0.01443008
              -0.06999365                0.91312005               66.07289195                0.61205796               -0.03637958               -0.01545541                0.10502298                0.01159948                0.00335700                0.00789383
               0.92964256                0.90727745               66.07553310                0.01112215               -0.04978983               -0.04917118                0.11137298                0.03352475                0.00747654               -0.00899823
               1.92901056                0.90193571               66.07826285                0.01000000               -0.09849960                0.01640099                0.11703444                0.15878576                0.01161056               -0.02328695
               2.92767257                0.89787408               66.08103423                0.01000000               -0.13662094                0.07933337                0.12055740                0.29136233                0.00571965               -0.03121918
               3.92627814                0.89578873               66.08375885                0.01000000               -0.11599446                0.10311553                0.12302520                0.36810593               -0.00444324               -0.02846525
               4.92535268                0.89521258               66.08640137                0.01000000               -0.07674422                0.08669609                0.12672737                0.35461567               -0.01142945               -0.02087045
               5.92474325                0.89536885               66.08900952                0.01000001               -0.05419202                0.11746155                0.13180072                0.22329908               -0.01329339               -0.01537467
               6.92426884                0.89579792               66.09161252                0.28622404               -0.04591011               -0.04168761                0.13780196               -0.00577508               -0.01357106               -0.01585744
               7.92382505                0.89631187               66.09420830                0.87585555               -0.04460069               -0.04322364                0.14410695               -0.00117580               -0.00901614               -0.00995813
               8.92337682                0.89685591               66.09689843                1.00000000               -0.04556937               -0.04509765                0.15074094                0.00015116               -0.00201239               -0.00050134
               9.92291366                0.89739890               66.09963359                0.99273288               -0.04631582               -0.04732208                0.15750601                0.00036064                0.00017556                0.01437867
              -0.06384975                1.91307465               66.07589732                0.39460355               -0.03275672                0.02358385                0.11054124                0.03730252                0.00067048                0.01246097
               0.93582269                1.90665733               66.07839332                0.01000000                0.01759166               -0.09369507                0.11710514                0.15567028               -0.00047407               -0.02037534
               1.93650209                1.90259111               66.08086261                0.01000001                0.03232440                0.02565881                0.11505891                0.45639168                0.00452394               -0.04082624
               2.93646917                1.89980378               66.08344946                0.01000000               -0.06840905                0.12600390                0.12268414                0.68001582                0.00522860               -0.05289917
               3.93513391                1.89820875               66.08610744                0.01000000               -0.18440108                0.22983645                0.12630215                0.85215226               -0.00025421               -0.04481920
               4.93278115                1.89732333               66.08874220                0.01000001               -0.30762823                0.23193964                0.12984655                0.92695082               -0.01145782               -0.03165317
               5.92898134                1.89811316               66.09130216                0.01145069               -0.45366923                0.34410994                0.13316790                0.60338989               -0.02701674               -0.01046347
               6.92370777                1.89537862               66.09374099                0.01613960               -0.28494750                0.18536837                0.13626394                0.29255599               -0.03629194                0.00643023
               7.92328239                1.89588262               66.09632441                0.01000000               -0.04318180                0.17361198                0.14271783                0.25377343               -0.02302562                0.03595891
               8.92284413                1.89640783               66.09902868                0.09323107               -0.04486689               -0.04103316                0.14939463                0.00690492               -0.01516974               -0.00601180
               9.92238505                1.89692774               66.10177132                0.69434823               -0.04590789               -0.04946447                0.15619162                0.00553624               -0.01337410                0.02005739
              -0.05641296                2.91359172               66.07890132                0.37102532               -0.03475346                0.05018964                0.11516141                0.01338763               -0.00207563                0.01673305
               0.94323951                2.90540355               66.08116288                0.01000000                0.07024499               -0.12451865                0.12119054                0.27338119                0.00220606               -0.03405553
               1.94499194                2.90244888               66.08350530                0.01000000                0.12078657               -0.07597380                0.12318972                0.63920416                0.01253982               -0.04342706
               2.94565524                2.90039415               66.08608590                0.01000000                0.04048481                0.02598558                0.12644744                0.88107383                0.02525106               -0.03860207
               3.94580164                2.90038546               66.08883341                0.01199677               -0.08339778                0.09715029                0.13051003                1.01576448                0.02131044               -0.02671661
               4.94398728                2.89985137               66.09153148                0.01000000               -0.35229378                0.23042849                0.13475978                1.20034262                0.01116397                0.00390337
               5.93875576                2.90225105               66.09424107                0.01000001               -0.58183941                0.40930735                0.13608611                1.18873895               -0.02671308                0.06070447
               6.93235049                2.89950529               66.09658951                0.01000000               -0.54422267                0.67250687                0.13747774                1.14249150               -0.03203552                0.13038163
               7.92787131                2.89978411               66.09948680                0.01475595               -0.49403471                0.53989640                0.14284646                0.78495464               -0.07744428                0.12234769
               8.92246980                2.89603525               66.10105353                0.01203025               -0.29433754                0.20963943                0.14990643                0.55770505               -0.07386537                0.14233010
               9.92198456                2.89640961               66.10402494                0.22926588               -0.04852425               -0.03414218                0.15736473                0.57375500               -0.00390832                0.15954426
              -0.04720564                3.91407845               66.08190054                0.43458392               -0.03612052                0.02609134                0.11905093               -0.00960289               -0.00336577                0.02082053
               0.95243315                3.90416696               66.08385951                0.01000000                0.07506028               -0.10113314                0.12439662                0.32969117                0.01587025               -0.03973649
               1.95429556                3.90107163               66.08619883                0.01000000                0.18604591               -0.17763929                0.12756767                0.75535190                0.04196114               -0.05245719
               2.95615407                3.90032349               66.08888901                0.01199298                0.08482085               -0.09770448                0.13161613                0.95084267                0.05577956               -0.03840445
               3.95599198                3.90015176               66.09172424                0.01000000               -0.06158249               -0.07934266                0.13589671                1.15767885                0.06726680               -0.01720463
               4.95492242                3.90193190               66.09486335                0.01000001               -0.14448885                0.17831512                0.13995853                1.53912648                0.07449517                0.05057183
               5.95310220                3.90629931               66.09809927                0.01000001               -0.29489401                0.41052878                0.14250373                1.82576120                0.06366490                0.14930250
               6.94902454                3.90882875               66.10135803                0.01217148               -0.53253414                0.71686693                0.14395557                1.66020529               -0.01140475                0.21386581
               7.94245152                3.90668055               66.10349750                0.01151594               -0.58259060                0.68774228                0.14384178                1.20074663               -0.06929841                0.25098307
               8.93737273                3.90060062               66.10614637                0.01000000               -0.46700421                0.83034440                0.14366137                1.03718112               -0.05530275                0.36833760
               9.93311144                3.89624490               66.10896917                0.26195447               -0.42612923                0.48935991                0.13875511                0.77760331               -0.02141788                0.29798843
              -0.03678205                4.91411355               66.08493741                0.55562191               -0.03778103               -0.01048456                0.12361974               -0.00585612               -0.00341043                0.02523248
               0.96284014                4.90338089               66.08658129                0.01000000                0.03622463               -0.06554613                0.12835813                0.30489318                0.02440384               -0.03648722
               1.96394245                4.89889610               66.08877832                0.01000001                0.13759117               -0.26550813                0.13241325                0.78617115                0.07253819               -0.07613848
               2.96559197                4.89844007               66.09166825                0.01000000                0.17021826               -0.35389939                0.13674691                1.06899771                0.10647738               -0.08245376
               3.96734681                4.89879861               66.09482500                0.01000001                0.15151474               -0.17814920                0.14215121                1.46197803                0.15019225               -0.01804414
               4.96862226                4.90341767               66.09872067                0.01000001                0.05136591                0.08666378                0.14704703                1.96274315                0.19814262                0.09183554
               5.96837413                4.91046162               66.10306307                0.01204631               -0.17244516                0.25902491                0.15208545                1.96599858                0.15169073                0.16437716
               6.96517336                4.91384263               66.10630305                0.01046004               -0.41298754                0.47254267                0.15471672                1.69082241                0.08362738                0.26185469
               7.96011438                4.91353895               66.10956260                0.01000000               -0.57621420                0.94896945                0.15586507                1.58787124                0.10439889                0.44309417
               8.95364907                4.91264214               66.11335561                0.01000000               -0.69331605                1.45773813                0.16137244                1.18841656                0.12085120                0.56067322
               9.94624806                4.90619681               66.11662020                0.30245787               -0.74010165                1.24559102                0.17509814                0.85443898                0.10971784                0.49674904
              -0.02585743                5.91386875               66.08802051                0.75848936               -0.03940952               -0.03046760                0.12902170               -0.00129677               -0.00401354                0.02809932
               0.97374847                5.90285604               66.08935311                0.01000001                0.04086200               -0.04816018                0.13345714                0.19291300                0.01617017               -0.03116851
               1.97495981                5.89576147               66.09108698                0.01146144                0.19415204               -0.37776618                0.13786418                0.54163454                0.06940592               -0.13088354
               2.97763151                5.89324551               66.09371583                0.01000001                0.26470639               -0.54131291                0.14271986                1.09066986                0.18836430               -0.16164891
               3.98025393                5.89658877               66.09793416                0.01000001                0.24413793               -0.29716991                0.14809179                1.68463941                0.30836191               -0.02794295
               4.98251427                5.90366517               66.10315086                0.01205301                0.08716439               -0.11890259                0.15562310                1.93065794                0.31005409                0.04180603
               5.98199722                5.91147981               66.10757613                0.01043480               -0.13753047                0.08111353                0.16232804                1.93254658                0.28201779                0.15697529
               6.97976366                5.91827961               66.11243566                0.01000000               -0.32938947                0.57883390                0.16796243                2.01922831                0.33124980                0.38464261
               7.97540943                5.92565994               66.11800403                0.01000000               -0.56402293                1.34142010                0.17705879                2.02744901                0.37512314                0.64784131
               8.96848320                5.92975538               66.12355540                0.01335240               -0.61592769                1.46824464                0.20010826                1.27911057                0.25329803                0.59846427
               9.96309088                5.92115672               66.12616032                0.36761142               -0.53923240                1.19135176                0.21098663                0.61407070                0.12824175                0.45444058
              -0.01478255                6.91350420               66.09112536                0.99999999               -0.04117632               -0.03865657                0.13499116                0.00076108               -0.00383329                0.03036190
               0.98480569                6.90241768               66.09216924                0.29034686               -0.04158908               -0.04351352                0.13938120               -0.00053415               -0.03057931               -0.02821672
               1.98438567                6.89134077               66.09267635                0.01614664                0.08861865               -0.24330277                0.14408992                0.28478795                0.04690441               -0.11742478
               2.98657806                6.88761381               66.09526630                0.01000000                0.31171319               -0.44624583                0.14830644                0.98970562                0.31205439               -0.11531394
               3.99061993                6.89285521               66.10117413                0.01217476                0.28831633               -0.48369411                0.15275700                1.58562047                0.43736036               -0.13257810
               4.99234439                6.90103962               66.10641839                0.01046231                0.08953469               -0.27921613                0.16155175                1.77930444                0.45390994               -0.03271805
               5.99241063                6.91208389               66.11280695                0.01000000               -0.04832978                0.09680390                0.17181385                2.09056294                0.56646792                0.23606199
               6.99137779                6.92541930               66.12052748                0.01000000               -0.16115198                0.82460668                0.18486953                2.43729911                0.67933788                0.57626353
               7.98918759                6.94036735               66.12933740                0.01332295               -0.38216429                1.04335803                0.21010555                1.84792004                0.44164373                0.54392354
               8.98373451                6.94200703               66.13219871                0.01074530               -0.67303987                1.30370853                0.21518111                0.65724372                0.09010427                0.65893129
               9.97572679                6.93002384               66.13347702                0.49144920               -0.80077159                1.51461597                0.22195319                0.21399064                0.03917410                0.56717212
              -0.00366918                7.91309562               66.09426152                0.99155112               -0.04296073               -0.04198939                0.14099244                0.00111284               -0.00731688                0.03616394
               0.99590121                7.90198577               66.09498894                0.89355359               -0.04356911               -0.04390825                0.14562787                0.00027367               -0.01920068               -0.01800925
               1.99545944                7.89089541               66.09547671                0.01000000                0.00049855               -0.04534137                0.15048722                0.22491367                0.09525886               -0.04486587
               2.99591118                7.88432059               66.09849603                0.01475605                0.15405450               -0.41009298                0.15186061                0.77633452                0.28364062               -0.18173523
               3.99854053                7.88691489               66.10266508                0.01152181                0.14802457               -0.41815935                0.15305754                1.31273733                0.48550399               -0.18774670
               4.99887168                7.89808085               66.10981609                0.01000000                0.04441338               -0.21103382                0.16288466                1.69686680                0.76256608                0.01812830
               5.99942880                7.91341588               66.11945946                0.01000000                0.06772536                0.16570947                0.18459006                2.12442346                0.97716482                0.34403269
               7.00022618                7.93477174               66.13130026                0.01330510               -0.18243461                0.48578246                0.21858416                1.97519632                0.74240828                0.38686331
               7.99578010                7.94652710               66.13652871                0.01015299               -0.41272990                0.96470502                0.21930347                1.44662175                0.57898842                0.57722521
               8.99197159                7.95582955               66.14502091                0.43133548               -0.22215180                0.65866277                0.20672934                0.87932661                0.37674400                0.38042204
               9.99133707                7.95144904               66.14594769                0.96289166               -0.06345170                1.03707567                0.21706025                0.56089642               -0.00218010                0.35326817
               0.00745942                8.91266441               66.09748546                0.99508166               -0.04480492               -0.04403193                0.14694075                0.00103173               -0.00041845                0.03389165
               1.00701137                8.90153952               66.09800395                0.99999999               -0.04551486               -0.04551332                0.15174466                0.00012716               -0.00040836               -0.00391060
               2.00654912                8.89043394               66.09852173                0.11902227               -0.04630472               -0.04701710                0.15654545                0.00329846               -0.01041855               -0.02969069
               3.00608527                8.87941195               66.09884474                0.01236452               -0.17173510               -0.27081527                0.16515041                0.76355287                0.29127945               -0.16792953
               4.00311442                8.88449202               66.10539887                0.01000000               -0.31522725               -0.02348998                0.13831988                1.12870431                0.78765667               -0.12842516
               4.99978073                8.89681894               66.11469118                0.01000000               -0.24531066                0.02521918                0.16738509                1.18065443                1.06851439                0.08471037
               5.99820821                8.91539808               66.12728395                0.01329966               -0.10051135                0.12382504                0.21516994                1.19347210                1.00563385                0.28566104
               6.99777050                8.93513495               66.13604864                0.01000002               -0.05729959               -0.07358483                0.21955348                1.47326893                1.01772595               -0.01403940
               7.99706221                8.95966145               66.14945800                0.42506040               -0.06857016                0.62277499                0.21660375                1.29287905                0.62515293                0.38721119
               8.99639910                8.95518029               66.15031631                0.98735619               -0.06782376               -0.06793036                0.22691547               -0.00018399               -0.00246653                0.00319951
               9.99570574                8.95076536               66.15117336                0.99985530               -0.06933608               -0.07134538                0.23719616               -0.00312013               -0.00272624               -0.00660316
               0.01860124                9.91221498               66.10057659                0.99720014               -0.04670210               -0.04494264                0.15296154                0.00023429                0.02843006                0.02738310
               1.01813422                9.90107550               66.10110472                0.99370193               -0.04741335               -0.04640153                0.15778040               -0.00071017                0.02843176                0.00031797
               2.01765298                9.88995507               66.10163216                0.71726485               -0.05050299               -0.04788720                0.16259502                0.00182473                0.04169370               -0.02673404
               3.01712416                9.87890428               66.10242984                0.23200259               -0.69726793               -0.05076640                0.17101057                0.92838981                0.33450988               -0.00724707
               4.00370762                9.88644509               66.10882664                0.26334748               -1.27727285                0.19530677                0.11921676                1.04336743                0.93993229               -0.12538685
               4.99157871                9.89858523               66.11973368                0.30170681               -0.93626943                0.17662889                0.18338302                0.65216236                1.18346739                0.11111781
               5.98498223                9.91589239               66.13270756                0.36592441               -0.30752573                0.04943030                0.22782525                0.41314291                0.92265351                0.16979489
               6.98542819                9.93330004               66.13915163                0.48883268                0.83050608               -0.18349098                0.21653040                0.92027962                1.04703860               -0.10637042
               8.00159235                9.95898260               66.15467185                0.95579185                0.77179052               -0.06788532                0.23661365                1.51155865                0.73982660                0.00179939
               9.00086400                9.95447094               66.15559993                0.99986344               -0.07439118               -0.07093461                0.24699896               -0.00153319                0.00717345                0.00277819
              10.00010453                9.95002213               66.15645681                0.99299348               -0.07594742               -0.07432259                0.25727448               -0.00500216                0.00393194               -0.00376456
              -0.07849238               -0.08955288               67.07092636                0.88935842               -0.02611340               -0.02594064                0.09903409                0.00318944               -0.00439074                0.00476108
               0.92124649               -0.09537919               67.07363936                0.61302120               -0.01417473               -0.03666758                0.10559522                0.01243604               -0.00363821               -0.00407323
               1.92122413               -0.10080866               67.07635888                0.39820579                0.02983808               -0.03255500                0.11223512                0.03990099                0.00598880               -0.00212893
               2.92184325               -0.10481663               67.07921745                0.37633399                0.06314922               -0.03407321                0.11710220                0.01267838                0.01869431               -0.00291347
               3.92248711               -0.10676111               67.08209565                0.43922312                0.04054694               -0.03556124                0.12077911               -0.01419766                0.02067541               -0.00255295
               4.92265419               -0.10715569               67.08493827                0.55873310               -0.00010909               -0.03753823                0.12552160               -0.01038739                0.01897747               -0.00206910
               5.92248493               -0.10681659               67.08776739                0.76153994               -0.02530795               -0.03940795                0.13146301               -0.00426284                0.01770492               -0.00220492
               6.92214803               -0.10621184               67.09058816                0.99999999               -0.03705250               -0.04138787                0.13816162               -0.00037655                0.01733987               -0.00200582
               7.92174388               -0.10552765               67.09341579                0.99247552               -0.04205491               -0.04348641                0.14504561                0.00105840                0.01964633               -0.00365157
               8.92130693               -0.10481929               67.09628651                0.99469935               -0.04508131               -0.04541406                0.15203340                0.00124070                0.01806771               -0.00028180
               9.92084225               -0.10410969               67.09908495                0.99678232               -0.04646777               -0.04759043                0.15888197                0.00139031                0.01443397                0.01489509
              -0.07263418                0.91018771               67.07394140                0.61215634               -0.03670896               -0.01408217                0.10486946                0.01263369                0.00309758                0.00749834
               0.92699873                0.90425413               67.07664683                0.01000000               -0.05119845               -0.05057877                0.11137630                0.03667498                0.00680980               -0.00890362
               1.92634185                0.89886579               67.07943346                0.01000000               -0.10262367                0.01993660                0.11709226                0.16994395                0.00922835               -0.02842627
               2.92494626                0.89484264               67.08223938                0.01000000               -0.14135965                0.07711506                0.12047701                0.30200955                0.00144039               -0.03110991
               3.92351466                0.89288327               67.08498769                0.01000000               -0.11841044                0.09857524                0.12274854                0.37949661               -0.00859927               -0.02734544
               4.92257805                0.89246893               67.08766676                0.01000000               -0.07721424                0.07940711                0.12635225                0.36423026               -0.01412382               -0.01915309
               5.92197038                0.89278933               67.09032587                0.01000001               -0.05391307                0.11022952                0.13147356                0.22976937               -0.01464007               -0.01420747
               6.92149979                0.89337428               67.09298971                0.28522292               -0.04560936               -0.04154249                0.13764280               -0.00507596               -0.01417102               -0.01632372
               7.92105819                0.89403749               67.09564960                0.87545471               -0.04447163               -0.04321750                0.14416724               -0.00094142               -0.00926165               -0.01013457
               8.92061036                0.89472657               67.09840683                1.00000000               -0.04558185               -0.04517672                0.15095306                0.00016130               -0.00204033               -0.00043009
               9.92014655                0.89541440               67.10121025                0.99228794               -0.04638053               -0.04742496                0.15783385                0.00030815                0.00020295                0.01485578
              -0.06637255                1.91016547               67.07700219                0.39617179               -0.03255466                0.02707795                0.11042069                0.03977863                0.00051800                0.01165634
               0.93330190                1.90360923               67.07956485                0.01000000                0.02035242               -0.09777163                0.11720085                0.16773859               -0.00672858               -0.02137671
               1.93403450                1.89959008               67.08197824                0.01000001                0.02820276                0.02286290                0.11978564                0.46976053                0.00658291               -0.03687245
               2.93386596                1.89672567               67.08469255                0.01000000               -0.07918751                0.12161515                0.12460555                0.69453986                0.00626225               -0.05331670
               3.93245075                1.89521039               67.08737951                0.01000000               -0.19166112                0.22044210                0.12843727                0.87239412               -0.00394305               -0.04249997
               4.93003274                1.89443246               67.09005055                0.01000001               -0.31378915                0.21740737                0.13194508                0.94775964               -0.01521054               -0.02811783
               5.92617496                1.89538800               67.09264219                0.01145509               -0.46171937                0.33306314                0.13495934                0.62345612               -0.03143778               -0.00827613
               6.92079835                1.89295731               67.09510366                0.01613228               -0.29010996                0.18119010                0.13634999                0.30401650               -0.03894159                0.00749378
               7.92037277                1.89360800               67.09775285                0.01000000               -0.04325556                0.16920753                0.14305418                0.25397866               -0.02346784                0.03667360
               8.91993324                1.89427717               67.10052461                0.09432295               -0.04500146               -0.04100689                0.14986958                0.00738025               -0.01551985               -0.00491740
               9.91947274                1.89494181               67.10333584                0.69523133               -0.04605009               -0.04997872                0.15678211                0.00592824               -0.01371119                0.02186311
              -0.05872612                2.91072927               67.08005196                0.37284070               -0.03449732                0.05372632                0.11496105                0.01432624               -0.00222823                0.01523029
               0.94092890                2.90229870               67.08237498                0.01000000                0.06733743               -0.12902534                0.12125000                0.28540547                0.00085700               -0.03672284
               1.94262063                2.89932305               67.08475423                0.01000000                0.11439190               -0.08522232                0.12521125                0.65567035                0.00901670               -0.03987730
               2.94321674                2.89727494               67.08736376                0.01000000                0.03175664                0.02012058                0.12970632                0.90098535                0.02299051               -0.03710355
               3.94325576                2.89729212               67.09015787                0.01200188               -0.09305529                0.08770478                0.13458041                1.03671409                0.01878552               -0.02422032
               4.94135564                2.89681708               67.09289929                0.01000000               -0.36705572                0.21981766                0.13903501                1.22821845                0.00641598                0.00759703
               5.93591464                2.89945059               67.09561863                0.01000001               -0.59977598                0.39905827                0.13988371                1.22230493               -0.03392839                0.06500232
               6.92936012                2.89699808               67.09797670                0.01000000               -0.55483713                0.65734846                0.13996480                1.16594832               -0.03778414                0.13532242
               7.92481790                2.89742164               67.10092355                0.01489241               -0.49679815                0.52692863                0.14458271                0.79125828               -0.08058863                0.12417725
               8.91942415                2.89390643               67.10255815                0.01293444               -0.29410300                0.19386720                0.15122910                0.55294620               -0.07428081                0.14033118
               9.91893584                2.89441483               67.10560442                0.23017578               -0.04883122               -0.09387243                0.15866025                0.57754167               -0.00404886                0.15165624
              -0.04922489                3.91124000               67.08308913                0.43532473               -0.03588828                0.02735726                0.11866210               -0.00898501               -0.00334931                0.01918444
               0.95041623                3.90102873               67.08510301                0.01000000                0.06982746               -0.10304135                0.12433688                0.34286438                0.01524886               -0.04257232
               1.95217166                3.89788563               67.08748393                0.01000000                0.17501850               -0.18294891                0.12977703                0.77876365                0.04072308               -0.05316285
               2.95391660                3.89712808               67.09022507                0.01200512                0.07356139               -0.10470961                0.13568772                0.97312015                0.05422812               -0.03665666
               3.95364289                3.89696449               67.09310649                0.01000000               -0.07389862               -0.09005111                0.14079898                1.18647522                0.06490514               -0.01423302
               4.95243863                3.89882881               67.09628914                0.01000001               -0.16014162                0.16783072                0.14560740                1.57452252                0.07025046                0.05518055
               5.95044006                3.90336916               67.09955372                0.01000001               -0.31461805                0.39512775                0.14903122                1.87036004                0.05610430                0.15678009
               6.94614627                3.90610428               67.10282467                0.01220532               -0.55752355                0.69570924                0.15017074                1.70561954               -0.02349127                0.22229944
               7.93928959                3.90414657               67.10495396                0.01161792               -0.60736496                0.66435315                0.14765717                1.23938678               -0.08551127                0.25708303
               8.93399897                3.89815452               67.10757792                0.01000000               -0.46414113                0.78182410                0.14304359                1.03694756               -0.07625724                0.37841097
               9.93000677                3.89306436               67.11034431                0.26249548               -0.39922036                0.40790810                0.13778458                0.74486607               -0.04134649                0.33110440
              -0.03848328                4.91127642               67.08617101                0.55532461               -0.03761617               -0.01072811                0.12307127               -0.00520243               -0.00332966                0.02420045
               0.96114056                4.90023787               67.08786399                0.01000000                0.02899082               -0.06545181                0.12820340                0.31633648                0.02465281               -0.03826779
               1.96209654                4.89566407               67.09011313                0.01000001                0.12298623               -0.27042318                0.13468295                0.81084985                0.07221724               -0.07609823
               2.96360029                4.89518075               67.09305627                0.01000000                0.15939975               -0.36614322                0.14107914                1.09861229                0.10566421               -0.08071274
               3.96528454                4.89549109               67.09627394                0.01000001                0.14205606               -0.19280159                0.14797336                1.49678192                0.14886381               -0.01496155
               4.96644141                4.90017369               67.10022732                0.01000001                0.03809190                0.06891991                0.15495366                2.00864609                0.19549486                0.09788001
               5.96604637                4.90735315               67.10462492                0.01207850               -0.18731560                0.23964720                0.16100679                2.02109346                0.14545455                0.17332014
               6.96269510                4.91091227               67.10788524                0.01052254               -0.42454866                0.44446086                0.16242878                1.75063572                0.07273251                0.27225385
               7.95755540                4.91070870               67.11114050                0.01000000               -0.57248897                0.90379478                0.16052025                1.64392615                0.09174356                0.45910166
               8.95124532                4.90954291               67.11497289                0.01000000               -0.67709641                1.40621475                0.16304853                1.23752817                0.11257523                0.59086008
               9.94401347                4.90257299               67.11835286                0.30246253               -0.72318444                1.20745458                0.17336608                0.88886256                0.10849654                0.53667551
              -0.02725185                5.91102544               67.08930784                0.75729914               -0.03928466               -0.03099449                0.12840250               -0.00072987               -0.00392497                0.02762458
               0.97235530                5.89971969               67.09068698                0.01000001                0.03488169               -0.04752582                0.13333049                0.20070034                0.01666905               -0.03177444
               1.97344578                5.89247717               67.09247532                0.01145264                0.18532619               -0.38604883                0.14006752                0.56368464                0.06965003               -0.13054742
               2.97606183                5.88980522               67.09516284                0.01000001                0.25699005               -0.55695279                0.14718253                1.12281184                0.18882713               -0.16041748
               3.97858558                5.89310845               67.09944839                0.01000001                0.23438352               -0.31812624                0.15550475                1.72524439                0.30936834               -0.02635893
               4.98074950                5.90020721               67.10475088                0.01207331                0.07688841               -0.14137531                0.16550310                1.98231518                0.30980436                0.04603626
               5.98012335                5.90816211               67.10924493                0.01050295               -0.14730351                0.05631301                0.17224483                1.98594616                0.27825909                0.16485272
               6.97780343                5.91499350               67.11415336                0.01000000               -0.32929414                0.54032449                0.17593505                2.06089773                0.32606864                0.39620329
               7.97353747                5.92222247               67.11980238                0.01000000               -0.54590933                1.28988902                0.18316667                2.07193099                0.37797059                0.67069934
               8.96688524                5.92627881               67.12558076                0.01355670               -0.59068093                1.41264852                0.20632382                1.31307372                0.25968592                0.62003883
               9.96172385                5.91721345               67.12829228                0.36758861               -0.51613891                1.15783852                0.21627971                0.63305195                0.13100112                0.47005875
              -0.01588638                6.91065653               67.09247245                0.99999999               -0.04107802               -0.03895666                0.13437478                0.00107222               -0.00378600                0.03010694
               0.98370284                6.89928736               67.09356298                0.28894978               -0.04144590               -0.04307141                0.13938147                0.00053372               -0.03029667               -0.02811905
               1.98328470                6.88794310               67.09412119                0.01612546                0.08611963               -0.24909646                0.14501126                0.29723444                0.04758060               -0.11699479
               2.98542524                6.88404169               67.09676549                0.01000000                0.30513649               -0.45620916                0.15201739                1.01265311                0.31304267               -0.11637003
               3.98938743                6.88912857               67.10273757                0.01219954                0.28044119               -0.51160036                0.16112520                1.62123233                0.43942890               -0.13613798
               4.99103406                6.89734619               67.10807724                0.01052708                0.07957868               -0.30597886                0.17143809                1.83352442                0.45651529               -0.03354757
               5.99097901                6.90847941               67.11457036                0.01000000               -0.05906850                0.07136017                0.18157861                2.13328685                0.56849001                0.24406732
               6.98985269                6.92171876               67.12241988                0.01000000               -0.16351505                0.79234099                0.19388087                2.46415465                0.68671374                0.59688651
               7.98770871                6.93650648               67.13147825                0.01354814               -0.36684403                0.99950162                0.21809605                1.86015803                0.44402071                0.55814816
               8.98251581                6.93779588               67.13438358                0.01102266               -0.64517393                1.20979770                0.22181550                0.66579114                0.08501093                0.64772713
               9.97480523                6.92572976               67.13572261                0.49146907               -0.77105797                1.44098281                0.22697204                0.22403515                0.03829617                0.55534382
              -0.00449207                7.91024630               67.09566865                0.99147660               -0.04285251               -0.04208066                0.14037603                0.00119007               -0.00715189                0.03586217
               0.99507941                7.89885826               67.09644602                0.89307103               -0.04358985               -0.04374266                0.14580851                0.00060465               -0.01886941               -0.01778925
               1.99463614                7.88749524               67.09698664                0.01000000                0.00250051               -0.04564607                0.15160814                0.22696372                0.09416517               -0.04426856
               2.99512942                7.88068104               67.10002804                0.01489164                0.15348008               -0.41515895                0.15543878                0.77459660                0.28091099               -0.17946263
               3.99770574                7.88287645               67.10422369                0.01161988                0.14698651               -0.45336730                0.15978250                1.35327907                0.48664137               -0.20484725
               4.99806915                7.89408763               67.11148535                0.01000000                0.03553910               -0.23409422                0.17190704                1.75886267                0.77355123                0.01488298
               5.99841652                7.90958931               67.12135317                0.01000000                0.04951486                0.15638157                0.19506069                2.16621287                0.99705187                0.36395673
               6.99905945                7.93084032               67.13353842                0.01352520               -0.18765046                0.46585836                0.22974022                1.97888777                0.74739504                0.39897904
               7.99466351                7.94221250               67.13877082                0.01041619               -0.40408315                0.89278060                0.22838236                1.40270860                0.56030951                0.57031837
               8.99097778                7.95047477               67.14709728                0.43169367               -0.21633600                0.60133541                0.20852847                0.83850377                0.36310916                0.36543127
               9.99033679                7.94603311               67.14813064                0.96367274               -0.06409923                0.98072840                0.21951879                0.55407003               -0.00219387                0.34050000
               0.00691351                8.90981491               67.09895194                0.99469942               -0.04475052               -0.04396487                0.14628202                0.00103120               -0.00029250                0.03361497
               1.00646600                8.89841250               67.09952262                0.99999999               -0.04561523               -0.04551873                0.15200410                0.00013441               -0.00026315               -0.00382242
               2.00600121                8.88703017               67.10009257                0.12189057               -0.04650242               -0.04736721                0.15772595                0.00365810               -0.00809720               -0.02938088
               3.00553596                8.87573851               67.10051210                0.01324219               -0.14773923               -0.27322787                0.16906209                0.73747365                0.27729198               -0.16372013
               4.00304642                8.88006122               67.10679294                0.01000000               -0.30187537               -0.05996239                0.14174919                1.18181453                0.78457465               -0.15759365
               4.99949845                8.89266430               67.11640287                0.01000000               -0.27479205                0.02604649                0.17552081                1.24544224                1.10430283                0.08732840
               5.99755058                8.91160704               67.12950067                0.01349953               -0.13455977                0.12757641                0.22978853                1.22127568                1.02674366                0.30611501
               6.99680725                8.93103593               67.13829357                0.01000002               -0.07110740               -0.08736323                0.23159217                1.42903143                1.00774226               -0.01886714
               7.99612843                8.95436209               67.15162196                0.42366084               -0.06709883                0.57371614                0.21619614                1.24192293                0.61580064                0.37371232
               8.99546528                8.94982259               67.15258673                0.98772184               -0.06792449               -0.06799411                0.22716982               -0.00017474               -0.00246535                0.00328882
               9.99476994                8.94534433               67.15354988                1.00000000               -0.06953351               -0.07162751                0.23811230               -0.00288024               -0.00274351               -0.00658950
               0.01833337                9.90936701               67.10210350                0.99678421               -0.04665412               -0.04479050                0.15233052                0.00007448                0.02833442                0.02720292
               1.01786683                9.89794789               67.10268395                0.99329627               -0.04750440               -0.04646160                0.15806994               -0.00087292                0.02836190                0.00035274
               2.01738329                9.88654789               67.10326370                0.71990936               -0.05094949               -0.04822832                0.16380822                0.00163767                0.04368010               -0.02649381
               3.01684784                9.87521648               67.10415539                0.23305215               -0.64835238               -0.05220362                0.17496911                0.88765412                0.30864592               -0.00735511
               4.00441624                9.88167720               67.11004535                0.26404502               -1.27078331                0.16159771                0.12607246                1.10658593                0.93806451               -0.15873615
               4.99143218                9.89460856               67.12159025                0.30190836               -0.99729143                0.19442574                0.18841945                0.71655484                1.23047475                0.11827062
               5.98447041                9.91214084               67.13503356                0.36605458               -0.32735796                0.05338013                0.23810835                0.41620763                0.93532616                0.17857669
               6.98488502                9.92909305               67.14134687                0.48888386                0.81224481               -0.19428736                0.22739448                0.88507576                1.04612953               -0.11542083
               8.00071531                9.95368682               67.15702813                0.95435183                0.75535161               -0.06752688                0.23466159                1.45977898                0.74267280                0.00181932
               8.99999205                9.94911488               67.15806338                1.00000000               -0.07398028               -0.07077056                0.24570657               -0.00163596                0.00726161                0.00281161
               9.99923570                9.94460056               67.15902632                0.99324277               -0.07563495               -0.07437720                0.25664387               -0.00485653                0.00395460               -0.00378627
              -0.08128074               -0.09255110               68.07191564                0.88911758               -0.02566930               -0.02547140                0.09882609                0.00336544               -0.00410300                0.00441783
               0.91846257               -0.09845565               68.07469506                0.61346632               -0.01272907               -0.03704734                0.10555191                0.01353453               -0.00327502               -0.00392871
               1.91846468               -0.10392866               68.07748177                0.40036686                0.03347479               -0.03235249                0.11235259                0.04232020                0.00565062               -0.00209124
               2.91913207               -0.10788502               68.08038868                0.37876707                0.06691486               -0.03382080                0.11714022                0.01350714                0.01687543               -0.00299980
               3.91980298               -0.10968869               68.08330264                0.44042766                0.04223496               -0.03533530                0.12061788               -0.01361770                0.01861720               -0.00258137
               4.91997677               -0.10990896               68.08619199                0.55878645                0.00009643               -0.03738105                0.12520689               -0.00989731                0.01791489               -0.00205781
               5.91980491               -0.10939713               68.08908042                0.76083834               -0.02560433               -0.03929758                0.13111104               -0.00383556                0.01750470               -0.00220055
               6.91946468               -0.10863085               68.09196857                0.99999999               -0.03732156               -0.04132059                0.13787669               -0.00012050                0.01754778               -0.00201907
               7.91905848               -0.10779355               68.09486548                0.99249957               -0.04221696               -0.04343355                0.14483767                0.00114038                0.01996387               -0.00365322
               8.91862034               -0.10693649               68.09780636                0.99432588               -0.04514357               -0.04542988                0.15187131                0.00125549                0.01837564               -0.00020045
               9.91815561               -0.10607850               68.10067384                0.99635999               -0.04647346               -0.04763760                0.15882516                0.00132747                0.01472013                0.01526547
              -0.07534254                0.90719418               68.07498934                0.61246323               -0.03707658               -0.01258385                0.10472119                0.01377117                0.00280087                0.00704161
               0.92428669                0.90117388               68.07776063                0.01000000               -0.05274459               -0.05213554                0.11138952                0.04015622                0.00604941               -0.00877346
               1.92360257                0.89574781               68.08060470                0.01000000               -0.10697726                0.02307778                0.11715574                0.18221298                0.00659265               -0.02533966
               2.92214715                0.89177678               68.08344377                0.01000000               -0.14618973                0.07490445                0.12040076                0.31356149               -0.00317734               -0.03059987
               3.92067877                0.88995796               68.08621382                0.01000000               -0.12075676                0.09386256                0.12249267                0.39172592               -0.01304789               -0.02478633
               4.91973201                0.88971723               68.08892842                0.01000000               -0.07756380                0.07187008                0.12598999                0.37447155               -0.01697936               -0.01607976
               5.91912750                0.89020990               68.09163899                0.01000001               -0.05351652                0.10260020                0.13115773                0.23666400               -0.01599721               -0.01189442
               6.91866168                0.89095594               68.09436537                0.28399765               -0.04523989               -0.04138201                0.13749958               -0.00420910               -0.01468424               -0.01665541
               7.91822270                0.89177212               68.09709164                0.87494989               -0.04431566               -0.04321547                0.14425552               -0.00065630               -0.00942655               -0.01020544
               8.91777537                0.89260921               68.09991749                1.00000000               -0.04559060               -0.04526767                0.15119148                0.00017063               -0.00204488               -0.00033455
               9.91731089                0.89344512               68.10279027                0.99185098               -0.04644824               -0.04753349                0.15817727                0.00022969                0.00023345                0.01524330
              -0.06896471                1.90719722               68.07810573                0.39807269               -0.03232273                0.03076026                0.11029356                0.04239138                0.00035192                0.01073548
               0.93071206                1.90050164               68.08073734                0.01000000                0.02353773               -0.10214726                0.11731270                0.18016817               -0.00493655               -0.02239692
               1.93150605                1.89653289               68.08325832                0.01000001                0.02405420                0.01989187                0.12543197                0.48461819               -0.00144728               -0.04265985
               2.93119315                1.89361307               68.08594157                0.01000000               -0.09045007                0.11713947                0.12641369                0.71099634               -0.00013280               -0.05077881
               3.92969704                1.89218857               68.08867619                0.01000000               -0.19894423                0.21080590                0.13052028                0.89392050               -0.00687083               -0.03765892
               4.92721426                1.89152844               68.09138110                0.01000001               -0.31987846                0.20237470                0.13416718                0.96945675               -0.01884688               -0.02162861
               5.92329948                1.89265488               68.09400135                0.01144116               -0.46979933                0.32148334                0.13704853                0.64426771               -0.03640944               -0.00353875
               6.91781828                1.89054151               68.09646799                0.01609566               -0.29536959                0.17673960                0.13661099                0.31577374               -0.04231407                0.00980833
               7.91739208                1.89134214               68.09918550                0.01000000               -0.04337659                0.16472137                0.14356855                0.25360121               -0.02369955                0.03807123
               8.91695074                1.89215815               68.10202607                0.09583182               -0.04518567               -0.04103191                0.15051229                0.00783172               -0.01574342               -0.00347563
               9.91648837                1.89297083               68.10490696                0.69658701               -0.04623747               -0.05054297                0.15752647                0.00627542               -0.01394232                0.02379611
              -0.06110356                2.90780939               68.08120054                0.37492267               -0.03420575                0.05729352                0.11475104                0.01537117               -0.00238147                0.01348288
               0.93855438                2.89913093               68.08358788                0.01000000                0.06435307               -0.13375702                0.12136432                0.29837674               -0.00035770               -0.03950154
               1.94018350                2.89614565               68.08600952                0.01000000                0.10785105               -0.09417093                0.12703652                0.67352738                0.00796659               -0.04352913
               2.94071140                2.89411956               68.08868002                0.01000000                0.02291568                0.01423881                0.13291891                0.92256755                0.02134976               -0.03469154
               3.94064182                2.89417408               68.09152502                0.01200469               -0.10282821                0.07812332                0.13875962                1.05870634                0.01699081               -0.01943819
               4.93865484                2.89376472               68.09431218                0.01000000               -0.38210150                0.20895175                0.14349771                1.25657075                0.00259465                0.01403331
               5.93299979                2.89663956               68.09703875                0.01000001               -0.61824741                0.38868729                0.14437044                1.25576497               -0.04033445                0.07269722
               6.92628989                2.89449073               68.09938881                0.01000000               -0.56608541                0.64123448                0.14339647                1.18815920               -0.04321569                0.14435529
               7.92167808                2.89506654               68.10237845                0.01503482               -0.49932872                0.51315597                0.14732069                0.79468979               -0.08356528                0.12834382
               8.91630332                2.89178857               68.10407811                0.01389950               -0.29335158                0.17979710                0.15299130                0.54371028               -0.07473399                0.13765434
               9.91581105                2.89243426               68.10719814                0.23120093               -0.04922714               -0.14261388                0.16025057                0.57773654               -0.00416705                0.14327750
              -0.05130038                3.90834309               68.08427378                0.43616977               -0.03562846                0.02847352                0.11824418               -0.00821127               -0.00331520                0.01723129
               0.94834334                3.89782650               68.08634624                0.01000000                0.06441715               -0.10496853                0.12435080                0.35715414                0.01574391               -0.04557242
               1.94998796                3.89464947               68.08879437                0.01000000                0.16363673               -0.18814538                0.13198578                0.80411817                0.04129227               -0.05289157
               2.95161607                3.89389785               68.09160277                0.01200959                0.06190252               -0.11157593                0.13981447                0.99672974                0.05412017               -0.03400345
               3.95122601                3.89375103               68.09454022                0.01000000               -0.08679372               -0.10083010                0.14591269                1.21604230                0.06377903               -0.00904857
               4.94988020                3.89570748               68.09777550                0.01000001               -0.17686246                0.15744063                0.15173179                1.61019604                0.06809743                0.06298155
               5.94768876                3.90042862               68.10107989                0.01000001               -0.33628581                0.37986273                0.15670859                1.91421171                0.05101114                0.16805682
               6.94315448                3.90336620               68.10436145                0.01223188               -0.58503610                0.67341356                0.15843316                1.74995884               -0.03458695                0.23455183
               7.93598804                3.90160526               68.10645065                0.01172802               -0.63486251                0.64030105                0.15306487                1.27857098               -0.10317486                0.26581480
               8.93045723                3.89575410               68.10900724                0.01000000               -0.46181640                0.73339658                0.14334374                1.04491001               -0.09826981                0.38917389
               9.92675171                3.89011855               68.11172487                0.26309478               -0.37055152                0.32740458                0.13776923                0.72879636               -0.06125525                0.36028488
              -0.04023461                4.90837886               68.08739884                0.55499584               -0.03743095               -0.01116425                0.12244902               -0.00442095               -0.00322243                0.02288739
               0.95939108                4.89703156               68.08914536                0.01000000                0.02145644               -0.06524690                0.12809630                0.32874605                0.02597907               -0.04014553
               1.96019452                4.89238274               68.09147198                0.01000001                0.10766808               -0.27535078                0.13717993                0.83727325                0.07413765               -0.07565460
               2.96154444                4.89188805               68.09448983                0.01000000                0.14792581               -0.37849572                0.14569818                1.12968215                0.10707704               -0.07772842
               3.96315304                4.89215748               68.09778446                0.01000001                0.13183650               -0.20765359                0.15428583                1.53263666                0.15034507               -0.00839922
               4.96418117                4.89691354               68.10181974                0.01000001                0.02361321                0.05142483                0.16372335                2.05564793                0.19559315                0.10855535
               5.96362530                4.90423682               68.10628321                0.01211728               -0.20343720                0.22013997                0.17115692                2.07583111                0.14084361                0.18556980
               6.96011243                4.90795900               68.10955163                0.01059210               -0.43818505                0.41514202                0.17200607                1.81044274                0.06205310                0.28396907
               7.95486160                4.90787256               68.11277301                0.01000000               -0.57121006                0.85654599                0.16724055                1.70254529                0.07834893                0.47693033
               8.94868823                4.90645650               68.11661658                0.01000000               -0.66017681                1.34956856                0.16659959                1.29197927                0.10390620                0.62493494
               9.94165806                4.89898236               68.12008752                0.30245011               -0.70301651                1.15347952                0.17311279                0.92939261                0.10744612                0.58048192
              -0.02869421                5.90811980               68.09058856                0.75594287               -0.03914170               -0.03166685                0.12768308               -0.00005989               -0.00380449                0.02693999
               0.97091437                5.89652156               68.09201972                0.01000001                0.02855788               -0.04676534                0.13323317                0.20912945                0.01822071               -0.03233793
               1.97187695                5.88914246               68.09388833                0.01144380                0.17603037               -0.39465933                0.14265338                0.58733120                0.07242598               -0.13053636
               2.97443498                5.88632793               68.09665948                0.01000001                0.24881558               -0.57334228                0.15256775                1.15667957                0.19241374               -0.15810311
               3.97685326                5.88959796               68.10104425                0.01000001                0.22394182               -0.34001612                0.16425056                1.76758792                0.31363957               -0.02010677
               4.97891382                5.89673597               68.10646093                0.01212000                0.06533298               -0.16396705                0.17695374                2.03470939                0.31140579                0.05550154
               5.97815992                5.90483142               68.11102103                0.01058137               -0.15931142                0.03100935                0.18337757                2.03727808                0.27408555                0.17517254
               6.97572759                5.91166904               68.11595436                0.01000000               -0.33092334                0.50064879                0.18475941                2.09982576                0.32001074                0.40924681
               7.97154145                5.91873618               68.12166736                0.01000000               -0.52702819                1.23446540                0.19051016                2.11595646                0.38197410                0.69516739
               8.96518702                5.92274547               68.12768188                0.01380425               -0.56267953                1.34942772                0.21409077                1.34770500                0.26770711                0.64436555
               9.96028786                5.91318814               68.13048591                0.36757467               -0.48991633                1.11549999                0.22158844                0.65209727                0.13473269                0.49017066
              -0.01703933                6.90774552               68.09381286                0.99999999               -0.04096584               -0.03932147                0.13364988                0.00143685               -0.00371300                0.02966922
               0.98255101                6.89609626               68.09495687                0.28738982               -0.04129503               -0.04256122                0.13941696                0.00177534               -0.02980743               -0.02788215
               1.98213477                6.88448956               68.09557658                0.01610387                0.08357592               -0.25518977                0.14618130                0.31043585                0.04968806               -0.11702316
               2.98422253                6.88042120               68.09830665                0.01000000                0.29809916               -0.46716065                0.15658247                1.03624866                0.31802003               -0.11656546
               3.98809676                6.88535716               68.10439663                0.01223613                0.27096837               -0.54176919                0.17234216                1.65878905                0.44539451               -0.13590808
               4.98964190                6.89363419               68.10984715                0.01058732                0.06705202               -0.33415424                0.18415619                1.88996262                0.45910627               -0.02990507
               5.98943780                6.90485700               68.11643853                0.01000000               -0.07188589                0.04666461                0.19235970                2.17473191                0.56830894                0.25581060
               6.98820418                6.91797198               68.12440510                0.01000000               -0.16667493                0.76042924                0.20303401                2.48668556                0.69190639                0.62107956
               7.98610430                6.93256187               68.13369932                0.01379993               -0.35069082                0.95267852                0.22659076                1.86795314                0.44530570                0.57293055
               8.98119037                6.93344506               68.13663502                0.01131851               -0.61448198                1.10947784                0.22886232                0.67087054                0.07882692                0.63397866
               9.97381466                6.92129236               68.13801646                0.49148977               -0.73757082                1.36218113                0.23172455                0.23165976                0.03605409                0.54325236
              -0.00536695                7.90733337               68.09706904                0.99140750               -0.04272096               -0.04218270                0.13962943                0.00127319               -0.00693048                0.03534696
               0.99420584                7.89567034               68.09790511                0.89251242               -0.04361663               -0.04355623                0.14603186                0.00098762               -0.01840437               -0.01745869
               1.99376072                7.88403866               68.09850887                0.01000000                0.00432555               -0.04601448                0.15297317                0.22886527                0.09438297               -0.04340818
               2.99429235                7.87698472               68.10160480                0.01503557                0.15276627               -0.42055039                0.16053238                0.77160610                0.28105549               -0.17596355
               3.99681604                7.87876258               68.10586073                0.01173386                0.14604329               -0.49193335                0.16972192                1.39432803                0.49042452               -0.22086661
               4.99721322                7.89005289               68.11325423                0.01000000                0.02503623               -0.25867873                0.18370911                1.82596460                0.78605293                0.01539114
               5.99731677                7.90576471               68.12336068                0.01000000                0.02716054                0.14914935                0.20751796                2.21196546                1.01671692                0.39244131
               6.99775643                7.92687762               68.13589507                0.01377762               -0.19446661                0.44885896                0.24122802                1.98124558                0.74856314                0.41798075
               7.99342744                7.93778975               68.14109636                0.01071501               -0.39412395                0.81582593                0.23682899                1.35190881                0.53448608                0.55581057
               8.98987395                7.94493502               68.14919148                0.43198993               -0.21004896                0.54174497                0.21031945                0.79367618                0.34586613                0.34877524
               9.98922646                7.94043177               68.15033806                0.96443311               -0.06474929                0.92227670                0.22197654                0.54516943               -0.00220841                0.32731562
               0.00631221                8.90690187               68.10041110                0.99432752               -0.04467294               -0.04387200                0.14545495                0.00102484               -0.00014979                0.03313030
               1.00586548                8.89522513               68.10104403                0.99999999               -0.04572557               -0.04552231                0.15228845                0.00014093               -0.00009471               -0.00371108
               2.00539770                8.88356927               68.10167624                0.12538358               -0.04673677               -0.04778601                0.15913236                0.00397402               -0.00457418               -0.02889353
               3.00493074                8.87201019               68.10222598                0.01419076               -0.12412731               -0.27570600                0.17612192                0.70861479                0.26374639               -0.15797928
               4.00291515                8.87551849               68.10823385                0.01000000               -0.28858431               -0.09985127                0.14758578                1.23342193                0.78173138               -0.18512994
               4.99915906                8.88846062               68.11820160                0.01000000               -0.30313895                0.02614991                0.18551626                1.31541368                1.14450325                0.09269555
               5.99685237                8.90783999               68.13187972                0.01374234               -0.16775007                0.13167133                0.24634427                1.25519502                1.05075750                0.33315334
               6.99580405                8.92694916               68.14068049                0.01011600               -0.08836496               -0.09962926                0.24671414                1.38190905                0.99305527               -0.01415072
               7.99508507                8.94887839               68.15378192                0.42222061               -0.06910893                0.52084489                0.21579255                1.18163257                0.59881460                0.35660936
               8.99442188                8.94427996               68.15485971                0.98808398               -0.06802532               -0.06805799                0.22742618               -0.00017024               -0.00246711                0.00338152
               9.99372456                8.93973789               68.15593560                1.00000000               -0.06973109               -0.07191188                0.23903569               -0.00264218               -0.00276131               -0.00657038
               0.01800702                9.90645593               68.10362320                0.99636765               -0.04657561               -0.04459317                0.15150670               -0.00012321                0.02809522                0.02685311
               1.01754126                9.89475989               68.10426612                0.99287723               -0.04759387               -0.04652391                0.15835773               -0.00107128                0.02816158                0.00038437
               2.01705514                9.88308294               68.10490832                0.72322554               -0.05129165               -0.04863229                0.16522090                0.00127974                0.04679490               -0.02610017
               3.01651543                9.87147060               68.10592923                0.23425445               -0.60105415               -0.05395914                0.18230642                0.84259888                0.28514212               -0.00908749
               4.00503406                9.87676555               68.11134809                0.26481990               -1.26577188                0.12470629                0.13382280                1.16715488                0.93505440               -0.18490039
               4.99119999                9.89057589               68.12350207                0.30213332               -1.05509633                0.21152660                0.19380460                0.78572277                1.27759701                0.12684138
               5.98393213                9.90839814               68.13746973                0.36618753               -0.34218895                0.05581482                0.24865944                0.42343345                0.95286245                0.18802058
               6.98435621                9.92488504               68.14369952                0.48892500                0.78985813               -0.20641228                0.24536613                0.84564113                1.04185470               -0.11437826
               7.99972929                9.94820665               68.15936508                0.95287951                0.73274182               -0.06717414                0.23273766                1.39886345                0.73634504                0.00183931
               8.99901105                9.94357386               68.16051407                1.00000000               -0.07357723               -0.07060915                0.24444038               -0.00173897                0.00734542                0.00284586
               9.99825775                9.93899353               68.16158969                0.99349216               -0.07532995               -0.07443618                0.25604447               -0.00471545                0.00397606               -0.00380708
              -0.08413328               -0.09561192               69.07290288                0.88895027               -0.02518655               -0.02496318                0.09863554                0.00355619               -0.00377323                0.00403074
               0.91561485               -0.10158890               69.07575039                0.61421115               -0.01115971               -0.03747176                0.10552069                0.01473078               -0.00286882               -0.00375408
               1.91564352               -0.10709633               69.07860593                0.40292635                0.03725213               -0.03212204                0.11247003                0.04480917                0.00523584               -0.00204717
               2.91635989               -0.11098681               69.08156025                0.38150622                0.07063063               -0.03354457                0.11716922                0.01443018                0.01475987               -0.00307478
               3.91705613               -0.11263511               69.08450801                0.44175192                0.04374013               -0.03508935                0.12044330               -0.01285232                0.01619347               -0.00259071
               4.91723470               -0.11266969               69.08744240                0.55879617                0.00011576               -0.03720792                0.12484771               -0.00927100                0.01653522               -0.00202225
               5.91705845               -0.11197773               69.09038961                0.75992755               -0.02603826               -0.03917551                0.13068786               -0.00330457                0.01708139               -0.00216772
               6.91671393               -0.11104583               69.09334569                0.99999999               -0.03765436               -0.04124195                0.13749863                0.00018656                0.01758165               -0.00201029
               7.91630536               -0.11005304               69.09631255                0.99249146               -0.04239288               -0.04335977                0.14451190                0.00123179                0.02009410               -0.00360441
               8.91586607               -0.10904556               69.09932394                0.99397318               -0.04518401               -0.04542744                0.15156117                0.00126696                0.01851410               -0.00009785
               9.91540168               -0.10803723               69.10226146                0.99593128               -0.04643906               -0.04766199                0.15860546                0.00123120                0.01487841                0.01551951
              -0.07812074                0.90413845               69.07603583                0.61302457               -0.03748955               -0.01095488                0.10458698                0.01502142                0.00246426                0.00652400
               0.92150436                0.89803638               69.07887462                0.01000000               -0.05443448               -0.05385306                0.11141280                0.04398705                0.00518730               -0.00858911
               1.92079057                0.89258245               69.08177658                0.01000000               -0.11153869                0.02141897                0.11720950                0.18995829                0.00369881               -0.02481899
               2.91927359                0.88867775               69.08464740                0.01000000               -0.15107578                0.07303241                0.12032806                0.32585414               -0.00811000               -0.02847324
               3.91776905                0.88701399               69.08743754                0.01000000               -0.12301458                0.08905651                0.12226261                0.40490765               -0.01776681               -0.02119114
               4.91681330                0.88695823               69.09018656                0.01000000               -0.07777876                0.06429070                0.12564881                0.38562284               -0.01998654               -0.01168316
               5.91621348                0.88763051               69.09294902                0.01000001               -0.05299221                0.09475997                0.13086208                0.24424733               -0.01735181               -0.00830322
               6.91575345                0.88854175               69.09573970                0.28256629               -0.04479666               -0.04120628                0.13738035               -0.00315810               -0.01508914               -0.01681599
               7.91531754                0.88951336               69.09853471                0.87431880               -0.04413092               -0.04321701                0.14437632               -0.00031215               -0.00949451               -0.01015235
               8.91487083                0.89050017               69.10143066                1.00000000               -0.04559411               -0.04537007                0.15145568                0.00018132               -0.00202134               -0.00021157
               9.91440566                0.89148615               69.10437379                0.99142071               -0.04651724               -0.04764576                0.15853157                0.00011975                0.00026776                0.01552132
              -0.07162873                1.90416898               69.07920806                0.40036512               -0.03206879                0.03462180                0.11017475                0.04512068                0.00016765                0.00968592
               0.92805059                1.89733404               69.08191111                0.01000000                0.02150247               -0.10683076                0.11745445                0.18857377               -0.00592411               -0.02339282
               1.92880132                1.89333205               69.08448688                0.01000001                0.01974242                0.01669828                0.12272432                0.50185267               -0.00822883               -0.04612392
               2.92844543                1.89047384               69.08722083                0.01000000               -0.09637609                0.11210830                0.12795669                0.73343103               -0.00368016               -0.04699498
               3.92687380                1.88914602               69.08998992                0.01000000               -0.20573999                0.20126613                0.13213207                0.91683260               -0.01005712               -0.03031420
               4.92433063                1.88861613               69.09273390                0.01000001               -0.32569600                0.18725555                0.13618955                0.99259757               -0.02178039               -0.01246658
               5.92035988                1.88991747               69.09538316                0.01142876               -0.47813562                0.30977425                0.13926975                0.66658801               -0.04174858                0.00428787
               6.91476792                1.88813004               69.09783588                0.01606920               -0.30095906                0.17249948                0.13704014                0.32838964               -0.04644574                0.01420585
               7.91434070                1.88908261               69.10062422                0.01000000               -0.04355095                0.16050041                0.14429444                0.25283761               -0.02368690                0.04093213
               8.91389690                1.89004704               69.10353486                0.09784902               -0.04542992               -0.04109099                0.15135661                0.00830968               -0.01581212               -0.00162266
               9.91343210                1.89100986               69.10648637                0.69851679               -0.04648014               -0.05118377                0.15845591                0.00662060               -0.01404344                0.02583992
              -0.06354844                2.90483088               69.08234699                0.37732076               -0.03387900                0.06086719                0.11452842                0.01651872               -0.00253921                0.01144477
               0.93611277                2.89589977               69.08480227                0.01000000                0.06181314               -0.13871176                0.12155405                0.31227332               -0.00032222               -0.04233180
               1.93768782                2.89291642               69.08729496                0.01000000                0.10077385               -0.09833548                0.12869826                0.69799029                0.00768668               -0.04386633
               2.93812824                2.89091991               69.09002213                0.01000000                0.01378001                0.00821828                0.13517378                0.94653080                0.02022547               -0.03146655
               3.93796342                2.89103932               69.09293306                0.01200891               -0.11172221                0.06890249                0.14225202                1.08276834                0.01667021               -0.01227786
               4.93589380                2.89070334               69.09576924                0.01000000               -0.39660486                0.19823756                0.14754637                1.28584778                0.00032277                0.02300678
               5.93003132                2.89382600               69.09850604                0.01000001               -0.63688517                0.37841852                0.14913306                1.29014239               -0.04473072                0.08419967
               6.92315610                2.89199174               69.10084462                0.01000000               -0.57870121                0.62512288                0.14824861                1.21066108               -0.04667402                0.15833473
               7.91845730                2.89272337               69.10386997                0.01518755               -0.50231555                0.49928512                0.15200585                0.79631051               -0.08608060                0.13650510
               8.91310978                2.88967835               69.10561798                0.01494539               -0.29224315                0.16762443                0.15513215                0.53007805               -0.07580700                0.13460410
               9.91261243                2.89046248               69.10880943                0.23236255               -0.04973499               -0.18145884                0.16230527                0.57412836               -0.00421622                0.13356537
              -0.05343612                3.90538632               69.08545402                0.43712679               -0.03533631                0.02942515                0.11777513               -0.00726809               -0.00326619                0.01490591
               0.94621052                3.89455980               69.08759003                0.01000000                0.05885516               -0.10691393                0.12447319                0.37266294                0.01692256               -0.04871867
               1.94774098                3.89136534               69.09012364                0.01000000                0.15213174               -0.19296982                0.13388304                0.83127028                0.04365039               -0.05250009
               2.94925315                3.89063821               69.09302136                0.01201282                0.05023770               -0.11752207                0.14349162                1.02299115                0.05555452               -0.02970445
               3.94874574                3.89052407               69.09602474                0.01000000               -0.09961212               -0.11101181                0.15050851                1.24703888                0.06397445               -0.00143536
               4.94726091                3.89258088               69.09932378                0.01000001               -0.19357008                0.14780175                0.15731247                1.64612480                0.06872977                0.07378207
               5.94487434                3.89748584               69.10268790                0.01000001               -0.35885677                0.36487044                0.16462702                1.95758293                0.05113391                0.18313266
               6.94008377                3.90063250               69.10599333                0.01227668               -0.61470175                0.65035006                0.16975821                1.79363740               -0.04027472                0.25045279
               7.93258030                3.89906832               69.10801526                0.01186005               -0.66622110                0.61536144                0.16273019                1.31835826               -0.11992212                0.27814208
               8.92675935                3.89339953               69.11044479                0.01000000               -0.46169481                0.68443104                0.14602519                1.06057531               -0.11994605                0.39920081
               9.92334641                3.88738068               69.11309970                0.26376907               -0.34129475                0.24795520                0.13388703                0.72851907               -0.08143514                0.38599286
              -0.04204076                4.90541939               69.08861999                0.55462386               -0.03722303               -0.01180540                0.12172156               -0.00349695               -0.00308286                0.02124760
               0.95758701                4.89376149               69.09042592                0.01000000                0.01377920               -0.06491934                0.12806888                0.34235307                0.02837389               -0.04214837
               1.95823482                4.88905702               69.09285673                0.01000001                0.09211672               -0.28017525                0.13962067                0.86607706                0.07819053               -0.07425180
               2.95942934                4.88856947               69.09597023                0.01000000                0.13633523               -0.39059327                0.15006024                1.16315433                0.11061988               -0.07276399
               3.96096153                4.88881908               69.09935965                0.01000001                0.12125920               -0.22149575                0.16028279                1.57005490                0.15443649                0.00222398
               4.96185453                4.89365938               69.10350179                0.01000001                0.00849164                0.03544758                0.17185442                2.10221262                0.19902479                0.12404682
               5.96113136                4.90112341               69.10804806                0.01216525               -0.22040815                0.20122026                0.18120371                2.12883258                0.14015350                0.20067062
               6.95744636                4.90499874               69.11132536                0.01067554               -0.45369625                0.38462322                0.18327025                1.86903630                0.05508107                0.29597684
               7.95205743                4.90503059               69.11448531                0.01000000               -0.57187178                0.80655943                0.17694485                1.76186810                0.06900478                0.49449606
               8.94600893                4.90336697               69.11830488                0.01000000               -0.64184629                1.28740757                0.17180459                1.35262309                0.09841012                0.66208332
               9.93922051                4.89542158               69.12181511                0.30243290               -0.67884189                1.08536229                0.17128636                0.97866312                0.10909672                0.62639897
              -0.03019026                5.90515022               69.09186150                0.75438664               -0.03897933               -0.03249820                0.12682211                0.00072491               -0.00364527                0.02603114
               0.96941994                5.89326142               69.09335164                0.01000001                0.02224029               -0.04585850                0.13317189                0.21837956                0.02086021               -0.03286359
               1.97025454                5.88576184               69.09532838                0.01143661                0.16671186               -0.40374631                0.14536982                0.61293976                0.07777357               -0.13048859
               2.97275418                5.88282634               69.09821419                0.01000001                0.24011932               -0.59022055                0.15820733                1.19342779                0.19925727               -0.15336962
               3.97505693                5.88609415               69.10273340                0.01000001                0.21233283               -0.36125757                0.17337251                1.81283898                0.32099631               -0.00644034
               4.97700084                5.89328983               69.10828995                0.01216116                0.05273499               -0.18522970                0.18829046                2.08679261                0.31367730                0.07208518
               5.97611163                5.90151024               69.11291249                0.01067578               -0.17217629                0.00662813                0.19433953                2.08455071                0.26905779                0.18848671
               6.97355731                5.90832496               69.11784855                0.01000000               -0.33310973                0.46004536                0.19330905                2.13364638                0.31459979                0.42215456
               7.96944943                5.91519951               69.12361258                0.01000000               -0.50682422                1.17527497                0.19839908                2.15750927                0.38948688                0.71930598
               8.96342083                5.91914768               69.12986257                0.01406651               -0.53194985                1.27994420                0.22324601                1.38273494                0.27953257                0.66867052
               9.95881044                5.90908793               69.13272405                0.36756190               -0.46103901                1.06605394                0.22633498                0.67117108                0.13984900                0.51430296
              -0.01824866                6.90476942               69.09514545                1.00000000               -0.04083586               -0.03976084                0.13279112                0.00186207               -0.00360930                0.02904237
               0.98134298                6.89284432               69.09635132                0.28564040               -0.04113219               -0.04197447                0.13949401                0.00321131               -0.02908710               -0.02747432
               1.98092869                6.88098210               69.09704482                0.01606855                0.08113026               -0.26172167                0.14765889                0.32451517                0.05342746               -0.11743820
               2.98296558                6.87676506               69.09989714                0.01000000                0.29130630               -0.47919547                0.16289259                1.06281591                0.32819618               -0.11401579
               3.98675482                6.88159393               69.10618442                0.01228018                0.26043528               -0.57361290                0.18661948                1.69987986                0.45472425               -0.12700516
               4.98817429                6.88995478               69.11176037                0.01067481                0.05162103               -0.36244095                0.19926313                1.94757299                0.45999164               -0.01767276
               5.98778724                6.90125597               69.11841756                0.01000000               -0.08721313                0.02433514                0.20293404                2.21216253                0.56499186                0.27310634
               6.98643003                6.91419964               69.12648056                0.01000000               -0.17011679                0.72997925                0.21119763                2.50089218                0.69575152                0.64806805
               7.98438490                6.92853609               69.13601006                0.01410281               -0.33274105                0.90233007                0.23489100                1.86867938                0.44678957                0.58723425
               8.97977520                6.92896585               69.13896083                0.01165997               -0.58107352                1.00389508                0.23587348                0.67195688                0.07196619                0.61741566
               9.97276343                6.91674266               69.14035710                0.49150087               -0.70117721                1.27861749                0.23627426                0.23713219                0.03228404                0.53344560
              -0.00630281                7.90435500               69.09846124                0.99123681               -0.04256889               -0.04230306                0.13874563                0.00135858               -0.00663806                0.03458636
               0.99327150                7.89242193               69.09936666                0.89190933               -0.04365403               -0.04335193                0.14631472                0.00141983               -0.01776967               -0.01699715
               1.99282410                7.88052740               69.10004610                0.01000000                0.00635848               -0.04646225                0.15461965                0.23097936                0.09632249               -0.04222885
               2.99339867                7.87324243               69.10323869                0.01518077                0.15203488               -0.42552761                0.16609102                0.76910927                0.28790621               -0.17019098
               3.99586480                7.87462189               69.10761813                0.01186056                0.14457961               -0.53613302                0.18651165                1.43745950                0.50037032               -0.23247522
               4.99629026                7.88604101               69.11515954                0.01000000                0.01226084               -0.28422026                0.20093187                1.89717037                0.79591407                0.02585049
               5.99611002                7.90199694               69.12550353                0.01000000                0.00023856                0.14525418                0.22100970                2.25915702                1.03038950                0.43006814
               6.99629503                7.92292455               69.13836298                0.01407172               -0.20266014                0.43744071                0.25127520                1.97926455                0.74478559                0.44329780
               7.99205682                7.93324611               69.14350740                0.01105105               -0.38208154                0.73447308                0.24452276                1.29208147                0.50239162                0.53625913
               8.98865340                7.93922558               69.15130366                0.43226402               -0.20286776                0.48008934                0.21209095                0.74506090                0.32491060                0.33003920
               9.98799946                7.93466028               69.15257017                0.96514595               -0.06539374                0.86093178                0.22442455                0.53344444               -0.00221876                0.31376839
               0.00564465                8.90392336               69.10186104                0.99394777               -0.04456835               -0.04375629                0.14445134                0.00100525                0.00002216                0.03239882
               1.00519897                8.89197728               69.10256839                0.99999999               -0.04584391               -0.04552571                0.15260139                0.00014693                0.00011071               -0.00357606
               2.00472778                8.88005285               69.10327522                0.12962898               -0.04728459               -0.04828353                0.16078974                0.00545990                0.00233755               -0.02820592
               3.00425328                8.86825451               69.10403454                0.01523109               -0.10111724               -0.28070958                0.18927673                0.67653374                0.25301129               -0.15479640
               4.00270543                8.87087127               69.10974466                0.01000000               -0.27553163               -0.14355859                0.15671119                1.28477778                0.77975817               -0.20903428
               4.99874265                8.88427038               69.12011319                0.01000000               -0.33092947                0.02517230                0.20195458                1.39309981                1.18634421                0.10653678
               5.99608684                8.90416105               69.13442756                0.01400384               -0.19882458                0.13621399                0.26447386                1.29491321                1.07012378                0.36616532
               6.99476615                8.92294846               69.14322786                0.01038440               -0.10806705               -0.10785641                0.26129621                1.32981178                0.96490261               -0.00214660
               7.99392550                8.94322556               69.15593782                0.42072838               -0.07519503                0.46555922                0.21539039                1.10950129                0.57326383                0.33578255
               8.99326225                8.93856764               69.15713525                0.98839524               -0.06812860               -0.06812445                0.22769045               -0.00016538               -0.00247220                0.00345790
               9.99256293                8.93396130               69.15833059                1.00000000               -0.06993253               -0.07220166                0.23997687               -0.00240868               -0.00278078               -0.00656691
               0.01760945                9.90347987               69.10513363                0.99593253               -0.04645070               -0.04434865                0.15045644               -0.00036626                0.02767726                0.02630510
               1.01714494                9.89151141               69.10585111                0.99246771               -0.04766888               -0.04658667                0.15861927               -0.00130952                0.02779925                0.00040925
               2.01665607                9.87956173               69.10656811                0.72736412               -0.05170111               -0.04911167                0.16684211               -0.00132874                0.05331274               -0.02552116
               3.01611092                9.86762824               69.10780152                0.23573596               -0.55557939               -0.06262678                0.19446626                0.79521389                0.26643521               -0.00705147
               4.00554449                9.87175072               69.11272181                0.26571712               -1.26242260                0.08794542                0.13560980                1.22971637                0.92991686               -0.20645991
               4.99086247                9.88654446               69.12546634                0.30240523               -1.11071418                0.22740765                0.20261354                0.86050762                1.32488388                0.14078371
               5.98333020                9.90472122               69.14000675                0.36633506               -0.35178550                0.05601728                0.26062185                0.43548439                0.97279533                0.19789761
               6.98382676                9.92076742               69.14625419                0.48896904                0.76487301               -0.21810396                0.26332921                0.79786403                1.02681385               -0.10497062
               7.99862766                9.94255729               69.16168289                0.95137358                0.70437946               -0.06682638                0.23084084                1.32499989                0.71861983                0.00186088
               8.99791435                9.93786309               69.16295219                1.00000000               -0.07318467               -0.07045464                0.24320970               -0.00184277                0.00742424                0.00287622
               9.99716397                9.93321624               69.16414721                0.99374764               -0.07503801               -0.07450528                0.25549055               -0.00458061                0.00399422               -0.00383268
              -0.08705122               -0.09873638               70.07388835                0.88889571               -0.02466265               -0.02441391                0.09846785                0.00376018               -0.00340491                0.00359536
               0.91270215               -0.10477917               70.07680547                0.61523654               -0.00946179               -0.03794431                0.10549947                0.01602813               -0.00242989               -0.00354308
               1.91275954               -0.11031090               70.07973117                0.40590672                0.04115170               -0.03186178                0.11257758                0.04734149                0.00473889               -0.00199155
               2.91352518               -0.11412080               70.08273206                0.38456989                0.07425795               -0.03324666                0.11718265                0.01544775                0.01233836               -0.00313139
               3.91424470               -0.11559956               70.08571150                0.44317226                0.04503430               -0.03482136                0.12024458               -0.01188818                0.01337284               -0.00257265
               4.91442587               -0.11543771               70.08868895                0.55872361               -0.00007258               -0.03702135                0.12444148               -0.00849482                0.01480658               -0.00195660
               5.91424325               -0.11455931               70.09169418                0.75880345               -0.02662471               -0.03904103                0.13018029               -0.00266122                0.01640377               -0.00210119
               6.91389337               -0.11345908               70.09471854                0.99999999               -0.03805658               -0.04114905                0.13700828                0.00055142                0.01740546               -0.00197685
               7.91348212               -0.11230996               70.09775571                0.99238034               -0.04258298               -0.04326434                0.14405060                0.00133322                0.01999515               -0.00349445
               8.91304172               -0.11115189               70.10083758                0.99360701               -0.04519900               -0.04540535                0.15108015                0.00127412                0.01844859                0.00003519
               9.91257814               -0.10999278               70.10384595                0.99549631               -0.04635795               -0.04765866                0.15819024                0.00109537                0.01488213                0.01563867
              -0.08097083                0.90101948               70.07708107                0.61393120               -0.03794773               -0.00919201                0.10446696                0.01637946                0.00208022                0.00593695
               0.91864969                0.89484138               70.07998888                0.01000000               -0.05627015               -0.05573474                0.11144044                0.04818059                0.00420854               -0.00833158
               1.91790377                0.88937048               70.08294889                0.01000000               -0.11628519                0.02014685                0.11725054                0.19887821                0.00055523               -0.02440539
               2.91632399                0.88554674               70.08585033                0.01000000               -0.15597450                0.07096149                0.12026518                0.33865366               -0.01331827               -0.02621724
               3.91478428                0.88405223               70.08865907                0.01000000               -0.12515952                0.08431573                0.12206722                0.41917342               -0.02272884               -0.01668507
               4.91382080                0.88419207               70.09144139                0.01000000               -0.07784794                0.05670693                0.12534640                0.39787962               -0.02312905               -0.00620856
               5.91322732                0.88505028               70.09425623                0.01000001               -0.05232915                0.08714633                0.13059620                0.25283142               -0.01868089               -0.00353523
               6.91277421                0.88612943               70.09711298                0.28083022               -0.04427311               -0.04101099                0.13729311               -0.00189788               -0.01536004               -0.01680762
               7.91234185                0.88725739               70.09997917                0.87357448               -0.04391748               -0.04322537                0.14454084                0.00009378               -0.00944739               -0.00994732
               8.91189586                0.88839405               70.10294660                1.00000000               -0.04559385               -0.04548638                0.15175230                0.00019390               -0.00196547               -0.00005125
               9.91142998                0.88953063               70.10596090                0.99098539               -0.04658869               -0.04776157                0.15889622               -0.00002522                0.00030450                0.01567004
              -0.07436744                1.90107978               70.08030923                0.40313107               -0.03177940                0.03864235                0.11004913                0.04793137               -0.00003471                0.00847936
               0.92531476                1.89410613               70.08308643                0.01000000                0.01995968               -0.11180025                0.11760816                0.19812641               -0.00727224               -0.02429961
               1.92603175                1.89009203               70.08571281                0.01000001                0.01508723                0.01305418                0.12266190                0.52029535               -0.01013575               -0.04462704
               2.92561651                1.88729843               70.08850070                0.01000000               -0.10244591                0.10714805                0.12807379                0.75742709               -0.00629959               -0.04241462
               3.92398283                1.88608676               70.09131883                0.01000000               -0.21155478                0.19207350                0.13327305                0.94209135               -0.01230856               -0.02141744
               4.92138541                1.88569643               70.09410489                0.01000001               -0.33101575                0.17214525                0.13784393                1.01821889               -0.02409228               -0.00112537
               5.91736252                1.88718361               70.09678675                0.01141161               -0.48685551                0.29842726                0.14108006                0.69133743               -0.04708241                0.01516525
               6.91164830                1.88572070               70.09920880                0.01601742               -0.30715743                0.16852752                0.13772456                0.34300935               -0.05112814                0.02102096
               7.91121937                1.88682553               70.10207139                0.01000000               -0.04379740                0.15741094                0.14527347                0.25294670               -0.02334672                0.04610483
               8.91077235                1.88793838               70.10505320                0.10048415               -0.04574469               -0.04116674                0.15243785                0.00891537               -0.01570058                0.00059255
               9.91030447                1.88905199               70.10807608                0.70116319               -0.04678788               -0.05191934                0.15960183                0.00705270               -0.01399349                0.02807729
              -0.06606491                2.90179233               70.08349111                0.38006195               -0.03351235                0.06442115                0.11428588                0.01779140               -0.00269922                0.00906161
               0.93359997                2.89260538               70.08601896                0.01000000                0.05911410               -0.14388282                0.12182816                0.32683165               -0.00048469               -0.04509855
               1.93511737                2.88963156               70.08858349                0.01000000                0.09389208               -0.10271647                0.12906807                0.72411025                0.00754509               -0.04277532
               2.93547781                2.88768970               70.09138350                0.01000000                0.00553704                0.00286141                0.13665086                0.97358436                0.02069700               -0.02589843
               3.93522811                2.88789370               70.09437006                0.01202396               -0.11947453                0.06044898                0.14445311                1.10827669                0.01721873               -0.00398597
               4.93308832                2.88763498               70.09726311                0.01000000               -0.40991617                0.18770737                0.15051800                1.31656762               -0.00048292                0.03363323
               5.92702979                2.89101882               70.10002141                0.01000001               -0.65479150                0.36828204                0.15298480                1.32721882               -0.04594500                0.09893474
               6.91999249                2.88949998               70.10235378                0.01000000               -0.59233387                0.60869068                0.15361065                1.23800558               -0.04433176                0.17917485
               7.91518311                2.89040561               70.10541857                0.01535064               -0.50723868                0.48636136                0.15834460                0.79947519               -0.08312573                0.15190508
               8.90984771                2.88757072               70.10718075                0.01606972               -0.29196473                0.15564141                0.15727525                0.51440737               -0.07859829                0.13267622
               9.90934382                2.88849225               70.11044425                0.23365536               -0.05038966               -0.21096287                0.16529451                0.56758888               -0.00425971                0.11887905
              -0.05563772                3.90236820               70.08662928                0.43819827               -0.03501197                0.03020010                0.11726331               -0.00613351               -0.00320890                0.01214736
               0.94401216                3.89122848               70.08883571                0.01000000                0.05336776               -0.10891980                0.12476143                0.38956783                0.01862216               -0.05195344
               1.94542964                3.88803770               70.09147203                0.01000000                0.14069492               -0.19692979                0.13544094                0.86119174                0.04705047               -0.05086320
               2.94682606                3.88735566               70.09447260                0.01201262                0.03867256               -0.12248812                0.14613896                1.05170684                0.05809574               -0.02380463
               3.94620309                3.88729574               70.09755039                0.01000000               -0.11172101               -0.12001993                0.15375619                1.27885034                0.06556660                0.00742518
               4.94459164                3.88945057               70.10092175                0.01000001               -0.20805985                0.13966585                0.16109029                1.68192311                0.07222086                0.08663511
               5.94204189                3.89454926               70.10437243                0.01000001               -0.37850075                0.35034091                0.17012222                2.00094740                0.05943634                0.20038430
               6.93702162                3.89789452               70.10775661                0.01230987               -0.64518772                0.62616681                0.18176711                1.83939056               -0.03053595                0.26927459
               7.92913814                3.89655276               70.10970525                0.01198137               -0.70238785                0.58797740                0.18357273                1.36178762               -0.12152770                0.29272983
               8.92297387                3.89105121               70.11192774                0.01000000               -0.46624679                0.63548351                0.15593999                1.08794469               -0.13586744                0.41972496
               9.91981320                3.88483273               70.11440261                0.26453331               -0.31606673                0.16968713                0.11663827                0.75193846               -0.08789548                0.39224480
              -0.04390813                4.90239633               70.08983327                0.55421055               -0.03700501               -0.01266172                0.12088208               -0.00241857               -0.00292174                0.01921941
               0.95572182                4.89042698               70.09170674                0.01000000                0.00610744               -0.06447915                0.12820729                0.35745826                0.03151729               -0.04432865
               1.95621402                4.88569297               70.09426439                0.01000001                0.07660460               -0.28465531                0.14178622                0.89765912                0.08373063               -0.07211521
               2.95725391                4.88523994               70.09749104                0.01000000                0.12480947               -0.40110143                0.15348472                1.19946890                0.11511191               -0.06556466
               3.95871021                4.88549330               70.10099012                0.01000001                0.11096733               -0.23256717                0.16471356                1.60913464                0.15955148                0.01612026
               4.95947326                4.89042830               70.10525683                0.01000001               -0.00527078                0.02342608                0.17702555                2.14744907                0.20499569                0.14349709
               5.95860479                4.89802564               70.10990728                0.01222747               -0.23482312                0.18412014                0.18761653                2.17678032                0.14528721                0.21687716
               6.95477680                4.90202332               70.11321704                0.01076997               -0.46713110                0.35312096                0.19330641                1.92186895                0.05843039                0.30417292
               7.94926217                4.90216516               70.11631190                0.01000000               -0.57250821                0.75223980                0.18792494                1.82180517                0.07387920                0.50710729
               8.94332663                4.90028039               70.12005267                0.01000000               -0.62213148                1.22058641                0.18304374                1.42065866                0.11145914                0.69739945
               9.93681954                4.89188599               70.12351325                0.30241266               -0.65070910                1.00497423                0.17118518                1.03799451                0.12386860                0.67223461
              -0.03174740                5.90211497               70.09312500                0.75264340               -0.03879120               -0.03348529                0.12575082                0.00163628               -0.00343164                0.02484036
               0.96786469                5.88993889               70.09468316                0.01000001                0.01586320               -0.04476152                0.13316830                0.22888565                0.02446692               -0.03343451
               1.96856986                5.88234460               70.09679573                0.01140910                0.15752080               -0.41349451                0.14795298                0.64191118                0.08522949               -0.13012447
               2.97101511                5.87933363               70.09982363                0.01000001                0.23137780               -0.60617753                0.16299239                1.23463694                0.20892013               -0.14427647
               3.97319742                5.88264439               70.10451170                0.01000001                0.19965867               -0.37804851                0.18004778                1.86016305                0.33038824                0.01631019
               4.97500828                5.88991909               70.11022674                0.01222245                0.03925262               -0.20085693                0.19591821                2.13612976                0.31601737                0.09739661
               5.97398247                5.89823166               70.11490782                0.01078079               -0.18443972               -0.01487770                0.20180702                2.12252463                0.26340628                0.20404454
               6.97131948                5.90495694               70.11982054                0.01000000               -0.33326529                0.41977986                0.19872075                2.15579022                0.31109283                0.43226135
               7.96731717                5.91159755               70.12563534                0.01000000               -0.48266362                1.11232885                0.20483526                2.19018239                0.40456089                0.73752398
               8.96166621                5.91546294               70.13214680                0.01437558               -0.49776375                1.20359444                0.23271763                1.41453426                0.29750306                0.68915151
               9.95736189                5.90493221               70.13501261                0.36755932               -0.43043191                1.01145764                0.23072774                0.68934043                0.14703939                0.54429270
              -0.01952325                6.90172662               70.09646868                1.00000000               -0.04068415               -0.04027294                0.13170716                0.00235598               -0.00348053                0.02823976
               0.98006990                6.88953175               70.09774675                0.28378569               -0.04096216               -0.04127849                0.13958193                0.00486770               -0.02803795               -0.02688763
               1.97965750                6.87742308               70.09852975                0.01601671                0.07884768               -0.26904559                0.14948982                0.34149517                0.05999081               -0.11803129
               2.98164686                6.87311639               70.10156450                0.01000000                0.28352539               -0.49450684                0.16929389                1.09862988                0.34486364               -0.10718848
               3.98532801                6.87793233               70.10812902                0.01231794                0.24808657               -0.60457812                0.20096035                1.74999772                0.46677206               -0.09891866
               4.98660859                6.88641116               70.11383242                0.01077192                0.03447176               -0.38510099                0.21274136                2.00167884                0.45460628                0.01128327
               5.98601745                6.89772809               70.12049721                0.01000000               -0.10409409                0.00622096                0.21017953                2.23732006                0.55448184                0.29731982
               6.98452671                6.91041892               70.12862905                0.01000000               -0.17288136                0.70196709                0.21614943                2.50062161                0.69751980                0.67605599
               7.98255982                6.92441174               70.13839714                0.01444568               -0.31220261                0.84948153                0.24121105                1.85753892                0.44905541                0.59938081
               8.97828266                6.92435228               70.14135249                0.01204009               -0.54460123                0.89492226                0.24139803                0.66732930                0.06452076                0.59550185
               9.97166779                6.91211514               70.14274194                0.49154222               -0.66148616                1.19007109                0.24037884                0.24064489                0.02770603                0.52360227
              -0.00731054                7.90130951               70.09984396                0.99102818               -0.04238715               -0.04245849                0.13774795                0.00144164               -0.00621925                0.03359507
               0.99226559                7.88911332               70.10083141                0.89122687               -0.04371632               -0.04312974                0.14670965                0.00188941               -0.01697482               -0.01636750
               1.99181514                7.87696369               70.10160126                0.01000000                0.01064301               -0.04699715                0.15655355                0.23254836                0.09961339               -0.04069361
               2.99247845                7.86944350               70.10492662                0.01535317                0.15437346               -0.43824771                0.17521812                0.77319069                0.30325646               -0.15234683
               3.99490260                7.87055283               70.10959096                0.01199412                0.13838234               -0.58491033                0.21307196                1.49386153                0.50947770               -0.22344827
               4.99524610                7.88221707               70.11727287                0.01000000               -0.00907444               -0.30633019                0.22102225                1.96988493                0.79204764                0.06119323
               5.99472112                7.89835608               70.12778087                0.01000000               -0.02989155                0.14659944                0.23257390                2.29509685                1.02918826                0.48140087
               6.99464827                7.91899628               70.14092057                0.01441643               -0.20932663                0.42980497                0.25815605                1.96481232                0.73463963                0.47141166
               7.99053458                7.92858718               70.14598681                0.01144319               -0.36694364                0.65034115                0.24969307                1.22241192                0.46523896                0.51303662
               8.98730939                7.93336138               70.15343330                0.43248572               -0.19427589                0.41741544                0.21384077                0.69217256                0.30107172                0.30962534
               9.98664907                7.92873364               70.15482656                0.96582896               -0.06603282                0.79571871                0.22686643                0.51774907               -0.00223024                0.29997142
               0.00489795                8.90087745               70.10330013                0.99358015               -0.04444337               -0.04363254                0.14328710                0.00097760                0.00023247                0.03136429
               1.00445352                8.88866916               70.10409606                0.99999999               -0.04598266               -0.04553398                0.15298507                0.00014250                0.00033620               -0.00343321
               2.00397830                8.87648313               70.10489204                0.15001378               -0.04659939               -0.04884801                0.16266815                0.00190591                0.01607749               -0.02725301
               3.00352153                8.86435143               70.10601152                0.01637701               -0.07733161               -0.28239427                0.17917267                0.64814888                0.24326306               -0.14530381
               4.00243166                8.86623412               70.11136807                0.01000000               -0.26592436               -0.19353876                0.18627314                1.34990469                0.78747425               -0.21568692
               4.99820304                8.88028455               70.12224069                0.01000000               -0.36457419                0.02340959                0.23465020                1.47962895                1.20928814                0.14939778
               5.99514018                8.90066008               70.13716920                0.01430818               -0.23055963                0.14208135                0.28240432                1.33047641                1.06962572                0.40864267
               6.99359185                8.91901501               70.14590641                0.01070915               -0.12486140               -0.11316609                0.27092268                1.26632849                0.91775703                0.00946913
               7.99264295                8.93741856               70.15808973                0.41920476               -0.08060978                0.40832714                0.21498614                1.02773388                0.54060466                0.31208062
               8.99197965                8.93270059               70.15941352                0.98868257               -0.06823434               -0.06819351                0.22796411               -0.00016147               -0.00248409                0.00353806
               9.99127827                8.92802952               70.16073514                1.00000000               -0.07013873               -0.07249958                0.24094296               -0.00218066               -0.00280106               -0.00655767
               0.01712561                9.90043686               70.10663233                0.99548067               -0.04628440               -0.04405953                0.14906548               -0.00065586                0.02704427                0.02550633
               1.01666276                9.88820264               70.10743850                0.99207687               -0.04773124               -0.04665139                0.15882522               -0.00158211                0.02728572                0.00040580
               2.01617098                9.87598673               70.10824516                0.73250266               -0.04861607               -0.04964074                0.16861899               -0.00108322                0.06530980               -0.02469053
               3.01569044                9.86379561               70.10981855                0.23732400               -0.51017014               -0.05558197                0.18273680                0.75165759                0.23695537               -0.00266265
               4.00596758                9.86668205               70.11406028                0.26678578               -1.26388583                0.04479324                0.13525047                1.29807405                0.91340589               -0.20561270
               4.99041272                9.88268527               70.12755434                0.30269500               -1.16836976                0.24007133                0.23434278                0.94675070                1.35338883                0.17672524
               5.98260018                9.90119770               70.14268217                0.36648606               -0.35981855                0.05376283                0.27413438                0.44838465                0.98690965                0.20960515
               6.98321635                9.91673296               70.14896611                0.48901924                0.74017532               -0.22820596                0.27592635                0.74025145                0.99713290               -0.09636256
               7.99740369                9.93675373               70.16398190                0.94984176                0.67394284               -0.06648344                0.22897228                1.23930145                0.69174807                0.00188385
               8.99669521                9.93199751               70.16537826                1.00000000               -0.07280461               -0.07030758                0.24201977               -0.00194841                0.00749835                0.00290792
               9.99594760                9.92728364               70.16669950                0.99400602               -0.07476124               -0.07458702                0.25499300               -0.00445355                0.00401116               -0.00385775
              -0.09003563               -0.10192547               71.07487224                0.88896348               -0.02409398               -0.02382277                0.09832259                0.00397629               -0.00299519                0.00310782
               0.90972343               -0.10802658               71.07786038                0.61660668               -0.00763274               -0.03846251                0.10548100                0.01742355               -0.00195566               -0.00329785
               1.90981171               -0.11357158               71.08085748                0.40935797                0.04514519               -0.03157060                0.11266357                0.04988186                0.00415561               -0.00192647
               2.91062633               -0.11728597               71.08390391                0.38798426                0.07774946               -0.03292707                0.11716978                0.01656398                0.00959806               -0.00316985
               3.91136670               -0.11858171               71.08691290                0.44471495                0.04609080               -0.03453270                0.12001647               -0.01071640                0.01013731               -0.00252732
               4.91154815               -0.11821371               71.08993123                0.55863395               -0.00048839               -0.03681694                0.12396685               -0.00756640                0.01268714               -0.00186132
               5.91135693               -0.11714386               71.09299322                0.75742079               -0.02738208               -0.03889033                0.12956740               -0.00189326                0.01542381               -0.00199575
               6.91100051               -0.11587425               71.09608586                0.99999999               -0.03853563               -0.04104106                0.13638818                0.00098133                0.01698853               -0.00191105
               7.91058622               -0.11456984               71.09919356                0.99222632               -0.04278511               -0.04314182                0.14342735                0.00144316                0.01963432               -0.00331646
               8.91014480               -0.11326289               71.10234554                0.99324036               -0.04518202               -0.04535833                0.15039498                0.00127384                0.01813641                0.00019388
               9.90968258               -0.11195434               71.10542526                0.99505444               -0.04622227               -0.04762290                0.15754562                0.00091252                0.01469252                0.01559152
              -0.08389475                0.89783631               71.07812517                0.61515247               -0.03845235               -0.00729980                0.10436335                0.01783930                0.00165387                0.00526685
               0.91572072                0.89158879               71.08110342                0.01000000               -0.05825091               -0.05777270                0.11146682                0.05272705                0.00312113               -0.00799759
               1.91494023                0.88611271               71.08412159                0.01000000               -0.12118435                0.01882465                0.11727930                0.20842926               -0.00281187               -0.02389699
               2.91329703                0.88238476               71.08705270                0.01000000               -0.16084093                0.06891749                0.12022275                0.35236704               -0.01874761               -0.02379674
               3.91172341                0.88107296               71.08987888                0.01000000               -0.12717385                0.07941973                0.12192707                0.43450511               -0.02789196               -0.01170046
               4.91075356                0.88141812               71.09269349                0.01000000               -0.07775678                0.04928095                0.12509050                0.41134998               -0.02639349                0.00010684
               5.91016827                0.88246724               71.09556095                0.01000001               -0.05151224                0.07997253                0.13036916                0.26273050               -0.01996868                0.00196799
               6.90972331                0.88371534               71.09848556                0.27885233               -0.04366493               -0.04080451                0.13725040               -0.00041434               -0.01546128               -0.01653892
               7.90929497                0.88499874               71.10142553                0.87267643               -0.04367599               -0.04324237                0.14475971                0.00056632               -0.00925909               -0.00957014
               8.90884979                0.88628352               71.10446570                1.00000000               -0.04559092               -0.04561833                0.15208650                0.00020404               -0.00187426                0.00014364
               9.90838316                0.88756943               71.10755172                0.99059730               -0.04666373               -0.04788005                0.15926924               -0.00021496                0.00034102                0.01566256
              -0.07718382                1.89792854               71.08140905                0.40635948               -0.03146139                0.04278786                0.10993311                0.05077324               -0.00024536                0.00709580
               0.92250156                1.89081796               71.08426327                0.01000000                0.01840785               -0.11701375                0.11776549                0.20831713               -0.00878130               -0.02505053
               1.92318433                1.88680491               71.08694012                0.01000001                0.01059281                0.00944878                0.12297060                0.54041868               -0.01288539               -0.04334440
               2.92271342                1.88409238               71.08978230                0.01000000               -0.10804455                0.10226445                0.12825019                0.78301773               -0.00908257               -0.03717384
               3.92102344                1.88300669               71.09265538                0.01000000               -0.21662742                0.18275343                0.13412675                0.96921532               -0.01599564               -0.01151916
               4.91838087                1.88277191               71.09549077                0.01000001               -0.33545581                0.15705138                0.13913977                1.04640700               -0.02724047                0.00989581
               5.91431433                1.88445559               71.09820477                0.01139308               -0.49600753                0.28758832                0.14182800                0.71956101               -0.05239525                0.02719814
               6.90846072                1.88330966               71.10059037                0.01594987               -0.31424825                0.16560408                0.13871525                0.36293500               -0.05580089                0.03011153
               7.90802936                1.88456531               71.10352969                0.01000000               -0.04412620                0.15644324                0.14656444                0.25939611               -0.02267880                0.05400710
               8.90757820                1.88582474               71.10658362                0.10386965               -0.04614452               -0.04130966                0.15380081                0.00925466               -0.01537600                0.00278629
               9.90710647                1.88708805               71.10967841                0.70464528               -0.04717248               -0.05279470                0.16099318                0.00718632               -0.01376175                0.03089386
              -0.06865815                2.89869206               71.08463270                0.38317764               -0.03311633                0.06792855                0.11405332                0.01917926               -0.00284557                0.00630822
               0.93101069                2.88924852               71.08723883                0.01000000                0.05661661               -0.14925008                0.12217781                0.34241354               -0.00086921               -0.04763892
               1.93247419                2.88630169               71.08987632                0.01000000                0.08724612               -0.10688672                0.12953466                0.75211463                0.00736491               -0.04122263
               2.93275561                2.88443005               71.09275515                0.01000000               -0.00230006               -0.00189012                0.13765004                1.00248156                0.02104666               -0.01964046
               3.93242819                2.88472803               71.09582213                0.01201830               -0.12614124                0.05229110                0.14553413                1.13567873                0.01767873                0.00455010
               4.93023279                2.88455915               71.09877960                0.01000000               -0.42032213                0.17739730                0.15208041                1.34966959               -0.00116179                0.04372771
               5.92402174                2.88821901               71.10156574                0.01000001               -0.66802460                0.35760259                0.15415357                1.36910734               -0.04439626                0.11353533
               6.91687230                2.88702742               71.10391684                0.01000000               -0.60269647                0.59225407                0.15617466                1.27940570               -0.03474860                0.20553168
               7.91196781                2.88812760               71.10703686                0.01552304               -0.51800781                0.47321356                0.16352679                0.81895835               -0.07162390                0.18566899
               8.90651214                2.88545733               71.10876348                0.01729983               -0.29837823                0.15486856                0.16008283                0.50761898               -0.08485348                0.13512384
               9.90600025                2.88651353               71.11211532                0.23513099               -0.05118914               -0.24657389                0.16894181                0.58223517               -0.00478761                0.09068781
              -0.05791315                3.89928711               71.08779928                0.43939943               -0.03466401                0.03079973                0.11675150               -0.00481369               -0.00315774                0.00890547
               0.94174021                3.88783296               71.09008525                0.01000000                0.04791243               -0.11105258                0.12524418                0.40778047                0.02026777               -0.05510268
               1.94304510                3.88466718               71.09283246                0.01000000                0.12982473               -0.20053323                0.13665407                0.89362798                0.05098905               -0.05014102
               2.94433671                3.88405458               71.09594414                0.01203117                0.02814097               -0.12614466                0.14746227                1.08177843                0.06058853               -0.01734831
               3.94360792                3.88405251               71.09909987                0.01000000               -0.12267079               -0.12739279                0.15551648                1.31119257                0.06683032                0.01622267
               4.94188329                3.88631985               71.10254558                0.01000001               -0.21898580                0.13325952                0.16254311                1.71798118                0.07576367                0.09874955
               5.93922820                3.89160765               71.10609034                0.01000001               -0.38715257                0.33532773                0.17063045                2.04450200                0.07321109                0.21618181
               6.93414024                3.89515474               71.10962867                0.01236754               -0.66247923                0.59954239                0.18276637                1.88799946                0.00230972                0.28714086
               7.92597862                3.89402958               71.11168671                0.01214266               -0.73977954                0.55575226                0.20680348                1.42494715               -0.07123273                0.31689910
               8.91934465                3.88892211               71.11356359                0.01000000               -0.46699257                0.58192838                0.16253554                1.13258102               -0.04861540                0.39192256
               9.91663877                3.88215658               71.11543246                0.26541990               -0.27058802                0.08713663                0.14037990                0.76227036               -0.04078856                0.37962117
              -0.04584613                4.89930806               71.09103763                0.55379033               -0.03676377               -0.01377481                0.11996092               -0.00116211               -0.00277099                0.01673007
               0.95378623                4.88702747               71.09299007                0.01000000               -0.00143685               -0.06401273                0.12860063                0.37406536                0.03497082               -0.04667526
               1.95412513                4.88229102               71.09569245                0.01000001                0.06098085               -0.28865960                0.14373613                0.93266245                0.08848810               -0.07040756
               2.95500585                4.88190715               71.09903992                0.01000000                0.11308130               -0.40936138                0.15560129                1.23845286                0.11871572               -0.05772790
               3.95638676                4.88218018               71.10265392                0.01000001                0.10157120               -0.23855260                0.16651614                1.64854240                0.16326147                0.03020953
               4.95703727                4.88722434               71.10704230                0.01000001               -0.01549307                0.01711609                0.17747350                2.18935816                0.21002278                0.16259948
               5.95607690                4.89492556               71.11180039                0.01229084               -0.24134618                0.16967817                0.18644634                2.21758364                0.15371539                0.23094224
               6.95221035                4.89901827               71.11519149                0.01089922               -0.46887569                0.32017162                0.19525549                1.96142482                0.07253864                0.30579749
               7.94669938                4.89924265               71.11824381                0.01000000               -0.55867929                0.69175848                0.19054946                1.86567037                0.10624075                0.49442341
               8.94103677                4.89709590               71.12196576                0.01000000               -0.59613314                1.13543883                0.20038162                1.48312923                0.14244982                0.70408341
               9.93477672                4.88825627               71.12523881                0.30239188               -0.62600431                0.92942530                0.17272747                1.08507848                0.14801530                0.73719762
              -0.03337521                5.89901161               71.09437651                0.75066199               -0.03862358               -0.03463994                0.12447403                0.00269526               -0.00318972                0.02328260
               0.96623855                5.88655271               71.09601500                0.01000001                0.00969365               -0.04345766                0.13338279                0.24086423                0.02870671               -0.03420432
               1.96681866                5.87889398               71.09828744                0.01138957                0.14890273               -0.42375434                0.14978696                0.67501343                0.09403363               -0.12954290
               2.96921661                5.87586735               71.10147404                0.01000001                0.22214607               -0.61944309                0.16557532                1.28226060                0.21809468               -0.13415923
               3.97126158                5.87928146               71.10633436                0.01000001                0.18542301               -0.38219411                0.18168068                1.91152044                0.33863181                0.04457787
               4.97292507                5.88666217               71.11220832                0.01228801                0.02621816               -0.20450091                0.19538349                2.17903527                0.31628827                0.12682228
               5.97178595                5.89500121               71.11694863                0.01091814               -0.19367108               -0.02981255                0.20143269                2.14496670                0.25690131                0.21874471
               6.96905165                5.90155817               71.12182297                0.01000000               -0.32857762                0.38012349                0.19776561                2.15668409                0.31010079                0.43581051
               7.96521439                5.90786475               71.12770929                0.01000000               -0.45290158                1.04647943                0.20592539                2.20079538                0.42545522                0.74542928
               8.95999361                5.91163089               71.13451693                0.01473402               -0.45973983                1.12467444                0.23743442                1.42821900                0.31859638                0.69945776
               9.95601960                5.90074508               71.13733860                0.36758415               -0.39740170                0.95722495                0.23507252                0.69951579                0.15241650                0.57496372
              -0.02087442                6.89861526               71.09777959                1.00000000               -0.04044366               -0.04080795                0.13020940                0.00296100               -0.00326782                0.02717644
               0.97872115                6.88615831               71.09914296                0.28185081               -0.04074100               -0.04037199                0.13960254                0.00684095               -0.02664506               -0.02625014
               1.97831076                6.87381594               71.10003461                0.01595521                0.07712221               -0.27713682                0.15173838                0.36312355                0.06785721               -0.11854443
               2.98026359                6.86951829               71.10328302                0.01000000                0.27557895               -0.50594348                0.17312252                1.14889221                0.36812555               -0.09315604
               3.98382234                6.87453629               71.11020362                0.01237504                0.23173179               -0.61837908                0.20401483                1.80312783                0.47791514               -0.04807175
               4.98489823                6.88313432               71.11601520                0.01088908                0.01289476               -0.39027875                0.21610220                2.04046243                0.44257463                0.05481656
               5.98408024                6.89432931               71.12262115                0.01000000               -0.12088677               -0.00241183                0.20961917                2.23732741                0.53561794                0.32608207
               6.98248049                6.90662073               71.13080354                0.01000000               -0.17188307                0.67586268                0.21419652                2.47865812                0.69763578                0.70180386
               7.98064258                6.92017224               71.14083428                0.01485977               -0.28798393                0.79747474                0.24308760                1.83015603                0.45281148                0.60785734
               8.97672081                6.91958939               71.14378879                0.01247556               -0.50519658                0.78630851                0.24360431                0.65350014                0.05709258                0.56892904
               9.97053864                6.90740076               71.14516467                0.49159750               -0.61821682                1.09607121                0.24319857                0.23857563                0.02328363                0.51321344
              -0.00840210                7.89819545               71.10121620                0.99069978               -0.04232030               -0.04264930                0.13658684                0.00157442               -0.00585831                0.03232549
               0.99117470                7.88574527               71.10230085                0.89048080               -0.04383716               -0.04283958                0.14720439                0.00242166               -0.01590405               -0.01559102
               1.99072116                7.87335125               71.10317717                0.01000000                0.01496987               -0.04760240                0.15871696                0.24131592                0.10784223               -0.03873665
               2.99147409                7.86574848               71.10674305                0.01554003                0.14934790               -0.45308932                0.18348669                0.79707703                0.32389081               -0.15067059
               3.99370811                7.86691387               71.11187957                0.01213718                0.12336040               -0.62240414                0.23591611                1.57557599                0.52999405               -0.15222441
               4.99394130                7.87885660               71.11957998                0.01000000               -0.03310176               -0.30787267                0.22874956                2.01340794                0.75768162                0.14493423
               5.99304608                7.89495297               71.13015501                0.01000000               -0.05797098                0.15516493                0.23465653                2.29761104                1.00995399                0.54267376
               6.99278188                7.91507542               71.14352610                0.01481367               -0.20986068                0.42357863                0.25974709                1.92907705                0.72043175                0.49922369
               7.98884886                7.92381425               71.14850127                0.01191063               -0.34733956                0.56499216                0.25005338                1.14347710                0.42675210                0.48635220
               8.98583509                7.92735706               71.15558048                0.43268862               -0.18402568                0.35520282                0.21557344                0.63493052                0.27600877                0.28856213
               9.98516835                7.92266651               71.15710750                0.96647060               -0.06667392                0.72782152                0.22931561                0.49719600               -0.00223741                0.28621824
               0.00405744                8.89776227               71.10472678                0.99320641               -0.04436545               -0.04349257                0.14191459                0.00092987                0.00036074                0.03005468
               1.00361379                8.88530152               71.10562809                0.99999999               -0.04617841               -0.04553083                0.15342650                0.00023725                0.00056543               -0.00327056
               2.00313387                8.87286389               71.10652858                0.15800037               -0.04856405               -0.04947866                0.16478306                0.00080241                0.00950063               -0.02599274
               3.00264250                8.86045650               71.10761800                0.01753999               -0.04540656               -0.28937808                0.16871465                0.63925724                0.25445972               -0.15334523
               4.00222574                8.86208821               71.11347012                0.01000000               -0.27576090               -0.23299095                0.22479002                1.44445324                0.68893569               -0.10692324
               4.99712729                8.87697686               71.12480620                0.01000000               -0.42060531                0.02975343                0.26639717                1.53557279                1.15080276                0.24798039
               5.99381363                8.89743261               71.14007564                0.01466694               -0.24632637                0.14672046                0.28992542                1.33629955                1.03872817                0.45513218
               6.99220076                8.91509231               71.14864631                0.01107736               -0.12915747               -0.11773223                0.27303089                1.18636389                0.85853025                0.01944871
               7.99123049                8.93147208               71.16023754                0.41764502               -0.08167990                0.34981929                0.21457389                0.94013702                0.50431084                0.28714683
               8.99056716                8.92669344               71.16169453                0.98890491               -0.06834111               -0.06826434                0.22824520               -0.00016308               -0.00250459                0.00360110
               9.98986366                8.92195720               71.16314945                1.00000000               -0.07034982               -0.07280703                0.24193961               -0.00195686               -0.00282284               -0.00656465
               0.01653800                9.89732560               71.10811494                0.99505294               -0.04601708               -0.04366712                0.14711783               -0.00103926                0.02630864                0.02446893
               1.01607783                9.88483465               71.10902761                0.99167268               -0.04778881               -0.04668702                0.15891348               -0.00179233                0.02659999                0.00036563
               2.01558222                9.87236167               71.10994049                0.73869877               -0.05214564               -0.05022133                0.17072886                0.00114813                0.05635363               -0.02362909
               3.01503491                9.85996092               71.11145626                0.23914952               -0.47527010               -0.04955883                0.17256344                0.73385991                0.20601427               -0.00562866
               4.00607682                9.86225405               71.11542682                0.26790211               -1.28632768                0.01658430                0.22557650                1.35964538                0.72689112               -0.08364810
               4.98930836                9.87945167               71.13015319                0.30291156               -1.22100961                0.24748035                0.26882152                0.99977366                1.32436273                0.23481309
               5.98165663                9.89788738               71.14548944                0.36662436               -0.34193362                0.04547730                0.28444374                0.44775474                0.97570660                0.21838519
               6.98246969                9.91272078               71.15177272                0.48908902                0.71969223               -0.23715286                0.28138868                0.67305530                0.95795532               -0.08889562
               7.99605047                9.93081063               71.16626233                0.94826451                0.64385134               -0.06614494                0.22713321                1.14554814                0.65885425                0.00190996
               8.99534671                9.92599177               71.16779259                1.00000000               -0.07243821               -0.07016718                0.24087281               -0.00205791                0.00756413                0.00293700
               9.99460171                9.92121037               71.16924707                0.99425634               -0.07450074               -0.07468284                0.25456136               -0.00433591                0.00402520               -0.00388729
              -0.09308742               -0.10518008               72.07585480                0.88918292               -0.02347872               -0.02319096                0.09820250                0.00420156               -0.00255347                0.00257893
               0.90667780               -0.11133121               72.07891509                0.61831344               -0.00567270               -0.03902422                0.10545757                0.01891131               -0.00146113               -0.00301774
               1.90679913               -0.11687765               72.08198444                0.41332255                0.04919636               -0.03124529                0.11270868                0.05238436                0.00348303               -0.00185402
               2.90766172               -0.12048178               72.08507546                0.39178062                0.08104947               -0.03258157                0.11711204                0.01778074                0.00654294               -0.00318863
               3.90842012               -0.12158207               72.08811183                0.44637997                0.04687867               -0.03421922                0.11974982               -0.00933025                0.00645261               -0.00245322
               4.90859930               -0.12099944               72.09116829                0.55848223               -0.00115100               -0.03658873                0.12339871               -0.00647460                0.01011577               -0.00172649
               5.90839710               -0.11973469               72.09428553                0.75577149               -0.02832476               -0.03872193                0.12881222               -0.00098676                0.01410969               -0.00184494
               6.90803280               -0.11829671               72.09744630                0.99999999               -0.03909887               -0.04091509                0.13560705                0.00148401                0.01630217               -0.00181128
               7.90761512               -0.11684023               72.10062426                0.99192948               -0.04300289               -0.04299142                0.14262333                0.00155966                0.01896746               -0.00305251
               8.90717274               -0.11538834               72.10384548                0.99289187               -0.04512884               -0.04528063                0.14947451                0.00126334                0.01753478                0.00039173
               9.90671254               -0.11393386               72.10699687                0.99461871               -0.04601992               -0.04754050                0.15660758                0.00067148                0.01427592                0.01533684
              -0.08689427                0.89458801               72.07916834                0.61680218               -0.03900369               -0.00528806                0.10427962                0.01938439                0.00118767                0.00453080
               0.91271569                0.88827855               72.08221822                0.01000000               -0.06037380               -0.05995367                0.11148449                0.05760765                0.00193235               -0.00757892
               1.91189825                0.88280990               72.08529447                0.01000000               -0.12619766                0.01740313                0.11729383                0.21848719               -0.00635109               -0.02312306
               2.91019174                0.87919241               72.08825478                0.01000000               -0.16563025                0.06671409                0.12021238                0.36618563               -0.02430995               -0.02124864
               3.90858565                0.87807574               72.09109761                0.01013018               -0.12904394                0.07475993                0.12187076                0.44882942               -0.03322029               -0.00622775
               4.90761086                0.87863467               72.09394320                0.01000000               -0.07748927                0.04038349                0.12489768                0.42471359               -0.02978122                0.00698501
               5.90703586                0.87987809               72.09686361                0.01000001               -0.05052262                0.07287398                0.13018542                0.27386917               -0.02119235                0.00741869
               6.90660041                0.88129414               72.09985799                0.27657696               -0.04296653               -0.04058140                0.13726108                0.00131614               -0.01534732               -0.01599894
               7.90617653                0.88272986               72.10287436                0.87166964               -0.04341084               -0.04327156                0.14505247                0.00110705               -0.00889775               -0.00897517
               8.90573219                0.88415885               72.10598833                1.00000000               -0.04558791               -0.04576650                0.15246625                0.00021256               -0.00174189                0.00038921
               9.90526478                0.88559073               72.10914628                0.99019786               -0.04674170               -0.04799403                0.15963405               -0.00045608                0.00037434                0.01546302
              -0.08008080                1.89471416               72.08250789                0.41016335               -0.03111386                0.04701211                0.10983734                0.05356499               -0.00046682                0.00554644
               0.91960806                1.88746972               72.08544174                0.01000000                0.01679051               -0.12239645                0.11790199                0.21897623               -0.01027378               -0.02559543
               1.92025501                1.88347041               72.08817222                0.01000001                0.00557666                0.00524348                0.12456271                0.56164433               -0.01650895               -0.04236650
               2.91971960                1.88085251               72.09106571                0.01000000               -0.11502821                0.09713218                0.12918318                0.81019545               -0.01353334               -0.03196555
               3.91795445                1.87991313               72.09400136                0.01000000               -0.22141886                0.17322370                0.13456500                0.99636529               -0.02262659               -0.00067173
               4.91529122                1.87980823               72.09688769                0.01000001               -0.33697168                0.14100284                0.13950252                1.07601325               -0.03318124                0.01866772
               5.91121501                1.88172279               72.09962331                0.01135412               -0.50419314                0.27629326                0.14157826                0.75260989               -0.05856899                0.03744238
               6.90520736                1.88089166               72.10198310                0.01587751               -0.32212314                0.16390907                0.14004394                0.38987689               -0.05951518                0.03844475
               7.90477255                1.88229434               72.10500267                0.01000000               -0.04456189                0.16160580                0.14822724                0.27660591               -0.02158322                0.06258859
               8.90431612                1.88369633               72.10812922                0.10815937               -0.04664482               -0.04328149                0.15549608                0.00759538               -0.01481474                0.00549072
               9.90383965                1.88510626               72.11129594                0.70914259               -0.04764639               -0.05193934                0.16265636                0.00497394               -0.01333084                0.03402060
              -0.07133408                2.89552825               72.08577217                0.38674071               -0.03269547                0.07136118                0.11384748                0.02063561               -0.00298229                0.00317150
               0.92833896                2.88583062               72.08846252                0.01000000                0.05412157               -0.15472634                0.12254468                0.35813949               -0.00149086               -0.04979158
               1.92974835                2.88291477               72.09117418                0.01000000                0.08069846               -0.11258307                0.13073971                0.78199774                0.00636738               -0.04076189
               2.92995293                2.88113505               72.09413650                0.01000000               -0.00955575               -0.00642914                0.13883271                1.03381366                0.02031715               -0.01394534
               3.92955724                2.88154021               72.09728074                0.01203697               -0.13157325                0.04376308                0.14623617                1.16517390                0.01687192                0.01250507
               4.92732147                2.88145473               72.10030471                0.01000000               -0.42763042                0.16773215                0.15244261                1.38444813               -0.00408973                0.05117509
               5.92100463                2.88540395               72.10310448                0.01000001               -0.67475372                0.34577253                0.15273525                1.41628016               -0.04605309                0.12408362
               6.91382639                2.88457232               72.10547728                0.01000000               -0.60503204                0.57355103                0.15311344                1.34110557               -0.02645426                0.22452432
               7.90890399                2.88596197               72.10868911                0.01572235               -0.53771064                0.46947222                0.16305737                0.88634547               -0.06087291                0.22785814
               8.90307218                2.88329322               72.11038241                0.01000001               -0.31797987                0.09955297                0.16569238                0.62648318               -0.09039938                0.13464349
               9.90254439                2.88455195               72.11382308                0.23651824               -0.05277923               -0.29022988                0.17251356                0.69687434               -0.00528043                0.09838740
              -0.06027281                3.89614138               72.08896431                0.44078318               -0.03428476                0.03127237                0.11628607               -0.00333640               -0.00309940                0.00513747
               0.93938434                3.88437519               72.09134059                0.01012514                0.04316728               -0.11334445                0.12584083                0.42524106                0.02169731               -0.05791157
               1.94059053                3.88121875               72.09420511                0.01000000                0.11930432               -0.20424666                0.13742121                0.92671537                0.05482751               -0.05138220
               2.94177042                3.88072392               72.09742185                0.01203592                0.01738602               -0.12897858                0.14842309                1.11417294                0.06143779               -0.01203629
               3.94093825                3.88078839               72.10066072                0.01000000               -0.13269922               -0.13386062                0.15656135                1.34273879                0.06553432                0.02356272
               4.93911644                3.88316287               72.10417261                0.01000001               -0.22576143                0.12814124                0.16232966                1.75278128                0.07466205                0.10638379
               5.93642302                3.88863824               72.10778504                0.01000001               -0.38224963                0.31911241                0.16597974                2.08625468                0.07752945                0.22601350
               6.93147145                3.89236268               72.11141194                0.01243234               -0.63222320                0.56863266                0.17048284                1.95016506                0.03544778                0.29822627
               7.92377856                3.89168378               72.11384132                0.01231715               -0.66078203                0.50345394                0.18178840                1.45167176               -0.01821272                0.34006479
               8.91825581                3.88568739               72.11517845                0.01000000               -0.42594366                0.50577530                0.19737982                1.18631616                0.13619835                0.32097247
               9.91525969                3.87930166               72.11721020                0.26625207               -0.29961212                0.00859286                0.22042903                0.89589488                0.18203426                0.41609273
              -0.04786842                4.89615370               72.09223249                0.55336387               -0.03651638               -0.01513618                0.11905018                0.00023475               -0.00266257                0.01373899
               0.95176642                4.88356373               72.09427875                0.01000000               -0.00988287               -0.06366361                0.12923762                0.39098447                0.03830939               -0.04887377
               1.95193392                4.87882983               72.09713911                0.01000001                0.04501685               -0.29035867                0.14495460                0.96963624                0.09078204               -0.07043809
               2.95266675                4.87855548               72.10060306                0.01000000                0.10195713               -0.41582820                0.15680263                1.27964125                0.11949965               -0.05168158
               3.95397307                4.87886300               72.10432044                0.01000001                0.09302466               -0.24010690                0.16671722                1.68797983                0.16297640                0.04047175
               4.95452725                4.88401755               72.10880630                0.01000001               -0.02215787                0.01598867                0.17420796                2.22632693                0.20864849                0.17415057
               5.95352991                4.89178620               72.11363621                0.01237378               -0.23715491                0.15737789                0.17826873                2.25051243                0.15569335                0.23854052
               6.94978415                4.89594497               72.11712215                0.01104699               -0.44585954                0.28492052                0.18327257                1.97671197                0.07947362                0.30457412
               7.94461272                4.89603105               72.12012289                0.01000000               -0.53017606                0.61159410                0.18400115                1.84087545                0.14515130                0.46230156
               8.93918063                4.89340873               72.12406030                0.01000000               -0.56894910                1.09708393                0.19283402                1.44228865                0.15604588                0.70313225
               9.93323374                4.88472380               72.12696780                0.30237326               -0.59468923                0.86019842                0.19014418                1.10686714                0.13472074                0.78110949
              -0.03508817                5.89583866               72.09561448                0.74848493               -0.03839321               -0.03616174                0.12307841                0.00397948               -0.00298802                0.02136095
               0.96452789                5.88310192               72.09735081                0.01000001                0.00398389               -0.04214110                0.13394863                0.25442418                0.03241108               -0.03517520
               1.96499150                5.87541158               72.09979147                0.01136552                0.14010951               -0.43336869                0.15069816                0.71230539                0.10067823               -0.12933655
               2.96733008                5.87240736               72.10313513                0.01000001                0.21221373               -0.62856141                0.16599990                1.33741397                0.22258270               -0.12578676
               3.96923578                5.87598625               72.10814532                0.01000001                0.16948465               -0.37186565                0.17832292                1.96281752                0.34059969                0.06341654
               4.97071978                5.88348264               72.11413441                0.01237208                0.01350356               -0.19408624                0.18734963                2.21574250                0.31111419                0.14691634
               5.96950585                5.89178580               72.11893647                0.01108681               -0.19794701               -0.03714273                0.19216020                2.14949980                0.24637012                0.22579014
               6.96676084                5.89806109               72.12377586                0.01000000               -0.31867677                0.34034444                0.18980308                2.13060044                0.30591411                0.43107484
               7.96313231                5.90391567               72.12975385                0.01000000               -0.41760048                0.98729277                0.19574267                2.17930300                0.44336853                0.75243458
               8.95840883                5.90762906               72.13689549                0.01514594               -0.41827214                1.06292895                0.23539171                1.42517259                0.34071600                0.70084580
               9.95476687                5.89650563               72.13971406                0.36763357               -0.36419559                0.89433525                0.23801319                0.69505423                0.15978114                0.60349116
              -0.02231534                6.89543047               72.09907287                0.99999998               -0.04026758               -0.04149159                0.12834596                0.00360269               -0.00302535                0.02602537
               0.97728198                6.88272091               72.10053880                0.28015845               -0.04050344               -0.03927740                0.13985376                0.00953200               -0.02465936               -0.02561338
               1.97687459                6.87016246               72.10156452                0.01586944                0.07791890               -0.28582963                0.15427618                0.39008097                0.07527740               -0.11832318
               2.97884036                6.86598425               72.10502695                0.01000000                0.26397724               -0.51561264                0.17396295                1.20935072                0.38422705               -0.08065151
               3.98215413                6.87142569               72.11220932                0.01242781                0.21010973               -0.58722045                0.19300572                1.87906758                0.48145758               -0.00167615
               4.98304255                6.88013583               72.11815446                0.01104040               -0.01063392               -0.35789414                0.20322688                2.05110857                0.43008643                0.08628119
               5.98194146                6.89104335               72.12468959                0.01000000               -0.13881336               -0.00153686                0.20043934                2.20421314                0.51378953                0.34386593
               6.98026629                6.90275186               72.13291299                0.01000000               -0.16553249                0.65384465                0.20232639                2.43416831                0.69785528                0.72121788
               7.97863081                6.91577691               72.14325889                0.01533048               -0.25860853                0.74976535                0.23855363                1.78991873                0.45972795                0.61428773
               8.97509412                6.91466730               72.14622458                0.01297617               -0.46245579                0.67989060                0.24076745                0.63240540                0.05256999                0.54320137
               9.96938169                6.90261051               72.14760592                0.49167649               -0.57124273                0.99837965                0.24457067                0.23349058                0.02110189                0.50254919
              -0.00959700                7.89500883               72.10257569                0.99999998               -0.04164602               -0.04253290                0.13426888                0.00164836               -0.00531121                0.03094220
               0.98998654                7.88231637               72.10377550                0.89012769               -0.04366111               -0.04219617                0.14695515                0.00336016               -0.01499198               -0.01459950
               1.98952978                7.86969499               72.10477560                0.01000000                0.01336665               -0.04812530                0.16111679                0.25412777                0.11610426               -0.03650316
               2.99025387                7.86209511               72.10859636                0.01572708                0.15678898               -0.47064656                0.18830525                0.86878400                0.35053092               -0.14896817
               3.99266556                7.86424184               72.11430929                0.01231639                0.09352080               -0.54386400                0.21118800                1.55488488                0.55851099               -0.07088082
               4.99212429                7.87632476               72.12184786                0.01000000               -0.08457401               -0.27324387                0.21743022                1.95421165                0.71052882                0.22900837
               5.99097408                7.89175506               72.13247400                0.01000000               -0.07068228                0.16924705                0.21898656                2.24731991                0.99367546                0.59084168
               6.99071064                7.91113798               72.14611551                0.01531550               -0.19794159                0.42027546                0.25288592                1.87450927                0.71008973                0.52354751
               7.98701524                7.91891097               72.15098788                0.01245483               -0.32436549                0.48117616                0.24337309                1.05695152                0.39145537                0.45810038
               8.98422333                7.92122688               72.15774477                0.43287734               -0.17324857                0.29465989                0.21726585                0.57428887                0.25283047                0.26907172
               9.98355027                7.91647322               72.15941287                0.96706410               -0.06730593                0.65740727                0.23176030                0.47114868               -0.00223900                0.27345807
               0.00310254                8.89457981               72.10613842                0.99281396               -0.04395174               -0.04294520                0.13908928                0.00088910                0.00028469                0.02798472
               1.00266303                8.88187698               72.10716459                0.99999999               -0.04620691               -0.04527254                0.15330293                0.00014068                0.00065584               -0.00331395
               2.00217841                8.86919995               72.10818770                0.16750012               -0.04969223               -0.05023350                0.16743112                0.00169841                0.00862395               -0.02433530
               3.00166918                8.85657132               72.10938581                0.01000001               -0.15781140               -0.30442961                0.18138908                0.77094915                0.27948898               -0.15795142
               3.99902218                8.86054841               72.11586387                0.01000000               -0.35278048               -0.15730713                0.26178582                1.36212672                0.52988445                0.14459797
               4.99461357                8.87467095               72.12756863                0.01000002               -0.34737750                0.01813860                0.24093156                1.42964742                1.07440080                0.33419329
               5.99207463                8.89442829               72.14296770                0.01506516               -0.20065074                0.14913798                0.28161170                1.30035675                1.00812037                0.49536313
               6.99060056                8.91115737               72.15136703                0.01152169               -0.11968419               -0.12178788                0.26603893                1.09320322                0.80376631                0.02648450
               7.98968094                8.92540043               72.16238121                0.41608033               -0.07914564                0.29156823                0.21414131                0.84743963                0.46838607                0.26410250
               8.98901765                8.92056050               72.16397842                0.98906817               -0.06844870               -0.06833640                0.22853232               -0.00016772               -0.00254059                0.00365522
               9.98831197                8.91575865               72.16557393                1.00000000               -0.07056747               -0.07312768                0.24297637               -0.00174167               -0.00284620               -0.00657938
               0.01582643                9.89414992               72.10957469                0.99460754               -0.04572254               -0.04298842                0.14502633               -0.00151195                0.02536122                0.02235661
               1.01536921                9.88141092               72.11061677                0.99128591               -0.04785120               -0.04660656                0.15908737               -0.00236249                0.02567720               -0.00005731
               2.01486941                9.86869032               72.11165974                0.74616344               -0.05224015               -0.05096387                0.17322308               -0.00112004                0.05368727               -0.02206790
               3.01432440                9.85600651               72.11326982                0.24117682               -0.65304716               -0.05648069                0.18526526                0.88579133                0.26692726               -0.00745528
               4.00180846                9.86109570               72.11857181                0.26877804               -1.37435240                0.05472943                0.32965754                1.31267947                0.40383004                0.30891658
               4.98683736                9.87668753               72.13293077                0.30296602               -1.06568375                0.20165834                0.26030815                0.90448410                1.22703115                0.25293955
               5.98049479                9.89473782               72.14837104                0.36680591               -0.26173953                0.03095300                0.28828778                0.44275088                0.96484097                0.22790301
               6.98160256                9.90870223               72.15459388                0.48920690                0.70330580               -0.24551433                0.28117893                0.60042667                0.91919032               -0.08139070
               7.99456091                9.92474234               72.16852456                0.94666672                0.61295946               -0.06580924                0.22531977                1.04589213                0.62394393                0.00194211
               8.99386175                9.91986015               72.17019572                1.00000000               -0.07208848               -0.07003547                0.23977663               -0.00217259                0.00761560                0.00296586
               9.99311914                9.91501067               72.17179073                0.99450536               -0.07426183               -0.07479860                0.25421453               -0.00423140                0.00403623               -0.00391958
              -0.09620729               -0.10850097               73.07683629                0.88956515               -0.02281511               -0.02251979                0.09811183                0.00443151               -0.00208799                0.00201792
               0.90356456               -0.11469319               73.07996954                0.62045526               -0.00358505               -0.03962432                0.10542061                0.02048054               -0.00095622               -0.00271665
               1.90372101               -0.12022872               73.08311165                0.41784030                0.05326216               -0.03088071                0.11268974                0.05480247                0.00270974               -0.00178154
               2.90462980               -0.12370840               73.08624615                0.39597234                0.08409565               -0.03220683                0.11699779                0.01910768                0.00319608               -0.00318392
               3.90540292               -0.12460234               73.08930790                0.44816587                0.04734806               -0.03387844                0.11945844               -0.00771831                0.00231131               -0.00234765
               4.90557677               -0.12379808               73.09239921                0.55830802               -0.00209065               -0.03635026                0.12275728               -0.00521237                0.00701615               -0.00155513
               5.90536111               -0.12233693               73.09556946                0.75393208               -0.02944741               -0.03852398                0.12784581                0.00006449                0.01235003               -0.00163492
               6.90498782               -0.12073385               73.09879800                1.00000000               -0.03973598               -0.04075921                0.13455809                0.00207141                0.01531958               -0.00167910
               7.90456639               -0.11913110               73.10204603                0.99150933               -0.04324618               -0.04280820                0.14164859                0.00168293                0.01798496               -0.00266176
               8.90412289               -0.11754076               73.10533503                0.99249708               -0.04505306               -0.04516693                0.14833073                0.00124668                0.01656241                0.00065025
               9.90366533               -0.11594644               73.10855741                0.99414862               -0.04575632               -0.04739484                0.15525064                0.00037247                0.01355443                0.01485305
              -0.08997076                0.89127383               73.08021076                0.61886162               -0.03960044               -0.00316963                0.10421774                0.02099539                0.00069854                0.00373568
               0.90963324                0.88491057               73.08333311                0.01016295               -0.06263011               -0.06225285                0.11148145                0.06279224                0.00067916               -0.00710378
               1.90877664                0.87946248               73.08646746                0.01000000               -0.13127733                0.01532944                0.11728634                0.22840702               -0.00997294               -0.02099223
               2.90700769                0.87596953               73.08945695                0.01000000               -0.17030302                0.06398753                0.12025115                0.37901010               -0.02989643               -0.01788585
               3.90537058                0.87505887               73.09231630                0.01031706               -0.13078793                0.07062336                0.12194625                0.46074472               -0.03863998               -0.00089097
               4.90439193                0.87583842               73.09519144                0.01000000               -0.07704697                0.02909158                0.12483584                0.43687494               -0.03330643                0.01355870
               5.90382964                0.87727784               73.09816466                0.01000001               -0.04931584                0.06502507                0.13003734                0.28532797               -0.02239804                0.01238389
               6.90340562                0.87885856               73.10123079                0.27404168               -0.04214831               -0.04034434                0.13728659                0.00331092               -0.01498473               -0.01509685
               7.90298668                0.88044082               73.10432658                0.87048653               -0.04312919               -0.04332827                0.14547798                0.00171025               -0.00831228               -0.00816575
               8.90254303                0.88200757               73.10751503                1.00000000               -0.04559689               -0.04593824                0.15293789                0.00022631               -0.00157414                0.00066426
               9.90207474                0.88357961               73.11074440                0.98988367               -0.04682957               -0.04809454                0.15994861               -0.00074268                0.00039266                0.01507354
              -0.08306086                1.89143564               73.08360579                0.41452745               -0.03073830                0.05126211                0.10976713                0.05622538               -0.00068650                0.00384638
               0.91663176                1.88406175               73.08662131                0.01000000                0.01455221               -0.12783662                0.11798180                0.22939317               -0.01056942               -0.02594086
               1.91723019                1.88007787               73.08943137                0.01000001               -0.00090769               -0.00044606                0.12960376                0.58302558               -0.02445594               -0.04543989
               2.91661361                1.87757135               73.09236597                0.01000000               -0.12406274                0.09127341                0.13053211                0.83899804               -0.02034625               -0.02612252
               3.91474893                1.87681013               73.09534668                0.01000000               -0.22591514                0.16299501                0.13487381                1.02196147               -0.03042393                0.01007658
               4.91209530                1.87678375               73.09828083                0.01000001               -0.33507008                0.12296507                0.13941788                1.10443852               -0.04008483                0.02723040
               5.90804753                1.87896358               73.10103633                0.01131369               -0.51021273                0.26305550                0.14156714                0.78869934               -0.06540650                0.04435858
               6.90189105                1.87845926               73.10339125                0.01577761               -0.32979741                0.16152541                0.14178451                0.41958644               -0.06168784                0.04298301
               7.90145158                1.88000234               73.10649424                0.01000000               -0.04512087                0.17026503                0.15028421                0.29698803               -0.01998903                0.06767340
               8.90098863                1.88154048               73.10969354                0.11350917               -0.04725915               -0.04533042                0.15755631                0.00582353               -0.01395255                0.01036534
               9.90050640                1.88309167               73.11293154                0.71499167               -0.04822320               -0.05062941                0.16463897                0.00204681               -0.01265879                0.03704776
              -0.07409849                2.89229907               73.08690965                0.39073138               -0.03226458                0.07469528                0.11369168                0.02213432               -0.00308178               -0.00030945
               0.92557887                2.88235384               73.08968973                0.01000000                0.05130220               -0.16016255                0.12284422                0.37280381               -0.00158520               -0.05148603
               1.92692756                2.87945355               73.09249111                0.01000000                0.07382656               -0.12016363                0.13218137                0.81356853                0.00547800               -0.04227061
               2.92705540                2.87779500               73.09553180                0.01000000               -0.01650735               -0.01120322                0.14066143                1.06807324                0.01754638               -0.00957096
               3.92659741                2.87831878               73.09874685                0.01203929               -0.13640718                0.03369659                0.14787647                1.19608114                0.01376450                0.01985243
               4.92432725                2.87829772               73.10182845                0.01000000               -0.43346457                0.15810943                0.15328336                1.41885394               -0.01099059                0.05663136
               5.91792812                2.88253895               73.10462044                0.01000001               -0.67843351                0.33163036                0.15156914                1.46416403               -0.05599821                0.12785783
               6.91075858                2.88208907               73.10697911                0.01000000               -0.60414473                0.55075657                0.14928963                1.41045210               -0.03076721                0.23098907
               7.90584522                2.88384612               73.11029801                0.01594426               -0.55942046                0.46973761                0.15967706                0.97040825               -0.06214439                0.21853687
               8.89957018                2.88110096               73.11207733                0.01000001               -0.34159662                0.00615960                0.17343330                0.82159978               -0.08795381                0.17076975
               9.89901329                2.88256702               73.11556559                0.23810300               -0.05568841               -0.28789742                0.17779898                0.93208328               -0.00537144                0.14292986
              -0.06272770                3.89292954               73.09012501                0.44236815               -0.03389482                0.03167985                0.11591888               -0.00177437               -0.00302259                0.00088782
               0.93693336                3.88085850               73.09260207                0.01029647                0.03940453               -0.11570324                0.12639660                0.44059941                0.02246754               -0.06019644
               1.93806039                3.87767460               73.09558089                0.01000000                0.10882478               -0.20788236                0.13816181                0.95888442                0.05783000               -0.05319291
               2.93910985                3.87734729               73.09891260                0.01205196                0.00537216               -0.13173822                0.15035897                1.14842878                0.06132578               -0.00806438
               3.93816784                3.87748406               73.10223110                0.01000000               -0.14288189               -0.14068781                0.15857617                1.37221465                0.06133773                0.02848830
               4.93625221                3.87994594               73.10579218                0.01000001               -0.23141856                0.12239186                0.16309479                1.78396731                0.06608913                0.10900289
               5.93353947                3.88559618               73.10940994                0.01000001               -0.37296490                0.30029971                0.16184994                2.12376283                0.06501832                0.22670226
               6.92879291                3.88947439               73.11303833                0.01251470               -0.58458074                0.53283833                0.15553341                2.01777319                0.01329035                0.29924761
               7.92184785                3.88939709               73.11532248                0.01251545               -0.50465931                0.43650144                0.14216242                1.45041526               -0.01721704                0.33484871
               8.91869973                3.88166367               73.11751119                0.01000000               -0.28159512                0.41702711                0.21167334                1.28396156                0.11054595                0.34416278
               9.91621595                3.87733372               73.11984105                0.26709985               -0.24837798               -0.05962132                0.25523997                1.19914780                0.17512849                0.40493666
              -0.04999190                4.89293267               73.09341864                0.55301997               -0.03623025               -0.01655461                0.11825563                0.00171318               -0.00250425                0.01019394
               0.94964580                4.88003977               73.09557482                0.01000000               -0.01958190               -0.06346777                0.12989463                0.40698350                0.04076775               -0.05055905
               1.94961646                4.87529591               73.09859154                0.01000001                0.02843584               -0.28963780                0.14581046                1.00539884                0.09211812               -0.07080506
               2.95021451                4.87516024               73.10217598                0.01000000                0.09132933               -0.42097812                0.15848223                1.32068365                0.11779593               -0.04824393
               3.95144305                4.87550502               73.10598827                0.01000001                0.08399808               -0.24115733                0.16799319                1.72458936                0.15713931                0.04373638
               4.95189448                4.88074556               73.11052646                0.01000001               -0.02840635                0.01532005                0.17233677                2.25719513                0.19682342                0.17461862
               5.95087492                4.88854494               73.11536577                0.01247663               -0.22906672                0.14337241                0.17004456                2.27663545                0.13971862                0.23555680
               6.94731314                4.89274583               73.11885694                0.01122611               -0.41053330                0.24572163                0.16781718                1.97954246                0.06481482                0.29820153
               7.94266426                4.89257615               73.12192384                0.01000000               -0.50001817                0.51901773                0.17138938                1.79049763                0.12530526                0.47131159
               8.93731278                4.88944150               73.12582244                0.01000000               -0.55040553                1.09099296                0.17113023                1.34732167                0.16053935                0.69851986
               9.93165614                4.88137459               73.12904170                0.30240125               -0.56566333                0.74215342                0.21399687                1.06141498                0.15890960                0.75359588
              -0.03690764                5.89259845               73.09683808                0.74618392               -0.03825760               -0.03790591                0.12175776                0.00532535               -0.00289686                0.01894826
               0.96270979                5.87958915               73.09869398                0.01000001               -0.00222289               -0.04092045                0.13468962                0.26869521                0.03495435               -0.03566644
               1.96304791                5.87188184               73.10130141                0.01131001                0.13023122               -0.44152849                0.15181947                0.75251401                0.10335371               -0.12973220
               2.96531441                5.86892772               73.10479404                0.01000001                0.20131990               -0.63581005                0.16671591                1.39339464                0.22053601               -0.12207764
               3.96707430                5.87266091               73.10990082                0.01000001                0.15208915               -0.35831086                0.17549602                2.01027758                0.33256695                0.06458622
               4.96835620                5.88025234               73.11595531                0.01247966               -0.00012022               -0.17995336                0.17948435                2.24639623                0.29790816                0.14447879
               5.96707190                5.88846363               73.12079183                0.01129797               -0.20018212               -0.04379208                0.18164702                2.14295335                0.22678040                0.21742760
               6.96435255                5.89438883               73.12561903                0.01000000               -0.30548841                0.29798007                0.17745698                2.09344846                0.28476316                0.41879314
               7.96096213                5.89977744               73.13162414                0.01000000               -0.37524173                0.93239044                0.17481693                2.14779940                0.45063203                0.75997808
               8.95684772                5.90348353               73.13922476                0.01561571               -0.36920311                1.00813125                0.22196453                1.42558749                0.36218130                0.71772027
               9.95357807                5.89217679               73.14209886                0.36768815               -0.32696492                0.81891756                0.23781076                0.69641894                0.16700660                0.61210757
              -0.02386679                6.89217455               73.10034651                0.99959884               -0.03969004               -0.04248522                0.12615040                0.00466647               -0.00284101                0.02468167
               0.97573631                6.87922136               73.10194003                0.27883776               -0.04025211               -0.03808288                0.14045874                0.01279738               -0.02368492               -0.02545261
               1.97532817                6.86646534               73.10312014                0.01577047                0.07835149               -0.29419188                0.15632028                0.41985724                0.07942578               -0.11755405
               2.97730334                6.86244404               73.10676227                0.01000000                0.24979084               -0.52587342                0.17428813                1.27550393                0.38436283               -0.07358947
               3.98032398                6.86833880               73.11406374                0.01251179                0.18581715               -0.54096068                0.17988764                1.96274918                0.47585399               -0.01225881
               4.98101968                6.87714649               73.12007973                0.01122993               -0.03632396               -0.31148741                0.18694963                2.04806302                0.41374472                0.08256633
               5.97959750                6.88766910               73.12662994                0.01000000               -0.15756916                0.00140300                0.18705774                2.15694879                0.49228866                0.33070828
               6.97786830                6.89870543               73.13485007                0.01000000               -0.15359800                0.63517513                0.18070995                2.38360537                0.69786113                0.72796561
               7.97652554                6.91122396               73.14560536                0.01592467               -0.22215559                0.70382442                0.22128710                1.74926398                0.46948727                0.62117207
               8.97342519                6.90960413               73.14860414                0.01357782               -0.41637704                0.57505583                0.22986363                0.60739904                0.05190191                0.52179716
               9.96819800                6.89775295               73.15005609                0.49181881               -0.52271829                0.89954316                0.24654040                0.22534712                0.02340399                0.49019444
              -0.01090793                7.89174874               73.10390158                0.99999999               -0.04171217               -0.04257890                0.13095275                0.00175395               -0.00475477                0.02878461
               0.98867495                7.87882749               73.10523995                0.89018863               -0.04348467               -0.04136972                0.14682848                0.00452886               -0.01164087               -0.01412451
               1.98822238                7.86599800               73.10639951                0.01000000                0.01380384               -0.04861487                0.16414243                0.26698669                0.12494352               -0.03411972
               2.98895103                7.85841026               73.11050916                0.01594793                0.17022279               -0.49100099                0.19157955                0.95482329                0.34667430               -0.14688092
               3.99162683                7.86184170               73.11610333                0.01252052                0.05180666               -0.38105783                0.17205490                1.49644797                0.53959577               -0.05463544
               4.98998716                7.87402259               73.12392858                0.01000000               -0.14874510               -0.22843338                0.19708771                1.85708927                0.71461096                0.20561153
               5.98865193                7.88849169               73.13453474                0.01000000               -0.07586805                0.18868665                0.19207162                2.18249391                0.99867039                0.60700363
               6.98846980                7.90709233               73.14858382                0.01589707               -0.18016083                0.42190992                0.23330869                1.81782622                0.71188331                0.53661118
               7.98504871                7.91385393               73.15336873                0.01310752               -0.30015428                0.39967436                0.22922557                0.96767911                0.36687170                0.43469696
               8.98246671                7.91498464               73.15992580                0.43306758               -0.16306676                0.23557360                0.21891282                0.51060777                0.23539701                0.25389257
               9.98178738                7.91016765               73.16174271                0.96762089               -0.06793333                0.58473996                0.23421286                0.43918649               -0.00223724                0.26214060
               0.00201079                8.89132297               73.10750857                0.99241729               -0.04331703               -0.04242698                0.13612456                0.00054865                0.00113635                0.02608459
               1.00157762                8.87839397               73.10869415                0.99999999               -0.04628301               -0.04491706                0.15312624                0.00007166                0.00094649               -0.00278701
               2.00108513                8.86549304               73.10987720                0.17818944               -0.05107571               -0.05108852                0.17022471                0.00052936                0.00980729               -0.02250251
               3.00055611                8.85262402               73.11124578                0.01000001               -0.32222651               -0.31832332                0.18782287                0.98674840                0.32190879               -0.16337167
               3.99464060                8.86071765               73.11870584                0.01000000               -0.45223187                0.05874075                0.25832139                1.14097226                0.62213049                0.13918582
               4.99151147                8.87257782               73.12962483                0.01000002               -0.22314791               -0.01182003                0.19340042                1.23938882                1.09597647                0.32275059
               5.99017765                8.89144283               73.14570788                0.01553368               -0.13244461                0.15735360                0.26086465                1.26021061                1.03144233                0.52368659
               6.98886258                8.90714363               73.15396709                0.01206931               -0.10954171               -0.12265325                0.25007615                1.00023952                0.76535429                0.02955641
               7.98798681                8.91921745               73.16452036                0.41452522               -0.07694782                0.23544148                0.21366734                0.75253843                0.43786487                0.24680239
               8.98732362                8.91431560               73.16626518                0.98914773               -0.06855468               -0.06840700                0.22881854               -0.00017770               -0.00259333                0.00369460
               9.98661572                8.90944775               73.16800898                1.00000000               -0.07079057               -0.07346333                0.24406017               -0.00153449               -0.00287181               -0.00660919
               0.01496105                9.89090020               73.11101547                0.99999999               -0.04547388               -0.04227686                0.14268739               -0.00207952                0.02361593                0.02192485
               1.01450632                9.87792915               73.11220936                0.99094573               -0.04790688               -0.04648185                0.15927001               -0.00332934                0.02411693                0.00032823
               2.01400292                9.86497623               73.11340496                0.75467869               -0.05224636               -0.05168053                0.17591059               -0.00248972                0.05176878               -0.02093400
               3.01346139                9.85204379               73.11516156                0.24317782               -0.97552226               -0.05802258                0.19082571                1.19254179                0.33458271               -0.00545930
               3.99449247                9.86301651               73.12201997                0.26971962               -1.47058193                0.22988682                0.33769703                1.07230695                0.58374120                0.27972171
               4.98404975                9.87378619               73.13535936                0.30320546               -0.76010695                0.12083714                0.23336066                0.68494025                1.23591518                0.28634947
               5.97929033                9.89163876               73.15125519                0.36702755               -0.16748886                0.01959327                0.29051055                0.45392225                0.98626756                0.23541832
               6.98069997                9.90463926               73.15739630                0.48938233                0.68185902               -0.25043676                0.27998171                0.52993920                0.88345847               -0.07212368
               7.99292751                9.91856276               73.17076873                0.94505567                0.57664439               -0.06546840                0.22352246                0.94293208                0.58866486                0.00197936
               8.99223286                9.91361650               73.17258812                1.00000000               -0.07175551               -0.06990986                0.23873332               -0.00229531                0.00765022                0.00299320
               9.99149240                9.90869838               73.17433136                0.99472762               -0.07404575               -0.07493614                0.25396818               -0.00414348                0.00404326               -0.00395662
              -0.09939567               -0.11188866               74.07781704                0.89011839               -0.02210238               -0.02181174                0.09805891                0.00466174               -0.00162164                0.00144799
               0.90038331               -0.11811270               74.08102351                0.62302924               -0.00138100               -0.04026008                0.10536499                0.02211442               -0.00047105               -0.00240805
               1.90057671               -0.12362490               74.08423824                0.42288866                0.05730466               -0.03047664                0.11259571                0.05710786                0.00184686               -0.00170670
               2.90152940               -0.12696705               74.08741541                0.40059546                0.08682867               -0.03180745                0.11683603                0.02051159               -0.00038454               -0.00315050
               3.90231328               -0.12764582               74.09050100                0.45012258                0.04743277               -0.03350404                0.11915163               -0.00589061               -0.00223386               -0.00221843
               4.90247806               -0.12661501               74.09362343                0.55815406               -0.00339888               -0.03607653                0.12206976               -0.00376618                0.00330870               -0.00134764
               5.90224531               -0.12495778               74.09684244                0.75184403               -0.03077147               -0.03833195                0.12671809                0.00128205                0.00998381               -0.00137025
               6.90186263               -0.12319587               74.10013746                1.00000000               -0.04037585               -0.04051854                0.13303834                0.00277773                0.01388426               -0.00148136
               7.90143779               -0.12145457               74.10345723                0.99089066               -0.04350098               -0.04271039                0.14044548                0.00185202                0.01660863               -0.00228716
               8.90099261               -0.11973534               74.10681210                0.99208478               -0.04494608               -0.04510360                0.14693394                0.00121829                0.01524697                0.00080139
               9.90053887               -0.11801077               74.11010188                0.99999999               -0.04537383               -0.04711514                0.15324112               -0.00004048                0.01253851                0.01419687
              -0.09312501                0.88789322               74.08125270                0.62143433               -0.04024189               -0.00095724                0.10417941                0.02265262                0.00019890                0.00291948
               0.90647257                0.88148470               74.08444785                0.01132411               -0.06500134               -0.06465049                0.11144596                0.06824469               -0.00060206               -0.00660121
               1.90557496                0.87607033               74.08764020                0.01000000               -0.13637971                0.00814338                0.11724595                0.23373514               -0.01356465               -0.01517523
               2.90374498                0.87271487               74.09065981                0.01000000               -0.17483034                0.06111245                0.12035682                0.39083833               -0.03530879               -0.01413105
               3.90207836                0.87201913               74.09353654                0.01051232               -0.13243019                0.06649667                0.12219478                0.47135873               -0.04399838                0.00451420
               4.90109637                0.87302422               74.09643992                0.01000000               -0.07649005                0.01654145                0.12498203                0.44807886               -0.03694151                0.01991641
               5.90054856                0.87465890               74.09946436                0.01000001               -0.04787898                0.05559783                0.13003443                0.29629352               -0.02366386                0.01726739
               6.90013879                0.87639895               74.10260372                0.27121112               -0.04112554               -0.04005657                0.13723430                0.00562491               -0.01443959               -0.01378944
               7.89972605                0.87811833               74.10578392                0.86915318               -0.04279515               -0.04345277                0.14603510                0.00236864               -0.00749809               -0.00706099
               8.89928289                0.87981363               74.10904709                1.00000000               -0.04560756               -0.04616658                0.15349320                0.00034551               -0.00136654                0.00097237
               9.89881389                0.88151808               74.11234526                0.98960191               -0.04689969               -0.04816069                0.16014212               -0.00097403                0.00036952                0.01449390
              -0.08612556                1.88809219               74.08470323                0.41957800               -0.03033441                0.05548150                0.10971894                0.05866656               -0.00090775                0.00205578
               0.91357109                1.88059429               74.08780138                0.01000000                0.00734006               -0.13322800                0.11797140                0.23494991               -0.00724731               -0.02613609
               1.91402124                1.87653797               74.09076429                0.01000001               -0.00868636               -0.00752442                0.13138619                0.60508886               -0.03442812               -0.05036505
               2.91339736                1.87425520               74.09367635                0.01000000               -0.12950643                0.08410615                0.13162076                0.87246454               -0.02975070               -0.01899448
               3.91143111                1.87368411               74.09669884                0.01000000               -0.22987460                0.15168556                0.13583533                1.04590707               -0.03605563                0.02119318
               4.90879987                1.87371582               74.09967604                0.01000001               -0.33173262                0.10258889                0.14081519                1.13008762               -0.04607247                0.03780496
               5.90479646                1.87615417               74.10245465                0.01126722               -0.51420908                0.24643041                0.14337006                0.82363182               -0.07189895                0.04918702
               6.89851569                1.87600300               74.10481879                0.01565947               -0.33629857                0.15730394                0.14404030                0.44584497               -0.06260526                0.04548977
               7.89807048                1.87767638               74.10800836                0.01000000               -0.04579613                0.16930690                0.15270020                0.30875786               -0.01775977                0.07001565
               8.89759977                1.87934133               74.11128034                0.12011958               -0.04800017               -0.04613310                0.15999652                0.00561333               -0.01269072                0.01720741
               9.89711048                1.88102602               74.11458872                0.72254387               -0.04892872               -0.05085216                0.16708135                0.00079587               -0.01165295                0.04140450
              -0.07695586                2.88900285               74.08804601                0.39523280               -0.03183381                0.07789812                0.11358212                0.02363679               -0.00316636               -0.00406073
               0.92272580                2.87882014               74.09091940                0.01000000                0.04858472               -0.16540603                0.12299241                0.38618537               -0.00147812               -0.05278522
               1.92401583                2.87591984               74.09381781                0.01000000                0.06611633               -0.12417508                0.13321640                0.84961119                0.00568474               -0.04627792
               2.92404813                2.87439700               74.09694973                0.01000000               -0.02399773               -0.01683670                0.14271105                1.10411849                0.01563333               -0.00446451
               3.92353588                2.87505285               74.10023827                0.01206484               -0.14100312                0.02163143                0.15144625                1.22666652                0.01066144                0.02832456
               4.92122806                2.87507600               74.10337038                0.01000000               -0.44009329                0.14645525                0.15682519                1.44970838               -0.01911496                0.06205458
               5.91473401                2.87958750               74.10613586                0.01000001               -0.68472879                0.31363938                0.15492603                1.50749020               -0.07021183                0.12804151
               6.90753349                2.87954503               74.10846307                0.01000000               -0.60855687                0.52333988                0.15133471                1.46129918               -0.04322868                0.22575392
               7.90256287                2.88150447               74.11188265                0.01619390               -0.57439840                0.45392752                0.15962423                1.01184052               -0.06799891                0.19544076
               8.89604552                2.87889096               74.11385107                0.01000001               -0.35512178               -0.02578983                0.18382190                0.86724805               -0.07790675                0.18222342
               9.89546044                2.88050104               74.11737906                0.24067122               -0.05850816               -0.35508641                0.18831664                1.01061041               -0.00667930                0.17582795
              -0.06528740                3.88965016               74.09128269                0.44422619               -0.03347956                0.03208256                0.11566689               -0.00014950               -0.00292053               -0.00381224
               0.93437781                3.87728617               74.09386852                0.01048534                0.03619985               -0.11797474                0.12675838                0.45436859                0.02319458               -0.06203321
               1.93543660                3.87405446               74.09696835                0.01000000                0.09844620               -0.21133149                0.13942152                0.98957965                0.06101706               -0.05310359
               2.93634673                3.87391846               74.10042903                0.01207144               -0.00755837               -0.13439146                0.15394197                1.18200475                0.06176873               -0.00391082
               3.93528543                3.87411674               74.10383225                0.01000000               -0.15436747               -0.14924201                0.16312485                1.39779787                0.05624063                0.03310745
               4.93325938                3.87664492               74.10743451                0.01000001               -0.24040978                0.11353927                0.16802311                1.80841885                0.05370717                0.10887821
               5.93047724                3.88242696               74.11102204                0.01000001               -0.37173358                0.27639700                0.16629840                2.15423298                0.03872431                0.22056186
               6.92582471                3.88646980               74.11452261                0.01260584               -0.57579402                0.48916379                0.15402639                2.06584292               -0.03134799                0.29012964
               7.91896136                3.88675493               74.11668457                0.01274786               -0.49382747                0.38255767                0.14918029                1.49730934               -0.07033506                0.31083303
               8.91594816                3.87882553               74.11941192                0.01000000               -0.24294062                0.33872947                0.18203530                1.31986969               -0.00966464                0.38389985
               9.91410254                3.87392429               74.12231500                0.26862306               -0.18456170               -0.14815669                0.21288597                1.23552411                0.05527725                0.35254660
              -0.05223087                4.88964450               74.09459760                0.55278729               -0.03602646               -0.01802040                0.11764890                0.00308862               -0.00234034                0.00608471
               0.94740886                4.87646064               74.09687664                0.01000000               -0.02970002               -0.06313963                0.13031830                0.42172798                0.04290638               -0.05177015
               1.94717513                4.87169321               74.10005532                0.01000001                0.01085419               -0.28830611                0.14767160                1.03852224                0.09423683               -0.07020354
               2.94762595                4.87170917               74.10377271                0.01000000                0.07951228               -0.42694771                0.16232958                1.35847277                0.11562316               -0.04529655
               3.94876537                4.87206801               74.10768031                0.01000001                0.07301352               -0.24571137                0.17302931                1.75390161                0.14878942                0.04389612
               4.94908622                4.87734679               74.11225304                0.01000001               -0.03857886                0.00870087                0.17811576                2.27874918                0.17778747                0.16736567
               5.94799380                4.88511544               74.11703710                0.01260232               -0.22819206                0.12216096                0.17296619                2.29410075                0.11001505                0.22216251
               6.94452238                4.88932830               74.12047849                0.01146058               -0.39202355                0.19870128                0.16698235                1.99196272                0.02687015                0.28162780
               7.94015333                4.88915562               74.12355068                0.01000000               -0.46244116                0.43393890                0.16175298                1.79575597                0.07369434                0.47040479
               8.93527355                4.88566555               74.12748291                0.01000002               -0.50899579                1.01881198                0.16078252                1.38059252                0.14790715                0.70954545
               9.92997341                4.87753790               74.13124773                0.30261071               -0.53001440                0.69045509                0.19843548                1.10004735                0.18368696                0.71100467
              -0.03885790                5.88928975               74.09804963                0.74392144               -0.03784425               -0.03919496                0.12070765                0.00694577               -0.00256087                0.01560323
               0.96076366                5.87602337               74.10004460                0.01000001               -0.00917902               -0.03973808                0.13514981                0.28121936                0.03701791               -0.03554908
               1.96095852                5.86828834               74.10282786                0.01126559                0.11888688               -0.44899668                0.15424681                0.79109349                0.10436105               -0.12998592
               2.96314139                5.86537951               74.10646945                0.01000001                0.18836626               -0.64559123                0.17084509                1.44361188                0.21499195               -0.12075090
               3.96472584                5.86920251               74.11165524                0.01000001                0.13227667               -0.35450020                0.18069291                2.05139074                0.31778357                0.05367384
               4.96578693                5.87681894               74.11772409                0.01261284               -0.01740528               -0.17664556                0.18275927                2.26663502                0.27592993                0.12652590
               5.96437774                5.88487018               74.12256941                0.01154724               -0.20815701               -0.06004202                0.18219409                2.13239878                0.19345060                0.19155251
               6.96162379                5.89044382               74.12732499                0.01000000               -0.29192571                0.25090415                0.17104691                2.06446201                0.24236262                0.38313376
               7.95853922                5.89543371               74.13325019                0.01000000               -0.32230284                0.86500709                0.14353633                2.14355555                0.43329197                0.74398920
               8.95517773                5.89920177               74.14133478                0.01618701               -0.30902159                0.93683288                0.18812887                1.43537774                0.37179387                0.71961452
               9.95235879                5.88773339               74.14447028                0.36782047               -0.28189381                0.76163266                0.22663956                0.70178449                0.17506554                0.60927489
              -0.02555921                6.88886060               74.10159588                0.99638255               -0.04061361               -0.04336432                0.12452343                0.00498047               -0.00277760                0.02156061
               0.97403466                6.87566588               74.10334798                0.27683736               -0.03999658               -0.03718073                0.14113483                0.01724065               -0.02312963               -0.02436138
               1.97364086                6.86271328               74.10469093                0.01565449                0.07746795               -0.30164082                0.15762975                0.44661938                0.08072886               -0.11487512
               2.97558402                6.85879734               74.10851271                0.01000000                0.23564466               -0.53527618                0.17791101                1.33034337                0.37356045               -0.07088131
               3.97835376                6.86497800               74.11580707                0.01260313                0.15836162               -0.53477378                0.18066612                2.01643671                0.46014627               -0.04691058
               4.97875125                6.87381388               74.12189345                0.01145559               -0.06684332               -0.29635227                0.18741521                2.05673845                0.39004277                0.04937574
               5.97701689                6.88391460               74.12843074                0.01000000               -0.17515803               -0.00264946                0.18110156                2.12235103                0.45651896                0.28760456
               6.97524809                6.89434638               74.13652718                0.01000000               -0.13752010                0.61546834                0.14829049                2.35158461                0.67214458                0.69481633
               7.97426649                6.90645576               74.14768463                0.01663298               -0.17833321                0.66280992                0.16718731                1.72636511                0.47458576                0.63270008
               8.97168142                6.90440221               74.15082185                0.01429272               -0.36603118                0.47209541                0.20799015                0.58471773                0.05578632                0.50567727
               9.96694586                6.89277056               74.15253672                0.49202519               -0.47355608                0.80148753                0.25560633                0.21248025                0.02359262                0.47967079
              -0.01236884                7.88842246               74.10519475                0.99999999               -0.03753635               -0.04364961                0.12890143                0.00139526               -0.00469528                0.02701126
               0.98725579                7.87527976               74.10671206                0.89013610               -0.04358569               -0.04070227                0.14752789                0.00558639               -0.01311851               -0.01320527
               1.98675944                7.86225553               74.10805845                0.01000000                0.01138730               -0.04844123                0.16674767                0.27881450                0.12918385               -0.03187036
               2.98748354                7.85467399               74.11242795                0.01619885                0.16393005               -0.50729310                0.19159174                0.99731082                0.33293460               -0.14934261
               3.99003804                7.85850703               74.11775038                0.01275375                0.02507776               -0.37812602                0.17871385                1.54749471                0.50596853               -0.09767155
               4.98798509                7.87089190               74.12578961                0.01000000               -0.18728962               -0.20593444                0.18757732                1.85449838                0.72013337                0.13317612
               5.98629225                7.88481719               74.13631544                0.01000000               -0.09353875                0.21334802                0.16469465                2.16028086                0.99912215                0.58228302
               6.98611432                7.90275319               74.15078169                0.01660188               -0.16407756                0.42948174                0.17846405                1.78598917                0.72806219                0.53970510
               7.98301070                7.90868991               74.15557239                0.01390954               -0.27785135                0.32403574                0.22094599                0.88820765                0.35837008                0.41211034
               8.98055729                7.90864368               74.16212303                0.43327729               -0.15694965                0.17849307                0.22050293                0.44344865                0.22721433                0.24824431
               9.97987171                7.90376314               74.16409712                0.96814492               -0.06855856                0.51336316                0.23667563                0.40299952               -0.00222684                0.25115293
               0.00075411                8.88798761               74.10886091                0.99198223               -0.04407831               -0.04239183                0.13451950                0.00041255                0.00078333                0.02531359
               1.00031332                8.87485183               74.11022712                0.99999999               -0.04655898               -0.04463473                0.15347608               -0.00184472                0.00084738               -0.00256752
               1.99982293                8.86174446               74.11159219                0.18859557               -0.05172993               -0.05196979                0.17254806               -0.00036081                0.00956528               -0.02166528
               2.99927872                8.84865148               74.11314227                0.01000001               -0.33685938               -0.33041147                0.19205593                1.02942669                0.33463088               -0.16522150
               3.99308574                8.85741548               74.12103030                0.01000000               -0.48738313                0.07774203                0.22261534                1.21455792                0.74745808                0.02925950
               4.98953106                8.86969519               74.13143664                0.01000002               -0.23622634                0.00267820                0.18521671                1.25507101                1.17177559                0.25646065
               5.98836121                8.88818156               74.14818500                0.01608242               -0.12179526                0.17671808                0.23099821                1.25658898                1.06490050                0.53137485
               6.98709516                8.90293602               74.15636855                0.01271683               -0.11105311               -0.11759267                0.22903719                0.91993975                0.73690301                0.02283735
               7.98614015                8.91293648               74.16665456                0.41300670               -0.08089974                0.17976471                0.21313527                0.65838665                0.41658819                0.23875297
               8.98547716                8.90797207               74.16855479                0.98911221               -0.06866078               -0.06847728                0.22910215               -0.00019132               -0.00266936                0.00371485
               9.98476693                8.90303782               74.17045514                1.00000000               -0.07102274               -0.07381810                0.24520652               -0.00133468               -0.00289976               -0.00666192
               0.01391096                9.88757463               74.11242843                0.99999999               -0.04489073               -0.04129856                0.14034351               -0.00307049                0.02231156                0.02077839
               1.01346206                9.87438706               74.11380217                0.99057520               -0.04791912               -0.04647696                0.15937486               -0.00305159                0.02268904                0.00039928
               2.01295258                9.86121613               74.11517795                0.76351964               -0.05305043               -0.05283255                0.17844799               -0.00310006                0.04904079               -0.01973131
               3.01240105                9.84806576               74.11708633                0.24641255               -0.98335426               -0.05857249                0.19477307                1.25451948                0.39093025               -0.00539925
               3.99328550                9.86006187               74.12532575                0.27119701               -1.50403072                0.26463932                0.28297178                1.16396081                0.88611326                0.10353939
               4.98232043                9.87094546               74.13759798                0.30339547               -0.75511476                0.12502721                0.22872381                0.69342086                1.29247071                0.28815897
               5.97818320                9.88835155               74.15418125                0.36730670               -0.12811157                0.01699870                0.28777878                0.45499264                1.02594329                0.24439115
               6.97975820                9.90040134               74.16019351                0.48963522                0.64795902               -0.25346819                0.28264220                0.46298684                0.85416491               -0.06884512
               7.99114238                9.91228520               74.17299501                0.94341035                0.53469625               -0.06512786                0.22173575                0.84386296                0.55231335                0.00202990
               8.99045213                9.90727414               74.17497038                1.00000000               -0.07144302               -0.06979363                0.23775600               -0.00242462                0.00766028                0.00301878
               9.98971352                9.90228678               74.17687009                0.99492540               -0.07386059               -0.07510396                0.25385267               -0.00407709                0.00404462               -0.00399971
              -0.10265266               -0.11534333               75.07879747                0.89089397               -0.02134046               -0.02106453                0.09804646                0.00488732               -0.00117813                0.00088745
               0.89713394               -0.12159004               75.08207684                0.62609374                0.00093502               -0.04092913                0.10528839                0.02380403               -0.00002334               -0.00211534
               1.89736604               -0.12706677               75.08536357                0.42863194                0.06127077               -0.03003142                0.11241239                0.05922664                0.00091837               -0.00164532
               2.89835935               -0.13026020               75.08858287                0.40561106                0.08920922               -0.03138286                0.11660020                0.02203132               -0.00414564               -0.00310257
               3.89915023               -0.13071779               75.09169093                0.45224458                0.04710706               -0.03308938                0.11883136               -0.00386356               -0.00710481               -0.00205729
               4.89930149               -0.12945801               75.09484060                0.55799539               -0.00517365               -0.03578543                0.12139818               -0.00213978               -0.00089981               -0.00109619
               5.89904675               -0.12760816               75.09810382                0.74954654               -0.03253898               -0.03808612                0.12551730                0.00268231                0.00690550               -0.00105596
               6.89865072               -0.12569599               75.10145877                0.99999998               -0.04114110               -0.04025705                0.13123991                0.00355199                0.01205907               -0.00117344
               7.89822393               -0.12383022               75.10485494                0.99999998               -0.04337642               -0.04213060                0.13784267                0.00200478                0.01502058               -0.00197763
               8.89778319               -0.12199472               75.10827371                0.99164336               -0.04436983               -0.04465105                0.14403274                0.00116620                0.01309853                0.00067960
               9.89733654               -0.12014926               75.11162223                1.00000000               -0.04466509               -0.04680984                0.15093107               -0.00052821                0.01038870                0.01332668
              -0.09635708                0.88444602               75.08229435                0.62454478               -0.04092220                0.00133869                0.10415421                0.02433317               -0.00029067                0.00210160
               0.90323370                0.87800067               75.08556203                0.01267014               -0.06747639               -0.06712444                0.11136269                0.07393553               -0.00185583               -0.00612388
               1.90229339                0.87263292               75.08881238                0.01000000               -0.14142605               -0.00201347                0.11715878                0.23629540               -0.01698828               -0.01128191
               2.90040518                0.86942597               75.09186408                0.01000000               -0.17914463                0.05808695                0.12051049                0.40215469               -0.04032006               -0.01000865
               3.89871050                0.86895132               75.09476019                0.01070301               -0.13399464                0.06250249                0.12262639                0.48180301               -0.04906254                0.01007259
               4.89772528                0.87018413               75.09769108                0.01000000               -0.07589663                0.00337022                0.12542154                0.45881055               -0.04045748                0.02699177
               5.89719257                0.87201098               75.10076535                0.01000001               -0.04640096                0.04419885                0.13031956                0.30686784               -0.02494718                0.02302200
               6.89679726                0.87390144               75.10397547                0.26823533               -0.03996107               -0.03971510                0.13728037                0.00860089               -0.01356832               -0.01188164
               7.89639334                0.87574848               75.10724728                0.86782304               -0.04214476               -0.04329276                0.14587002                0.00341181               -0.00627048               -0.00592024
               8.89595437                0.87755877               75.11058489                1.00000000               -0.04537748               -0.04623221                0.15349839                0.00027170               -0.00132212                0.00102275
               9.89548580                0.87938264               75.11394724                0.98933513               -0.04685738               -0.04823957                0.16040385               -0.00161071               -0.00004006                0.01371852
              -0.08927530                1.88468344               75.08580017                0.42529638               -0.02989496                0.05961900                0.10966973                0.06082686               -0.00111797                0.00020961
               0.91042575                1.87706748               75.08898074                0.01000000               -0.00290263               -0.13848445                0.11783702                0.23766630               -0.00576974               -0.02626390
               1.91066665                1.87289296               75.09205910                0.01000001               -0.01708545               -0.01544881                0.12673110                0.62758013               -0.03997904               -0.05098599
               2.91008405                1.87090154               75.09499838                0.01000000               -0.13192625                0.07635308                0.13078779                0.90908643               -0.03282182               -0.01002995
               3.90802813                1.87053226               75.09806339                0.01000000               -0.23330001                0.14002714                0.13794108                1.06936694               -0.03895443                0.03426948
               4.90541805                1.87060939               75.10109713                0.01000001               -0.32806613                0.07981055                0.14416542                1.15328169               -0.04938651                0.05110746
               5.90146680                1.87327582               75.10390373                0.01120383               -0.51664051                0.22607041                0.14769644                0.85694720               -0.07701769                0.05646600
               6.89508524                1.87350971               75.10627206                0.01551960               -0.34159835                0.14994437                0.14685828                0.46890356               -0.06330622                0.04936775
               7.89463484                1.87530393               75.10954824                0.01000000               -0.04653912                0.16651267                0.15579090                0.31374121               -0.01506084                0.07126392
               8.89415445                1.87708064               75.11289347                0.12833955               -0.04891286               -0.04724586                0.16306846                0.00716394               -0.01093963                0.02785551
               9.89365658                1.87888595               75.11627316                0.73167895               -0.04978732               -0.05126713                0.16999036               -0.00257216               -0.01013064                0.04992609
              -0.07990861                2.88563840               75.08918129                0.40024647               -0.03138841                0.08091297                0.11348613                0.02513420               -0.00321555               -0.00799017
               0.91977750                2.87523098               75.09214957                0.01000000                0.04597711               -0.17034362                0.12294533                0.39856847               -0.00088877               -0.05381603
               1.92101093                2.87232394               75.09515544                0.01000000                0.05850505               -0.12589744                0.13230019                0.88878150                0.00796616               -0.04401269
               2.92094760                2.87095303               75.09838603                0.01000000               -0.03104721               -0.02277243                0.14473365                1.14126013                0.01754365                0.00420931
               3.92038999                2.87175186               75.10177578                0.01210297               -0.14501210                0.00859541                0.15644583                1.25431745                0.01151957                0.04010437
               4.91804736                2.87178034               75.10496496                0.01000000               -0.44793961                0.13157284                0.16344975                1.47495217               -0.02337412                0.07066251
               5.91143119                2.87653239               75.10771896                0.01000001               -0.69500687                0.29151822                0.16501002                1.54395169               -0.08029809                0.13082264
               6.90414723                2.87690033               75.11000580                0.01000000               -0.61669767                0.48759291                0.16148958                1.49822671               -0.05312037                0.22366891
               7.89909724                2.87907873               75.11349049                0.01649028               -0.58158005                0.43208961                0.16090440                1.03152643               -0.06659268                0.18922059
               8.89251562                2.87661385               75.11575377                0.01000001               -0.36367556               -0.06854020                0.20051801                0.90000591               -0.06744844                0.18382481
               9.89182373                2.87835730               75.11933193                0.24394332               -0.06918954               -0.41849849                0.20499538                1.06728185               -0.00448751                0.17560888
              -0.06795778                3.88630170               75.09243834                0.44637246               -0.03306380                0.03245080                0.11550748                0.00148156               -0.00279590               -0.00885388
               0.93171159                3.87366060               75.09513724                0.01069505                0.03390037               -0.12013485                0.12686735                0.46710065                0.02430047               -0.06360159
               1.93272023                3.87037501               75.09836932                0.01000000                0.08848708               -0.21458051                0.14132704                1.01898462                0.06641341               -0.05049872
               2.93348133                3.87044609               75.10199144                0.01209929               -0.02165333               -0.13695767                0.15890616                1.21417733                0.06582765                0.00403397
               3.93228717                3.87070417               75.10549359                0.01000000               -0.16723822               -0.15959545                0.16986598                1.41716393                0.05496523                0.04105556
               4.93013656                3.87324085               75.10915264                0.01000001               -0.25306556                0.10114717                0.17766832                1.82240389                0.04704920                0.11259775
               5.92722585                3.87910618               75.11273590                0.01000001               -0.38165683                0.24542149                0.18323880                2.17196475                0.02021063                0.21521409
               6.92250343                3.88326157               75.11611886                0.01273782               -0.58370076                0.43378369                0.17693296                2.10146396               -0.05932732                0.27719247
               7.91555184                3.88394572               75.11830609                0.01302695               -0.48137136                0.31699492                0.17474871                1.52423767               -0.09448528                0.29081830
               8.91287600                3.87570983               75.12115190                0.01000000               -0.20182566                0.25478495                0.16753486                1.33142523               -0.02252130                0.34323868
               9.91151533                3.87051598               75.12409876                0.27034189               -0.13606741               -0.24589443                0.15651989                1.27943947                0.04169779                0.32438885
              -0.05459679                4.88628742               75.09577161                0.55275077               -0.03570088               -0.01947325                0.11724462                0.00453599               -0.00214339                0.00143932
               0.94504620                4.87282829               75.09818119                0.01000000               -0.03990399               -0.06268876                0.13044656                0.43526247                0.04587746               -0.05287431
               1.94460513                4.86803233               75.10154498                0.01000001               -0.00721055               -0.28642472                0.15040432                1.06878206                0.09907093               -0.06708998
               2.94490199                4.86821388               75.10542257                0.01000000                0.06666864               -0.43366958                0.16840212                1.39165817                0.11687636               -0.03873569
               3.94593851                4.86855995               75.10944886                0.01000001                0.05957179               -0.25482721                0.18243313                1.77387873                0.14442771                0.04956920
               4.94609343                4.87380329               75.11408877                0.01000000               -0.05443683               -0.00492030                0.19361550                2.28524588                0.16342213                0.16449892
               5.94484977                4.88144082               75.11882509                0.01277530               -0.23782316                0.08974290                0.19374239                2.29434345                0.08317812                0.20513909
               6.94133697                4.88557600               75.12219659                0.01172712               -0.38580219                0.13706199                0.18984658                1.99967076               -0.01033201                0.24907166
               7.93713373                4.88541863               75.12515890                0.01000000               -0.43815497                0.32887794                0.17268558                1.80999493                0.02952358                0.41412741
               8.93257387                4.88170955               75.12903809                0.01000002               -0.46667498                0.94135196                0.14073698                1.41041436                0.11527713                0.66199716
               9.92780023                4.87343941               75.13301041                0.30239445               -0.47736403                0.62786575                0.13414141                1.13763848                0.17008564                0.68111810
              -0.04094879                5.88591224               75.09925224                0.74193553               -0.03792823               -0.04133848                0.12005990                0.00797128               -0.00219573                0.01180036
               0.95867192                5.87240683               75.10139697                0.01000001               -0.01704634               -0.03808071                0.13520917                0.29333718                0.04010696               -0.03520974
               1.95871028                5.86464652               75.10438634                0.01118900                0.10574729               -0.45475444                0.15794326                0.82693743                0.10797859               -0.12929976
               2.96078687                5.86177270               75.10821094                0.01000001                0.17325265               -0.65729853                0.17989719                1.48587596                0.21221895               -0.11508912
               3.96217533                5.86560763               75.11351467                0.01000001                0.10868734               -0.36272543                0.19676226                2.07887017                0.30446632                0.05184004
               4.96296062                5.87314244               75.11961050                0.01278192               -0.04176619               -0.18674016                0.20299597                2.26984216                0.24963265                0.11270795
               5.96134001                5.88090104               75.12443571                0.01187749               -0.22207930               -0.08828247                0.20106575                2.10523728                0.15329839                0.15997301
               6.95851903                5.88600281               75.12903997                0.01000000               -0.28609117                0.17845327                0.18227195                2.01712877                0.17085723                0.30627572
               7.95561819                5.89052328               75.13449487                0.01000000               -0.27277643                0.80685645                0.12967704                2.15614673                0.38468794                0.63802043
               8.95306350                5.89453687               75.14298734                0.01689999               -0.24049034                0.86099366                0.13452433                1.48324852                0.36815624                0.70885106
               9.95080838                5.88307329               75.14663166                0.36803191               -0.22551233                0.71400526                0.18043391                0.72563607                0.18837257                0.64279998
              -0.02742655                6.88546065               75.10283698                0.99373263               -0.03947885               -0.04441509                0.12400119                0.00621871               -0.00257979                0.01810085
               0.97217867                6.87206667               75.10476273                0.27275007               -0.03977221               -0.03612904                0.14127165                0.01767733               -0.02288307               -0.02307285
               1.97177801                6.85893724               75.10627273                0.01549771                0.07398698               -0.30935938                0.15983931                0.46905635                0.08323253               -0.11225288
               2.97365841                6.85506791               75.11032049                0.01000000                0.21840784               -0.54894252                0.18571419                1.37495574                0.36880549               -0.06736657
               3.97614617                6.86130544               75.11767706                0.01272523                0.12692271               -0.54712959                0.20366114                2.06048912                0.44261305               -0.06129522
               4.97619686                6.87006848               75.12382804                0.01173687               -0.10260077               -0.29997580                0.21120015                2.06169405                0.35480144                0.02212886
               5.97409415                6.87967517               75.13025197                0.01000000               -0.20697785               -0.02589693                0.19161622                2.06894358                0.38306530                0.22044349
               6.97205730                6.88914507               75.13781588                0.01000000               -0.11857788                0.60211281                0.14066434                2.35678221                0.60160436                0.59497407
               7.97172259                6.90155576               75.14894910                0.01751478               -0.11842417                0.63014692                0.06060607                1.75204749                0.41606973                0.49659953
               8.96968882                6.89892943               75.15276394                0.01517624               -0.32412445                0.38398550                0.16808233                0.57932625                0.00826745                0.48867558
               9.96524011                6.88771952               75.15516821                0.49232743               -0.44487144                0.70995002                0.26249088                0.22832252                0.00826739                0.46006807
              -0.01403647                7.88502393               75.10647961                0.99999999               -0.04146537               -0.04325452                0.12881624                0.00206136               -0.00487651                0.02467043
               0.98554888                7.87168425               75.10819051                0.88714433               -0.04366810               -0.04070809                0.14801309                0.00600108               -0.01475141               -0.01234440
               1.98509017                7.85845933               75.10973446                0.01000000                0.01844524               -0.04985057                0.16848862                0.28464416                0.13134680               -0.02851175
               2.98591778                7.85079385               75.11434099                0.01650229                0.16471853               -0.52033546                0.19112296                1.01789588                0.33186461               -0.15212264
               3.98838454                7.85466503               75.11967760                0.01303681               -0.00465045               -0.37889879                0.20582019                1.57491500                0.48760646               -0.11117875
               4.98582477                7.86714293               75.12768013                0.01000000               -0.23711213               -0.20849088                0.20277183                1.86567477                0.67573467                0.08758772
               5.98364230                7.88038310               75.13782863                0.01000000               -0.10253444                0.22646714                0.15720656                2.16758651                0.92698853                0.53537610
               6.98377409                7.89804506               75.15215310                0.01746854               -0.13837612                0.45217431                0.07440188                1.79084476                0.65056357                0.41142934
               7.98087478                7.90312622               75.15778765                0.01489638               -0.26439095                0.25070645                0.19212726                0.82906298                0.31152993                0.36292522
               8.97848627                7.90221658               75.16433586                0.43357743               -0.15400633                0.13065590                0.22198639                0.39634577                0.21876263                0.25774181
               9.97779465                7.89727230               75.16647622                0.96863080               -0.06916172                0.44110106                0.23909463                0.38141779               -0.00219539                0.23443149
              -0.00070594                8.88459556               75.11019896                0.99155575               -0.04307639               -0.04216018                0.13322213                0.00050939                0.00022293                0.02400511
               0.99886329                8.87125251               75.11176367                0.99999999               -0.04663819               -0.04486099                0.15397648                0.00031857                0.00068168               -0.00233708
               1.99836129                8.85794023               75.11332816                0.19756458               -0.05263355               -0.05246194                0.17478189                0.00090446                0.00964451               -0.02012433
               2.99781062                8.84466120               75.11508690                0.01000001               -0.35329507               -0.33730901                0.19995575                1.05008242                0.33437878               -0.16395461
               3.99129539                8.85372747               75.12315814                0.01000000               -0.50091653                0.09156845                0.20637663                1.22780080                0.72115871                0.02757600
               4.98779229                8.86589867               75.13332916                0.01000002               -0.23758219                0.00418850                0.17955695                1.28479647                1.16184531                0.21634647
               5.98654375                8.88420451               75.15032784                0.01678615               -0.13306037                0.20754866                0.18876697                1.29306264                1.09330295                0.51733698
               6.98513108                8.89818855               75.15854783                0.01353445               -0.12057062               -0.12163120                0.18705041                0.87804011                0.74547318               -0.02737387
               7.98413233                8.90656989               75.16878307                0.41160785               -0.08307135                0.13981152                0.21246739                0.58380638                0.40565505                0.23044213
               8.98346966                8.90154254               75.17084722                0.98895736               -0.06876479               -0.06854398                0.22937096               -0.00018138               -0.00277227                0.00370427
               9.98275704                8.89654154               75.17291311                1.00000000               -0.07126177               -0.07419088                0.24642196               -0.00113951               -0.00292919               -0.00674582
               0.01265981                9.88418073               75.11382234                1.00000000               -0.04492356               -0.04148281                0.13865390               -0.00279437                0.02090962                0.01932715
               1.01221058                9.87078703               75.11539686                0.99032068               -0.04801220               -0.04654840                0.15954671               -0.00380319                0.02117203                0.00056052
               2.01169957                9.85741009               75.11697392                0.77150857               -0.05391918               -0.05301382                0.18054392               -0.00314000                0.04632762               -0.01797197
               3.01113220                9.84404767               75.11905702                0.24978965               -0.99982397               -0.06135314                0.20195898                1.28647303                0.39743599               -0.00627381
               3.99170309                9.85649640               75.12767940                0.27290291               -1.50442667                0.27689358                0.21138508                1.19972149                0.87472698                0.09555533
               4.98104366                9.86722670               75.13993383                0.30313408               -0.72447129                0.13280301                0.19782815                0.72702071                1.31312058                0.26760755
               5.97721366                9.88453407               75.15701077                0.36765691               -0.10370748                0.03295636                0.24137120                0.48627901                1.06592204                0.24255153
               6.97896951                9.89561244               75.16304914                0.48996967                0.59916236               -0.25761141                0.28826225                0.45326164                0.81637613               -0.08573928
               7.98919691                9.90592245               75.17520344                0.94173251                0.47707370               -0.06474391                0.21988868                0.76812110                0.51167327                0.00209985
               8.98851099                9.90084570               75.17734324                1.00000000               -0.07115196               -0.06968409                0.23685341               -0.00256533                0.00764345                0.00303958
               9.98777387                9.89578848               75.17940841                0.99507269               -0.07371132               -0.07530604                0.25389677               -0.00403909                0.00403797               -0.00404947
              -0.10597797               -0.11886467               76.07977797                0.89188503               -0.02052926               -0.02027778                0.09808259                0.00510366               -0.00077640                0.00036119
               0.89381674               -0.12512541               76.08312927                0.62969750                0.00335060               -0.04162772                0.10518847                0.02552951                0.00035204               -0.00185556
               1.89408905               -0.13055544               76.08648649                0.43501548                0.06511923               -0.02953974                0.11212148                0.06110416               -0.00009222               -0.00159244
               2.89511913               -0.13359153               76.08974742                0.41110381                0.09122042               -0.03092794                0.11624787                0.02366117               -0.00798978               -0.00302291
               3.89591345               -0.13382550               76.09287763                0.45457216                0.04640208               -0.03263727                0.11845823               -0.00165213               -0.01215439               -0.00187763
               4.89604717               -0.13233789               76.09605139                0.55798564               -0.00741000               -0.03545788                0.12072036               -0.00033211               -0.00551486               -0.00080738
               5.89576525               -0.13030195               76.09935279                0.74711816               -0.03472365               -0.03786224                0.12433765                0.00425356                0.00334904               -0.00063912
               6.89535269               -0.12825275               76.10276226                0.99901465               -0.04209971               -0.03992295                0.12920996                0.00443730                0.00909365               -0.00086609
               7.89492326               -0.12627881               76.10621409                0.99999999               -0.04327071               -0.04145752                0.13478820                0.00222725                0.01215130               -0.00099511
               8.89448728               -0.12434412               76.10969275                0.99110391               -0.04368344               -0.04415642                0.14074709                0.00114909                0.01120907                0.00153623
               9.89404959               -0.12239424               76.11312050                1.00000000               -0.04376890               -0.04642357                0.14815467               -0.00113175                0.00943050                0.01166080
              -0.09966619                0.88093255               76.08333578                0.62824169               -0.04163854                0.00370557                0.10413494                0.02602198               -0.00074833                0.00131836
               0.89991742                0.87445832               76.08667510                0.01421052               -0.07003278               -0.06965617                0.11121661                0.07983204               -0.00303229               -0.00571017
               1.89893315                0.86914916               76.08998337                0.01000000               -0.14633268               -0.01346863                0.11699578                0.23779200               -0.02010126               -0.01014536
               2.89699077                0.86609919               76.09307002                0.01000000               -0.18315199                0.05620939                0.12066213                0.41582398               -0.04471590               -0.00758231
               3.89527011                0.86584813               76.09598907                0.01090686               -0.13543470                0.05897077                0.12319675                0.49240814               -0.05353844                0.01645674
               4.89428207                0.86730753               76.09894835                0.01000000               -0.07524448               -0.00990111                0.12613192                0.46979644               -0.04358514                0.03523243
               5.89376522                0.86931943               76.10207075                0.01000001               -0.04482889                0.03159122                0.13098247                0.31782029               -0.02592723                0.03055720
               6.89338549                0.87134802               76.10534933                0.26517546               -0.03870024               -0.03936114                0.13748533                0.01197769               -0.01282922               -0.00962713
               7.89299122                0.87330662               76.10870132                0.86644991               -0.04145020               -0.04313747                0.14575172                0.00454482               -0.00511922               -0.00375822
               8.89255649                0.87521432               76.11211706                1.00000000               -0.04514067               -0.04631602                0.15356418                0.00018369               -0.00063978                0.00188468
               9.89208840                0.87714152               76.11555333                0.98918061               -0.04680881               -0.04829518                0.16062614               -0.00233572                0.00036891                0.01217513
              -0.09250906                1.88120944               76.08689663                0.43172870               -0.02941732                0.06361632                0.10960260                0.06267613               -0.00131629               -0.00163371
               0.90719677                1.87348147               76.09015812                0.01000000               -0.01434647               -0.14355003                0.11756722                0.23911021               -0.00684899               -0.02638792
               1.90720401                1.86917519               76.09329892                0.01000001               -0.02300652               -0.02098959                0.10851706                0.65283694               -0.02441388               -0.03064374
               2.90673664                1.86753265               76.09629211                0.01000000               -0.13253711                0.06944671                0.13300487                0.94833146               -0.02936836               -0.00121843
               3.90455327                1.86735392               76.09945766                0.01000000               -0.23824203                0.12883000                0.13986165                1.09243310               -0.03740195                0.05025382
               4.90197180                1.86746409               76.10255935                0.01000001               -0.32360494                0.05631054                0.14801853                1.17556378               -0.04906708                0.06777431
               5.89808117                1.87032987               76.10540858                0.01114176               -0.51833714                0.20261788                0.15370582                0.89089619               -0.07971529                0.07066523
               6.89160506                1.87096003               76.10775596                0.01535799               -0.34666574                0.14117929                0.15043580                0.49213153               -0.06437228                0.05810626
               7.89114786                1.87285845               76.11112418                0.01000000               -0.04745009                0.16122084                0.15955737                0.31306856               -0.01174002                0.07019466
               8.89065605                1.87472956               76.11454171                0.15390377               -0.04996901               -0.04526434                0.16658684                0.00400163               -0.00905108                0.04592563
               9.89014848                1.87663985               76.11798853                0.74358947               -0.05075762               -0.04769532                0.17314351               -0.00267254               -0.00858027                0.06455770
              -0.08295673                2.88220488               76.09031573                0.40574594               -0.03093920                0.08366608                0.11339847                0.02664143               -0.00323463               -0.01200711
               0.91673388                2.87158731               76.09337831                0.01000000                0.04477171               -0.17494730                0.12273422                0.41302837               -0.00162012               -0.05467939
               1.91793870                2.86872937               76.09646381                0.01000000                0.05223946               -0.12601155                0.13428377                0.93037297                0.01082136               -0.03563584
               2.91777867                2.86748812               76.09984440                0.01000000               -0.03756830               -0.02850278                0.14619762                1.17488642                0.02758009                0.02064847
               3.91718734                2.86842473               76.10336718                0.01213217               -0.14806372               -0.00445744                0.16128263                1.28079462                0.01829590                0.05508850
               4.91481739                2.86843374               76.10663938                0.01000000               -0.45500651                0.11544875                0.17064980                1.49666557               -0.01887817                0.08555279
               5.90808721                2.87337178               76.10943606                0.01000001               -0.70589190                0.26476208                0.17895756                1.57859608               -0.07715358                0.14487517
               6.90069955                2.87417161               76.11169286                0.01000000               -0.63020777                0.44314160                0.17787645                1.53110891               -0.05200976                0.23193754
               7.89548305                2.87653104               76.11510073                0.01685267               -0.59222184                0.40222226                0.15884250                1.05140898               -0.03618724                0.19396280
               8.88885512                2.87430903               76.11786143                0.01000001               -0.36343378               -0.11617881                0.19493824                0.93527900               -0.04739949                0.16870991
               9.88821438                2.87618761               76.12147897                0.24791345               -0.06407411               -0.49531339                0.19767638                1.13257219               -0.00002837                0.14167640
              -0.07074111                3.88288276               76.09359284                0.44883095               -0.03260517                0.03272605                0.11539920                0.00316864               -0.00264770               -0.01415335
               0.92893284                3.86998252               76.09640587                0.01089344                0.03258855               -0.12219473                0.12679204                0.47956846                0.02663190               -0.06504769
               1.92991067                3.86665496               76.09979489                0.01000000                0.08030833               -0.21974911                0.14270354                1.04782682                0.07498869               -0.04354393
               2.93053901                3.86696260               76.10360715                0.01213800               -0.03435621               -0.13865827                0.16320692                1.24453706                0.07429892                0.01693282
               3.92922354                3.86726477               76.10722957                0.01000000               -0.17904776               -0.16932106                0.17614038                1.43054273                0.06159788                0.05493771
               4.92695805                3.86977307               76.11098788                0.01000001               -0.26541549                0.08725821                0.18822780                1.82606902                0.05655391                0.12649991
               5.92391523                3.87562511               76.11468682                0.01000000               -0.39450361                0.20733173                0.20846715                2.17560650                0.03388179                0.22096459
               6.91906798                3.87982286               76.11806127                0.01287559               -0.59383100                0.36085079                0.22310197                2.12800769               -0.04751095                0.26091051
               7.91203861                3.88090289               76.12017954                0.01336871               -0.46814626                0.23591755                0.21865587                1.55011863               -0.10655494                0.28449493
               8.90970506                3.87240599               76.12276262                0.01000000               -0.14979249                0.13805109                0.15579454                1.33515808               -0.02129053                0.25741747
               9.90904276                3.86673358               76.12544540                0.27248499               -0.06622953               -0.37801200                0.13300675                1.29356516                0.04809829                0.22510964
              -0.05709288                4.88285940               76.09694249                0.55293399               -0.03540662               -0.02111856                0.11696637                0.00589299               -0.00188263               -0.00352935
               0.94255305                4.86914342               76.09948557                0.01000000               -0.04959770               -0.06224442                0.13039547                0.44869185                0.05018574               -0.05397642
               1.94191516                4.86433439               76.10306341                0.01000001               -0.02467277               -0.28401828                0.15301406                1.09824985                0.10813411               -0.06111474
               2.94205960                4.86471496               76.10714075                0.01000000                0.05362814               -0.43913994                0.17432606                1.42111754                0.12467701               -0.02484554
               3.94298773                4.86503831               76.11132897                0.01000001                0.04594149               -0.26268304                0.19181631                1.78280121                0.15041726                0.06907680
               4.94297842                4.87017891               76.11612535                0.01000000               -0.07190918               -0.02196151                0.21293134                2.26903008                0.16725981                0.17920198
               5.94154954                4.87751842               76.12091195                0.01299910               -0.24982466                0.05088240                0.22486496                2.26543587                0.08331344                0.19379655
               6.93798193                4.88138862               76.12427542                0.01207883               -0.38236229                0.05635927                0.23118342                1.98223804               -0.01586589                0.20771157
               7.93390230                4.88124939               76.12700439                0.01000000               -0.41271735                0.17505088                0.20966882                1.79642173               -0.00438978                0.33409177
               8.92972758                4.87707005               76.13029764                0.01000002               -0.42359052                0.86234789                0.13916857                1.40384987                0.07361706                0.53721969
               9.92543049                4.86862737               76.13393056                0.30260470               -0.42970991                0.58489996                0.09052604                1.14547404                0.16377510                0.58759217
              -0.04319129                5.88246039               76.10045083                0.73998847               -0.03770199               -0.04320739                0.11969393                0.00925363               -0.00195461                0.00785021
               0.95643169                5.86873763               76.10274879                0.01000001               -0.02522913               -0.03662669                0.13520269                0.30511976                0.04524052               -0.03522392
               1.95630413                5.86097459               76.10598672                0.01112077                0.09128764               -0.46071417                0.16220428                0.86373756                0.11858626               -0.12626540
               2.95825744                5.85817980               76.11006739                0.01000001                0.15557438               -0.66974992                0.19055727                1.52663608                0.22091149               -0.10023988
               3.95941561                5.86201111               76.11559048                0.01000000                0.08005515               -0.37245687                0.21853286                2.09323919                0.30263515                0.08089077
               4.95985854                5.86933384               76.12178401                0.01298880               -0.07006895               -0.19960452                0.23190032                2.24628003                0.22905807                0.12731512
               5.95801423                5.87664276               76.12659073                0.01227629               -0.24383849               -0.12939327                0.23163252                2.03785096                0.12197384                0.13760678
               6.95498177                5.88095005               76.13097043                0.01000000               -0.28643103                0.08720557                0.20669937                1.91811264                0.10641213                0.23041751
               7.95228561                5.88440391               76.13584373                0.01000000               -0.22888532                0.59227941                0.16934803                2.12202146                0.32544537                0.47166943
               8.95040407                5.88965295               76.14402527                0.01777521               -0.17240042                0.78785743                0.02265682                1.49638766                0.30622248                0.52603936
               9.94883761                5.87843158               76.14807896                0.36833356               -0.15664626                0.67499898                0.04831971                0.72147245                0.07763202                0.53513205
              -0.02946230                6.88199525               76.10407590                0.99079352               -0.03964546               -0.04532487                0.12366381                0.00671933               -0.00214902                0.01559394
               0.97014124                6.86841089               76.10617341                0.26780445               -0.03949757               -0.03528536                0.14118067                0.01995397               -0.02132558               -0.02214584
               1.96974775                6.85512011               76.10788771                0.01534921                0.07072776               -0.31723662                0.16366224                0.49204219                0.09111897               -0.11078539
               2.97155580                6.85131996               76.11222700                0.01000000                0.19753635               -0.56573346                0.19851487                1.41946565                0.37494387               -0.05387756
               3.97369847                6.85758917               76.11988029                0.01287078                0.08582850               -0.56043664                0.24516376                2.09511397                0.41955423               -0.03206742
               4.97327237                6.86618682               76.12611746                0.01207129               -0.15040620               -0.30956541                0.24904392                2.04157995                0.30523614                0.03253751
               5.97069035                6.87493055               76.13226307                0.01000000               -0.23446652               -0.05969628                0.21240929                1.96453683                0.30236036                0.16903961
               6.96858304                6.88313273               76.13934047                0.01000002               -0.15252628                0.46498903                0.17487839                2.11746113                0.48146522                0.46014301
               7.96763983                6.89309498               76.14889675                0.01000001               -0.14776885                0.58552679                0.01972607                1.72336988                0.31177412                0.26413405
               8.96562766                6.89282720               76.15418350                0.01625674               -0.26685833                0.30311431                0.16563344                0.74361410                0.08013193                0.55048937
               9.96230266                6.88212735               76.15778654                0.49281382               -0.33250039                0.61376454                0.20697455                0.26548816                0.07532139                0.48778181
              -0.01588818                7.88155389               76.10777107                0.99999999               -0.04059089               -0.04351329                0.12840182                0.00237539               -0.00435278                0.02151131
               0.98370591                7.86803193               76.10967233                0.88313696               -0.04379618               -0.04060708                0.14860754                0.00662364               -0.01113248               -0.01122453
               1.98323590                7.85462986               76.11142822                0.01000000                0.02358885               -0.05087962                0.17144089                0.28890251                0.13410848               -0.02394301
               2.98417769                7.84686513               76.11625041                0.01685485                0.16075677               -0.53318016                0.17962418                1.03765186                0.33283218               -0.12888629
               3.98645103                7.85080237               76.12186679                0.01337079               -0.04144648               -0.38119843                0.25304751                1.59227846                0.47631419               -0.10683137
               4.98334876                7.86314253               76.12984505                0.01000000               -0.30459892               -0.22092010                0.24113664                1.84861816                0.59332592                0.06652148
               5.98035905                7.87544884               76.13945957                0.01000000               -0.20910922                0.22078059                0.18374144                2.07127735                0.79651356                0.49066731
               6.97916658                7.89024983               76.15226973                0.01000001               -0.16502563                0.41798826                0.00917313                1.78159793                0.57788132                0.17551220
               7.97705854                7.89611444               76.15941494                0.01610574               -0.14613012                0.35172753                0.24674321                0.98897199                0.41354170                0.50329638
               8.97624397                7.89571523               76.16656276                0.43397471               -0.07557360                0.11057849                0.22331325                0.51282212                0.23995757                0.29462130
               9.97554707                7.89070687               76.16887902                0.96908737               -0.06969025                0.39216782                0.24141783                0.41286012               -0.00218132                0.22013043
              -0.00237086                8.88112498               76.11152536                0.99104004               -0.04313848               -0.04197395                0.13194185                0.00079072                0.00062141                0.02055093
               0.99719775                8.86759874               76.11330665                0.99999999               -0.04682711               -0.04500107                0.15466475                0.00027670                0.00066317               -0.00189047
               1.99669259                8.85410251               76.11508783                0.20774265               -0.05307154               -0.05323357                0.17739026                0.00203393                0.01377535               -0.01690324
               2.99613632                8.84065636               76.11714138                0.01000001               -0.37129727               -0.34325546                0.21134701                1.06646398                0.32495876               -0.15682324
               3.98926665                8.84996520               76.12515784                0.01000000               -0.52690252                0.10640445                0.19105046                1.22821272                0.66223929                0.04299816
               4.98559827                8.86176842               76.13502778                0.01000002               -0.21290250               -0.00271302                0.18641763                1.26418407                1.07169175                0.18818261
               5.98500860                8.87934617               76.15196034                0.01763605               -0.10244392                0.21939441                0.07027712                1.28756806                1.00270021                0.40370599
               6.98354939                8.89149250               76.16010956                0.01454017               -0.15273696               -0.02829452                0.20780616                0.97549180                0.79665147                0.07356420
               7.98195386                8.90012953               76.17090390                0.41023668               -0.11288586                0.16860041                0.21166965                0.67847396                0.42475299                0.25175590
               8.98129167                8.89503877               76.17314221                0.98862172               -0.06886419               -0.06861671                0.22963660               -0.00013828               -0.00285266                0.00367928
               9.98057658                8.88997071               76.17538358                1.00000000               -0.07150988               -0.07458436                0.24772155               -0.00096335               -0.00295841               -0.00682645
               0.01118011                9.88071441               76.11520151                1.00000000               -0.04461965               -0.04105706                0.13698568               -0.00315296                0.01871523                0.01704653
               1.01073392                9.86713191               76.11699311                0.99015043               -0.04805740               -0.04668385                0.15972331               -0.00384476                0.01916839                0.00058823
               2.01021897                9.85356519               76.11878883                0.78123725               -0.05448186               -0.05373259                0.18255579               -0.00395704                0.04607163               -0.01557141
               3.00964428                9.84000002               76.12112551                0.25410133               -1.01578696               -0.06563329                0.21178063                1.31905975                0.37724641               -0.00632207
               3.98990323                9.85293046               76.12955345                0.27500257               -1.51964015                0.29652621                0.17750232                1.21807000                0.82812924                0.10867533
               4.97925148                9.86308827               76.14155454                0.30334893               -0.67584471                0.13198505                0.15790669                0.71063376                1.27947894                0.25628065
               5.97638633                9.87983673               76.15900868                0.36811454               -0.06792132                0.04905602                0.08587389                0.46755682                0.99869666                0.13714388
               6.97789305                9.88968394               76.16595876                0.49044384                0.53477076               -0.18085640                0.27373685                0.41685220                0.75556725                0.01078744
               7.98708175                9.89948645               76.17739279                0.93999812                0.42534866               -0.06430741                0.21800183                0.74573688                0.46692367                0.00212185
               8.98640002                9.89434290               76.17970745                1.00000000               -0.07089080               -0.06958762                0.23605208               -0.00272834                0.00765552                0.00305183
               9.98566393                9.88921519               76.18194803                0.99516742               -0.07360923               -0.07555225                0.25413080               -0.00403548                0.00402907               -0.00410177
              -0.10937080               -0.12245174               77.08075912                0.89310577               -0.01967427               -0.01945345                0.09818389                0.00530429               -0.00043853               -0.00011424
               0.89043246               -0.12871880               77.08418060                0.63386085                0.00584279               -0.04235690                0.10507257                0.02726734                0.00062970               -0.00163957
               1.89074606               -0.13409239               77.08760600                0.44212177                0.06879801               -0.02900276                0.11172546                0.06268688               -0.00120038               -0.00155777
               2.89180842               -0.13696586               77.09090783                0.41700242                0.09285519               -0.03045060                0.11576760                0.02538320               -0.01189699               -0.00291759
               3.89260316               -0.13697822               77.09406009                0.45714479                0.04538077               -0.03213617                0.11796756                0.00071254               -0.01737628               -0.00166791
               4.89271603               -0.13526807               77.09725501                0.55806360               -0.01001465               -0.03511014                0.11996587                0.00165409               -0.01043243               -0.00047817
               5.89240287               -0.13305686               77.10059058                0.74469792               -0.03723703               -0.03768015                0.12316263                0.00604954               -0.00086665               -0.00017744
               6.89197129               -0.13088744               77.10404297                0.99456985               -0.04331987               -0.03973570                0.12736183                0.00549513                0.00554798               -0.00043265
               7.89153647               -0.12882459               77.10755070                0.99999999               -0.04351696               -0.04121866                0.13255214                0.00241786                0.00902685                0.00008042
               8.89110095               -0.12681260               77.11108865                0.99041090               -0.04334109               -0.04398908                0.13804630                0.00100513                0.00851355                0.00197536
               9.89066965               -0.12478171               77.11458533                1.00000000               -0.04313058               -0.04601769                0.14473955               -0.00181303                0.00751654                0.00946525
              -0.10305069                0.87735373               77.08437705                0.63253072               -0.04238517                0.00612787                0.10411877                0.02769999               -0.00115825                0.00058783
               0.89652546                0.87085763               77.08778637                0.01000000               -0.07264289               -0.07223438                0.11099685                0.08589414               -0.00408766               -0.00538445
               1.89549645                0.86561758               77.09115230                0.01000000               -0.15101467               -0.00539795                0.11672869                0.25851689               -0.02277746               -0.02445259
               2.89350516                0.86272964               77.09427733                0.01000000               -0.18675294                0.05343226                0.12076298                0.43061750               -0.04831182               -0.00183753
               3.89176139                0.86270042               77.09722413                0.01114255               -0.13666345                0.05687210                0.12381274                0.50304347               -0.05724405                0.02247986
               4.89077190                0.86438082               77.10021372                0.01000000               -0.07441739               -0.02290355                0.12703470                0.48178358               -0.04607852                0.04414297
               5.89027305                0.86656633               77.10338500                0.01000001               -0.04308937                0.01903376                0.13198445                0.33037018               -0.02664258                0.03993798
               6.88991011                0.86871520               77.10672518                0.26195471               -0.03749077               -0.03921294                0.13834093                0.01538924               -0.01175442               -0.00663368
               7.88952323                0.87076322               77.11016231                0.86500510               -0.04102731               -0.04334999                0.14672639                0.00550575               -0.00344912               -0.00133179
               8.88908956                0.87274750               77.11365618                0.99999999               -0.04513046               -0.04663113                0.15423639                0.00015096               -0.00000680                0.00250017
               9.88862062                0.87475811               77.11715976                0.98908259               -0.04689411               -0.04834130                0.16058930               -0.00285450                0.00059407                0.01036755
              -0.09582460                1.87767082               77.08799222                0.43890130               -0.02889145                0.06741612                0.10948801                0.06417977               -0.00149170               -0.00341521
               0.90388649                1.86983651               77.09133208                0.01000000               -0.00655086               -0.14839919                0.11715746                0.26001948               -0.02306460               -0.02650622
               1.90404439                1.86579965               77.09422944                0.01000001               -0.02742779               -0.02511658                0.12411402                0.67655473               -0.00194474               -0.00438736
               2.90333793                1.86410279               77.09765848                0.01000000               -0.15157721                0.06606620                0.13446364                0.97251196               -0.01248003                0.00615987
               3.90101284                1.86415922               77.10086062                0.01000000               -0.24260720                0.11906550                0.14027575                1.11853013               -0.03650344                0.06763471
               4.89848579                1.86427385               77.10405750                0.01000001               -0.31684741                0.03410256                0.14973702                1.19968080               -0.04368839                0.08672308
               5.89467589                1.86732381               77.10697785                0.01104958               -0.52017982                0.17926594                0.15868417                0.93080182               -0.07761487                0.09358064
               6.88808219                1.86832830               77.10928077                0.01517351               -0.35308051                0.12592833                0.15512546                0.52584219               -0.06583953                0.07333453
               7.88761428                1.87030841               77.11273939                0.01000000               -0.04865569                0.15697000                0.16401249                0.33040810               -0.00786018                0.06373496
               8.88710908                1.87225477               77.11622521                0.17070743               -0.05114727               -0.04901782                0.17047670                0.00214476               -0.00670029                0.04466052
               9.88659134                1.87425147               77.11973603                0.75875551               -0.05177404               -0.05120787                0.17637804               -0.00195726               -0.00658580                0.05868215
              -0.08609847                2.87870205               77.09144926                0.41185021               -0.03045102                0.08605246                0.11325322                0.02814955               -0.00322782               -0.01603400
               0.91359702                2.86788964               77.09460426                0.01000000                0.04298697               -0.17920596                0.12239694                0.42844422                0.00137728               -0.05532128
               1.91476127                2.86511525               77.09784112                0.01000000                0.04994072               -0.14475563                0.13541911                0.95678292                0.01297583               -0.01485477
               2.91459583                2.86405096               77.10130998                0.01000000               -0.04001699               -0.03071935                0.14733110                1.20805881                0.03691089                0.03488362
               3.91396093                2.86508173               77.10500143                0.01216905               -0.14974554               -0.01590402                0.16290087                1.30687352                0.02995913                0.07289571
               4.91160092                2.86506288               77.10837795                0.01000000               -0.45631461                0.10055106                0.17371127                1.51972653               -0.00469722                0.10475648
               5.90483464                2.87015165               77.11129812                0.01000000               -0.70792829                0.23628869                0.18884759                1.61625500               -0.05584122                0.17198773
               6.89744236                2.87123377               77.11356333                0.01000000               -0.63148578                0.37844583                0.19332600                1.58646287               -0.03918305                0.28163315
               7.89220492                2.87390262               77.11666734                0.01727620               -0.61264790                0.37117769                0.15889977                1.08192438                0.00928238                0.10580192
               8.88518940                2.87176715               77.11965253                0.01000001               -0.38084154               -0.19163995                0.19049225                0.99532947               -0.03316778                0.14328458
               9.88458809                2.87373396               77.12328545                0.25288389               -0.06013085               -0.58424422                0.19122352                1.22270018               -0.00308748                0.09994683
              -0.07363679                3.87939187               77.09474633                0.45161826               -0.03210344                0.03283940                0.11526679                0.00494577               -0.00248417               -0.01964714
               0.92604217                3.86625239               77.09767308                0.01111285                0.03277595               -0.12419004                0.12666575                0.49223273                0.02924958               -0.06630649
               1.92701873                3.86290454               77.10122339                0.01000000                0.07452286               -0.22485220                0.14261596                1.07936914                0.08603117               -0.03916184
               2.92753263                3.86348840               77.10525558                0.01217358               -0.04401655               -0.13971175                0.16394361                1.27353723                0.08602652                0.03291648
               3.92613840                3.86384114               77.10901640                0.01000000               -0.18611188               -0.17505772                0.17770063                1.43989008                0.07356485                0.07304985
               4.92381039                3.86628488               77.11291719                0.01000000               -0.26541482                0.07641582                0.19340850                1.82315833                0.08333258                0.14975576
               5.92083010                3.87204958               77.11690525                0.01000000               -0.38749554                0.16305908                0.22276264                2.15718350                0.09067961                0.24227732
               6.91606048                3.87589722               77.12058089                0.01305852               -0.60553540                0.27936488                0.27433958                2.15836132                0.06419184                0.25240325
               7.90871939                3.87773196               77.12267920                0.01378490               -0.44380762                0.12668282                0.25903600                1.56717710                0.03830385                0.18465028
               8.90718433                3.86842197               77.12426779                0.01000000               -0.08038346               -0.02879253                0.18905558                1.33826299                0.06687221                0.22204108
               9.90711172                3.86256658               77.12675890                0.27498707               -0.00726073               -0.55881297                0.15133516                1.37555097                0.11389174                0.15719099
              -0.05972060                4.87935884               77.09811094                0.55339392               -0.03503986               -0.02280187                0.11661995                0.00735025               -0.00156629               -0.00885828
               0.93992901                4.86540584               77.10078909                0.01000000               -0.05833819               -0.06189397                0.13034569                0.46290201                0.05569103               -0.05501921
               1.93911264                4.86061820               77.10460526                0.01000001               -0.03995155               -0.28038162                0.15357831                1.12977770                0.11961727               -0.05206016
               2.93912997                4.86125672               77.10890909                0.01000000                0.04248069               -0.44033726                0.17598862                1.45155380                0.13704380               -0.00490458
               3.93996225                4.86158057               77.11328518                0.01000000                0.03628353               -0.25835114                0.19534520                1.78537450                0.16723637                0.10270498
               4.93985564                4.86659119               77.11834740                0.01000000               -0.07981445               -0.02941203                0.22263156                2.22817005                0.19232468                0.21247231
               5.93836596                4.87341283               77.12332239                0.01327329               -0.24642191                0.01262347                0.24769393                2.19964198                0.12446062                0.19778736
               6.93492721                4.87682107               77.12682026                0.01253081               -0.36711293               -0.01755554                0.26023489                1.91786169                0.03431134                0.14272827
               7.93102371                4.87643628               77.12935227                0.01000000               -0.39035847                0.01661719                0.26138785                1.73615503               -0.01020976                0.22847827
               8.92712004                4.87119130               77.13182146                0.01000002               -0.36069061                0.63749181                0.18461256                1.29449071                0.04822425                0.36574282
               9.92380989                4.86255770               77.13482093                0.30327994               -0.33101432                0.36766874                0.13990120                0.99373573                0.17941011                0.43791982
              -0.04558380                5.87893583               77.10164611                0.73808125               -0.03753581               -0.04532759                0.11916965                0.01067032               -0.00150246                0.00365655
               0.95404085                5.86501451               77.10410103                0.01000001               -0.03264033               -0.03528127                0.13538968                0.31862053                0.05248543               -0.03496983
               1.95376340                5.85729690               77.10763043                0.01104334                0.07802462               -0.46690861                0.16505809                0.90506558                0.13637083               -0.11905054
               2.95560134                5.85468165               77.11202208                0.01000000                0.13740103               -0.67246900                0.19704755                1.57059723                0.24074487               -0.07094227
               3.95651142                5.85867412               77.11788533                0.01000000                0.04700965               -0.35963919                0.22778049                2.08497594                0.31533317                0.14681396
               4.95654153                5.86569664               77.12424850                0.01327249               -0.09591771               -0.19664970                0.25039918                2.18455483                0.22471609                0.18005196
               5.95459306                5.87230205               77.12906836                0.01277795               -0.25736291               -0.16128573                0.25053238                1.92009252                0.10451554                0.12955251
               6.95139427                5.87554611               77.13317395                0.01000000               -0.27604016                0.01137844                0.22786294                1.79439841                0.09749860                0.18411577
               7.94907226                5.87806430               77.13788183                0.01000002               -0.22207760                0.34154756                0.20511514                1.88585246                0.18679503                0.37599704
               8.94695272                5.88117181               77.14344047                0.01000001               -0.24093126                0.81052134                0.01890476                1.35686420                0.11085554                0.27144944
               9.94425364                5.86991996               77.14759805                0.36890923               -0.26990860                0.70586978                0.01880793                0.66134197               -0.09023595                0.31204650
              -0.03166455                6.87845229               77.10531026                0.98692738               -0.03951109               -0.04655628                0.12311053                0.00768131               -0.00150412                0.01182745
               0.96794034                6.86470022               77.10758634                0.26344801               -0.03943238               -0.03439935                0.14194635                0.02279906               -0.01742710               -0.02043238
               1.96754681                6.85128003               77.10954598                0.01515825                0.06121813               -0.32582764                0.16783724                0.52689941                0.10598622               -0.10795664
               2.96916471                6.84780734               77.11429079                0.01000000                0.15499928               -0.56899580                0.20691568                1.48211390                0.41786543               -0.04170946
               3.97064679                6.85438779               77.12258033                0.01307855                0.03770497               -0.57116272                0.28511853                2.13278095                0.40170506                0.09661753
               4.96991880                6.86265820               77.12880892                0.01251770               -0.18642237               -0.30668020                0.26898554                1.96781562                0.22074149                0.10340686
               5.96691834                6.87018712               77.13450015                0.01000000               -0.24329404               -0.09014378                0.22656667                1.84726331                0.24070906                0.16657949
               6.96505292                6.87704864               77.14131345                0.01000002               -0.19016461                0.26200554                0.19430239                1.85310879                0.37842566                0.35079410
               7.96311505                6.88326723               77.14934363                0.01000001               -0.13256275                0.65603438                0.08733239                1.80667039                0.37590399                0.41122835
               8.96240167                6.88740172               77.15607661                0.01760711               -0.17873056                0.39892405                0.14025966                1.01382412                0.20619997                0.57515601
               9.95954044                6.87667509               77.15930771                0.49337378               -0.28612284                0.70789562                0.11401865                0.37058015                0.05199825                0.61119710
              -0.01792603                7.87800471               77.10904764                0.99999999               -0.04048886               -0.04380744                0.12685297                0.00260414               -0.00289630                0.01723293
               0.98166908                7.86432652               77.11116266                0.87979165               -0.04398559               -0.04031465                0.14954182                0.00746906               -0.00848168               -0.00947143
               1.98119426                7.85078035               77.11316328                0.01000000                0.02333899               -0.05192390                0.17544032                0.31152369                0.12376082               -0.01893968
               2.98213586                7.84330174               77.11793347                0.01727819                0.15609631               -0.55788568                0.17610539                1.07727995                0.24536714               -0.07143519
               3.98431618                7.84725086               77.12473855                0.01378604               -0.10186739               -0.37435122                0.30268198                1.61341383                0.33484559                0.05468320
               4.98009851                7.85956303               77.13250286                0.01000000               -0.35841457               -0.23526864                0.27884548                1.78765665                0.44064282                0.09658547
               5.97714789                7.87049918               77.14150346                0.01000002               -0.23610858                0.12711989                0.19535361                1.79104062                0.64394160                0.36357269
               6.97537634                7.88078622               77.15233656                0.01000001               -0.11476566                0.44610842                0.05328362                1.88767171                0.70455370                0.31804973
               7.97485258                7.89118499               77.16272251                0.01761065               -0.07775019                0.51799630                0.15036590                1.24218806                0.51745860                0.49675973
               8.97382134                7.88915029               77.16880212                0.43425428               -0.08670397                0.05348557                0.22462508                0.47120683                0.17723857                0.30895709
               9.97311850                7.88407787               77.17130458                0.96941025               -0.07028377                0.33304519                0.24386012                0.42649292               -0.00219228                0.26242065
              -0.00425610                8.87757614               77.11283780                0.99037955               -0.04298248               -0.04176787                0.13000667                0.00062683                0.00096578                0.01668860
               0.99531408                8.86389392               77.11485697                0.99999999               -0.04709197               -0.04503236                0.15527684                0.00014817                0.00136492               -0.00140811
               1.99480206                8.85024155               77.11687597                0.22129405               -0.05371427               -0.05418429                0.18050095                0.00250219                0.02163142               -0.01352707
               2.99423979                8.83664963               77.11931384                0.01000001               -0.40741442               -0.36743875                0.22246466                1.12179249                0.30335300               -0.13179744
               3.98665378                8.84690076               77.12697915                0.01000000               -0.59080852                0.13139049                0.24325637                1.24118278                0.55820823                0.14390174
               4.98242362                8.85795283               77.13705751                0.01000002               -0.25689023               -0.01321225                0.20539386                1.14541276                0.91014439                0.18915742
               5.98151597                8.87272952               77.15173338                0.01000001               -0.01515390                0.13405446               -0.03240378                1.18267341                0.96244059                0.20238217
               6.98212054                8.88597080               77.16270396                0.01581598               -0.09606155                0.16717869                0.25235649                1.06090214                0.89187237                0.29213526
               7.97959474                8.89362715               77.17301646                0.40868847               -0.15938079                0.09010623                0.21096966                0.62173731                0.39129098                0.18911713
               8.97893293                8.88847144               77.17543996                0.98811345               -0.06897980               -0.06870116                0.22993784               -0.00018196               -0.00291063                0.00368260
               9.97821514                8.88333600               77.17786754                1.00000000               -0.07177853               -0.07501654                0.24913378               -0.00080401               -0.00298694               -0.00685209
               0.00945093                9.87716935               77.11656205                1.00000000               -0.04443067               -0.04067891                0.13484562               -0.00364421                0.01593516                0.01428853
               1.00900663                9.86342588               77.11859132                0.99010715               -0.04811699               -0.04680484                0.15985548               -0.00437921                0.01673019                0.00072358
               2.00848859                9.84969667               77.12062503                0.79421573               -0.05470631               -0.05448890                0.18487925               -0.00499250                0.04832994               -0.01260788
               3.00791250                9.83595296               77.12329264                0.25952356               -1.03259743               -0.06966675                0.22085428                1.37637119                0.34302655               -0.00565221
               3.98783665                9.84987867               77.13122945                0.27740460               -1.53672431                0.29779086                0.16252331                1.28557819                0.79676565                0.19200850
               4.97717802                9.85929879               77.14309197                0.30406456               -0.75266318                0.13459614                0.16564080                0.64051900                1.21963372                0.24012481
               5.97278338                9.87318027               77.15872825                0.36874631               -0.07406334                0.04507501               -0.06530029                0.36829140                1.11085059                0.01296949
               6.97569675                9.88412979               77.16852388                0.49094798                0.60016558               -0.18410126                0.34859838                0.34796283                1.04752820                0.14834863
               7.98478669                9.89298712               77.17956348                0.93817349                0.42060530               -0.06400369                0.21634600                0.70151923                0.43797542                0.00212444
               8.98410885                9.88777627               77.18206428                1.00000000               -0.07066984               -0.06951682                0.23537904               -0.00288637                0.00770116                0.00306830
               9.98337330                9.88257754               77.18449103                0.99519894               -0.07355575               -0.07584595                0.25456723               -0.00405764                0.00402300               -0.00414954
              -0.11282971               -0.12610281               78.08174164                0.89453534               -0.01878353               -0.01859858                0.09837210                0.00547985               -0.00017133               -0.00052658
               0.88698246               -0.13236972               78.08523072                0.63867064                0.00837622               -0.04311298                0.10494583                0.02897634                0.00079238               -0.00147378
               1.88733782               -0.13767920               78.08872100                0.44990271                0.07223156               -0.02841326                0.11121878                0.06392434               -0.00241508               -0.00153611
               2.88842709               -0.14038888               78.09206277                0.42339223                0.09404637               -0.02993312                0.11515349                0.02717487               -0.01585290               -0.00278692
               3.88921874               -0.14018693               78.09523698                0.45992943                0.04404746               -0.03158748                0.11737477                0.00321004               -0.02279037               -0.00146038
               4.88930804               -0.13826487               78.09845071                0.55852153               -0.01293892               -0.03472294                0.11906964                0.00378907               -0.01583514               -0.00009713
               5.88895997               -0.13589434               78.10181604                0.74234934               -0.04022543               -0.03747466                0.12186649                0.00804611               -0.00547055                0.00029377
               6.88850353               -0.13362583               78.10530950                0.98954375               -0.04509268               -0.03966322                0.12598993                0.00665158                0.00147375                0.00018972
               7.88805811               -0.13150042               78.10886513                0.99999999               -0.04403025               -0.04082811                0.13025840                0.00262077                0.00503600                0.00120885
               8.88762292               -0.12943966               78.11245368                0.99999998               -0.04257726               -0.04325706                0.13357886                0.00092922                0.00549860                0.00206670
               9.88720657               -0.12735381               78.11601529                1.00000000               -0.04163568               -0.04480290                0.13856373               -0.00275985                0.00580935                0.00611508
              -0.10650800                0.87371120               78.08541816                0.63741388               -0.04315868                0.00858644                0.10410716                0.02934944               -0.00150554               -0.00007300
               0.89306041                0.86719915               78.08889504                0.01158261               -0.07526800               -0.07484128                0.11068957                0.09206345               -0.00498321               -0.00514095
               1.89198664                0.86203667               78.09231795                0.01000000               -0.15538572                0.00389103                0.11631471                0.28067710               -0.02489692               -0.00760380
               2.88995270                0.85931178               78.09548528                0.01000000               -0.18989026                0.05060418                0.12076216                0.44446503               -0.05095322                0.00143560
               3.88818884                0.85949720               78.09846532                0.01135417               -0.13765324                0.05581188                0.12443620                0.51407775               -0.06001146                0.02762588
               4.88719964                0.86138790               78.10148905                0.01000000               -0.07339641               -0.03504082                0.12801597                0.49532397               -0.04792704                0.05163251
               5.88672091                0.86373091               78.10471044                0.01000001               -0.04132741                0.00913527                0.13324752                0.34676344               -0.02662834                0.04945183
               6.88637309                0.86597754               78.10811615                0.25880975               -0.03648361               -0.03928011                0.14014211                0.01917873               -0.01011538               -0.00313543
               7.88599124                0.86809129               78.11163585                0.86358260               -0.04070899               -0.04357291                0.14817044                0.00691703               -0.00154869                0.00144715
               8.88555891                0.87012777               78.11520178                0.99999999               -0.04490608               -0.04669610                0.15426975                0.00046744                0.00086192                0.00296235
               9.88509311                0.87219816               78.11876512                0.98912350               -0.04657931               -0.04791949                0.15926715               -0.00353358                0.00110936                0.00746598
              -0.09921861                1.87406892               78.08908639                0.44686901               -0.02831292                0.07094449                0.10929572                0.06528968               -0.00163899               -0.00512644
               0.90049826                1.86613345               78.09250127                0.01000000                0.00286663               -0.15296281                0.11660218                0.28194293               -0.00777859               -0.02654034
               1.90083872                1.86239862               78.09578120                0.01000001               -0.03212018               -0.02991707                0.14486988                0.69978024               -0.02868186               -0.02836481
               2.89985586                1.86062320               78.09898138                0.01000000               -0.17072711                0.06384540                0.13187280                0.99672820               -0.02764712                0.01735944
               3.89742418                1.86092931               78.10226318                0.01000000               -0.24375272                0.11148320                0.13860650                1.14704123               -0.03410496                0.08215997
               4.89498080                1.86103432               78.10555409                0.01000001               -0.30592903                0.01406386                0.14820401                1.22930886               -0.03699620                0.10322009
               5.89130560                1.86428837               78.10858226                0.01096271               -0.52270399                0.15766130                0.15955797                0.98091750               -0.07240504                0.11739309
               6.88452672                1.86558857               78.11085847                0.01496422               -0.36296884                0.12633059                0.16082114                0.57566653               -0.06521091                0.09137196
               7.88404622                1.86762812               78.11440443                0.01000000               -0.05006600                0.03079833                0.16932777                0.38130531               -0.00292009                0.05580210
               8.88352540                1.86962642               78.11795125                0.19143748               -0.05255597               -0.04978117                0.17524923                0.00372137               -0.00362030                0.05067482
               9.88299510                1.87168780               78.12151609                0.77777026               -0.05302995               -0.05172395                0.18025518               -0.00417769               -0.00407643                0.05897262
              -0.08933128                2.87513009               78.09258079                0.41840364               -0.02991555                0.08796123                0.11300129                0.02969579               -0.00317095               -0.02001880
               0.91036957                2.86413989               78.09582625                0.01000000                0.04118873               -0.18309478                0.12196280                0.44253734                0.00242269               -0.05552067
               1.91149250                2.86143833               78.09917219                0.01000000                0.04935020               -0.16455208                0.13266056                0.98294332                0.01982228               -0.02692382
               2.91135657                2.86058869               78.10279102                0.01000000               -0.03869777               -0.03006912                0.14542400                1.24496038                0.04187192                0.04365408
               3.91071854                2.86172686               78.10662520                0.01221672               -0.14649072               -0.02436505                0.15863445                1.33447659                0.03995061                0.08907721
               4.90842676                2.86166918               78.11011360                0.01000000               -0.44667688                0.08822098                0.16986861                1.54561656                0.01235719                0.12196145
               5.90178501                2.86688414               78.11321301                0.01000000               -0.69400461                0.20790105                0.18693260                1.67972458               -0.02840232                0.19822702
               6.89454667                2.86850415               78.11555938                0.01000000               -0.61027563                0.30127148                0.19960556                1.59371301               -0.02502687                0.35909926
               7.88957949                2.86870726               78.11827873                0.01000001               -0.64865088                0.21414241                0.17551931                1.28497840                0.06210306                0.00174571
               8.88157365                2.86913214               78.12167128                0.01000001               -0.43463530               -0.24742668                0.21041481                1.29469126               -0.01025845                0.15618579
               9.88088679                2.87116368               78.12530344                0.25942999               -0.06868614               -0.66729370                0.20894509                1.37031729               -0.00515992                0.07896590
              -0.07664429                3.87582814               78.09589817                0.45473935               -0.03149330                0.03261761                0.11506522                0.00687943               -0.00227022               -0.02530823
               0.92304077                3.86247156               78.09893918                0.01136591                0.03465410               -0.12624019                0.12659986                0.50412117                0.03173382               -0.06711312
               1.92404879                3.85910758               78.10264721                0.01000000                0.07128772               -0.22760908                0.14036117                1.11226368                0.09475626               -0.03397488
               2.92446653                3.86002182               78.10688602                0.01221748               -0.05077819               -0.13691657                0.15926006                1.30492023                0.09651315                0.04564847
               3.92303322                3.86044201               78.11078358                0.01000000               -0.18653348               -0.17516944                0.17213922                1.44762599                0.08471918                0.08935062
               4.92073586                3.86279874               78.11485605                0.01000000               -0.24840513                0.07139330                0.18821231                1.81826632                0.11060296                0.17290094
               5.91806512                3.86844639               78.11914207                0.01000000               -0.30789979                0.12134562                0.21483823                2.12980756                0.16506068                0.27060872
               6.91457786                3.87161400               78.12354806                0.01332865               -0.44736626                0.15729893                0.25832602                2.07780941                0.19796182                0.26969694
               7.90911780                3.87191097               78.12536026                0.01429840               -0.38075289                0.09545331                0.29716378                1.60906441                0.32816047                0.04634519
               8.90696280                3.86467788               78.12654373                0.01000000               -0.13897139               -0.19599600                0.28383845                1.50403642                0.24291526                0.29453995
               9.90633837                3.85834193               78.12847210                0.27758574               -0.06244355               -0.73085327                0.22210807                1.47305283                0.15327676                0.14517303
              -0.06248052                4.87578244               78.09927489                0.55421263               -0.03469283               -0.02469683                0.11621016                0.00892067               -0.00118638               -0.01474111
               0.93717255                4.86161509               78.10209249                0.01000000               -0.06659852               -0.06152836                0.13060999                0.47800048                0.06052066               -0.05564949
               1.93618751                4.85688615               78.10613497                0.01000001               -0.05260042               -0.27273599                0.15098950                1.16484854                0.12945497               -0.04274419
               2.93612055                4.85785036               78.11066052                0.01000000                0.03533161               -0.43212819                0.17116972                1.48441184                0.14763541                0.01618422
               3.93689414                4.85822347               78.11523587                0.01000000                0.03335816               -0.23948885                0.18899167                1.78546595                0.18518687                0.13346034
               4.93678771                4.86309705               78.12057798                0.01000000               -0.06641245               -0.01626894                0.21370318                2.17607775                0.22565638                0.24990030
               5.93556590                4.86931105               78.12586583                0.01364995               -0.20747166               -0.01951681                0.24343153                2.08335261                0.17602648                0.21943981
               6.93263828                4.87165013               78.12948012                0.01306461               -0.34344995               -0.07374148                0.25793466                1.74228456                0.11066817                0.07489559
               7.92869690                4.87061633               78.13223215                0.01000000               -0.37074313                0.00107655                0.26609280                1.50996474                0.00462930                0.13991957
               8.92522341                4.86521222               78.13398990                0.01000002               -0.28385723                0.30744524                0.26939969                1.09362228                0.05904719                0.36777920
               9.92301975                4.85654662               78.13672859                0.30423120               -0.22036615                0.09219035                0.28447771                0.75240766                0.20571027                0.47228078
              -0.04813117                5.87533421               78.10283422                0.73634926               -0.03717502               -0.04760877                0.11804772                0.01247646               -0.00085030               -0.00137287
               0.95149708                5.86124099               78.10545658                0.01000001               -0.03791735               -0.03372412                0.13558309                0.33515411                0.05990770               -0.03405279
               1.95111049                5.85365286               78.10928788                0.01095991                0.06601761               -0.47290111                0.16462552                0.95568869                0.15382920               -0.10958238
               2.95281743                5.85137925               78.11400835                0.01000000                0.11926864               -0.66379918                0.19255263                1.63787894                0.25857312               -0.04062648
               3.95349586                5.85565223               78.12014609                0.01000000                0.01762008               -0.27775874                0.21580382                2.07072061                0.33150584                0.22144855
               4.95316984                5.86247336               78.12679200                0.01364048               -0.11583832               -0.15482267                0.24114424                2.06917438                0.23829633                0.23464378
               5.95117909                5.86805605               78.13160138                0.01340186               -0.25257788               -0.17420033                0.24389118                1.75499566                0.10260144                0.13246626
               6.94811828                5.87013917               78.13552769                0.01000000               -0.27120481               -0.03320594                0.23103224                1.62731247                0.09912300                0.16134053
               7.94575500                5.87193250               78.13994603                0.01000002               -0.26066604                0.29312666                0.21070971                1.61927350                0.11367111                0.30043124
               8.94290496                5.87082679               78.14440336                0.01000001               -0.35186317                0.68782261                0.16950450                1.14087035                0.06191487                0.28875268
               9.93871773                5.86018574               78.14845512                0.36956756               -0.41872254                0.70490746                0.11992240                0.62892850                0.02125444                0.34415552
              -0.03404456                6.87483027               78.10653811                0.98248744               -0.03984608               -0.04815972                0.12225733                0.00878503               -0.00106931                0.00716755
               0.96555698                6.86094061               78.10901234                0.25966332               -0.03962100               -0.03345582                0.14354149                0.02607075               -0.01285822               -0.01794157
               1.96516302                6.84742812               78.11124446                0.01496519                0.06608844               -0.33658941                0.17163564                0.57317930                0.11987469               -0.10233573
               2.96687875                6.84457438               78.11636531                0.01000000                0.10257150               -0.54829347                0.21099389                1.49662497                0.47280713               -0.02514057
               3.96721445                6.85266830               78.12558266                0.01333998               -0.05556851               -0.40775072                0.25801342                2.02544559                0.40916174                0.24451656
               4.96576738                6.86000059               78.13149717                0.01306991               -0.21072275               -0.28238593                0.25456065                1.76928089                0.13044132                0.18613973
               5.96300000                6.86582705               78.13679440                0.01000000               -0.22296503               -0.12844951                0.22196827                1.66052571                0.19498762                0.16706680
               6.96130808                6.87098601               78.14322652                0.01000002               -0.13026254                0.25405728                0.18558253                1.72860667                0.31662589                0.30176415
               7.96039475                6.87647886               78.15064340                0.01000001               -0.07602496                0.52221521                0.15041300                1.65849130                0.38112463                0.45627649
               8.95978758                6.87896868               78.15698869                0.01000001               -0.17571607                0.58521182                0.10736943                1.12338145                0.08993607                0.41828365
               9.95688043                6.87064477               78.16006691                0.49383027               -0.29071552                0.86048572                0.18634337                0.75663816               -0.13598236                0.42461140
              -0.02017614                7.87437101               78.11030813                1.00000000               -0.04032168               -0.04429604                0.12505465                0.00281945               -0.00181659                0.01226554
               0.97942064                7.86057187               78.11266316                0.87679527               -0.04417806               -0.03993433                0.15064937                0.00899775               -0.00525994               -0.00737118
               1.97894030                7.84692107               78.11493703                0.01000000               -0.09554435               -0.05289528                0.17933192                0.36734210                0.11834680               -0.01295497
               2.97750976                7.84041338               78.11977252                0.01000001               -0.01808721               -0.59565670                0.17522295                1.28987971                0.20804474               -0.01903419
               3.97857856                7.84749722               78.12792043                0.01430545               -0.10565241               -0.31579799                0.33639329                1.59424690                0.14493150                0.38162122
               4.97539671                7.85682564               78.13542196                0.01000000               -0.25871829               -0.25190655                0.25551280                1.56346935                0.28701164                0.11374066
               5.97340419                7.86548706               78.14336664                0.01000002               -0.16790557                0.01709880                0.17869338                1.70028223                0.49819074                0.23999084
               6.97203860                7.87522031               78.15333540                0.01000001               -0.12310173                0.50809393                0.10955311                1.78427099                0.62615360                0.49776952
               7.97094216                7.88237680               78.16242226                0.01000001               -0.04159592                0.52960206                0.04268917                1.19798209                0.51684567                0.32876858
               8.97120668                7.88253102               78.17105526                0.43474773               -0.02219215                0.14407943                0.22582731                0.58067253                0.29499135                0.37344904
               9.97049831                7.87739545               78.17375622                0.96954362               -0.07083668                0.30012233                0.24633827                0.42550454               -0.00213252                0.34448137
              -0.00638989                8.87394435               78.11412549                0.99999998               -0.04232305               -0.04096682                0.12609212                0.00057753                0.00115474                0.01258557
               0.99318688                8.86014192               78.11641218                0.99999999               -0.04708761               -0.04471034                0.15503094                0.00053824                0.00187391               -0.00062803
               1.99266835                8.84637022               78.11869785                0.23880886               -0.05433396               -0.05530835                0.18434072                0.00316382                0.03152233               -0.00947688
               2.99210020                8.83266124               78.12159067                0.01000001               -0.49906092               -0.42420040                0.23314815                1.41863799                0.33838234               -0.10796204
               3.98268714                8.84635234               78.13002296                0.01000000               -0.65266350                0.03864109                0.32626913                1.48809364                0.54197924                0.28872104
               4.97904693                8.85496246               78.13913566                0.01000002               -0.20380845               -0.05018916                0.23347602                1.02826626                0.75265800                0.20027276
               5.97861097                8.86616902               78.15131226                0.01000001                0.05284165                0.03096639                0.03001676                1.29763347                0.97526174                0.12523403
               6.98010376                8.88114789               78.16515669                0.01740647               -0.07836442                0.28953752                0.11586196                1.34358328                0.85607470                0.33020183
               7.97704368                8.88707090               78.17512330                0.40754592               -0.18606891                0.20290541                0.21008166                0.60305375                0.36388617                0.30700484
               8.97638238                8.88185026               78.17774097                0.98734363               -0.06910073               -0.06877049                0.23027036               -0.00019344               -0.00310587                0.00362072
               9.97566166                8.87664721               78.18036625                0.99993405               -0.07207176               -0.07551138                0.25069544               -0.00067588               -0.00304102               -0.00698213
               0.00744027                9.87355167               78.11789843                1.00000000               -0.04347303               -0.03926739                0.12993841               -0.00438446                0.01191377                0.01167490
               1.00700554                9.85967767               78.12019021                0.99011185               -0.04780095               -0.04642522                0.15881845               -0.00497216                0.01323175                0.00113282
               2.00648425                9.84581490               78.12248642                0.81123903               -0.05525730               -0.05553127                0.18808288               -0.00582492                0.05115087               -0.00921006
               3.00590039                9.83192938               78.12554260                0.26615667               -1.02225205               -0.07318681                0.22938577                1.50277650                0.29856072               -0.00505391
               3.98603921                9.84827004               78.13280392                0.27983150               -1.48775205                0.19177013                0.20484741                1.52983135                0.75222293                0.16103741
               4.97614535                9.85582186               78.14486736                0.30487903               -0.64338887                0.08593934                0.21813579                0.60165989                1.11743796                0.28185891
               5.97317143                9.86610639               78.15770267                0.36942059                0.09315151               -0.00626332               -0.03810774                0.71550697                1.30540793                0.01992508
               6.97800838                9.88101106               78.17293073                0.49151682                0.45647101               -0.01368240                0.21294408                0.80688832                1.02674629                0.23073566
               7.98230085                9.88643491               78.18171971                0.93628416                0.18090567               -0.06359926                0.21461142                0.53294491                0.31547265                0.00223123
               8.98162650                9.88115561               78.18441503                0.99992010               -0.07049792               -0.06946508                0.23484032               -0.00307286                0.00758103                0.00307031
               9.98089089                9.87588522               78.18703937                0.99513761               -0.07356017               -0.07619921                0.25525533               -0.00411612                0.00398597               -0.00422457
              -0.11635239               -0.12981529               79.08272656                0.89625714               -0.01786596               -0.01771825                0.09865862                0.00562060                0.00001248               -0.00086817
               0.88346895               -0.13607691               79.08627952                0.64407414                0.01090496               -0.04388242                0.10480887                0.03061882                0.00082576               -0.00134928
               1.88386571               -0.14131702               79.08983037                0.45840323                0.07532125               -0.02776785                0.11061024                0.06477136               -0.00371173               -0.00151720
               2.88497538               -0.14386661               79.09321090                0.43016158                0.09468479               -0.02936503                0.11443391                0.02897986               -0.01978955               -0.00262551
               3.88575941               -0.14346412               79.09640759                0.46309297                0.04224435               -0.03091487                0.11670956                0.00579503               -0.02837785               -0.00123618
               4.88582027               -0.14134668               79.09963640                0.55945363               -0.01623694               -0.03432216                0.11817428                0.00601379               -0.02180505                0.00026166
               5.88543467               -0.13883978               79.10302791                0.74042334               -0.04342914               -0.03710653                0.12018406                0.01035819               -0.01073337                0.00091597
               6.88495168               -0.13649694               79.10656276                0.98397275               -0.04708286               -0.03995342                0.12445813                0.00796706               -0.00324920                0.00055187
               7.88449301               -0.13434186               79.11015587                1.00000000               -0.04454597               -0.04052761                0.12746300                0.00283332               -0.00037640                0.00212633
               8.88406076               -0.13226749               79.11376023                0.99999999               -0.04152024               -0.04233315                0.12809738                0.00081671                0.00019927                0.00290834
               9.88366261               -0.13015906               79.11735660                1.00000000               -0.03981561               -0.04343038                0.13165923               -0.00380433                0.00128330                0.00395540
              -0.11003457                0.87000752               79.08645919                0.64294866               -0.04394309                0.01104743                0.10408737                0.03093712               -0.00178788               -0.00066690
               0.88952600                0.86348427               79.09000016                0.01473073               -0.07785781               -0.07743005                0.11027267                0.09824682               -0.00569868               -0.00495630
               1.88840828                0.85840530               79.09347859                0.01000000               -0.15936381               -0.01524378                0.11572106                0.27401967               -0.02637300               -0.00084519
               2.88633873                0.85583974               79.09669257                0.01000000               -0.19254419                0.05054209                0.12061553                0.45745302               -0.05240272                0.00406327
               3.88455739                0.85622673               79.09971285                0.01162660               -0.13852450                0.05533281                0.12500778                0.52344885               -0.06165913                0.03021987
               4.88356824                0.85831009               79.10277404                0.01000000               -0.07220075               -0.04698071                0.12916206                0.50844654               -0.04891167                0.05627602
               5.88311338                0.86078915               79.10604995                0.01000001               -0.03929227                0.00044412                0.13436615                0.36410901               -0.02590448                0.05609010
               6.88278239                0.86310353               79.10952802                0.25593749               -0.03533804               -0.03952775                0.14244100                0.02339196               -0.00767058                0.00110321
               7.88240662                0.86525286               79.11312572                0.86234136               -0.04024298               -0.04382862                0.14963390                0.00878734                0.00032875                0.00438138
               8.88197753                0.86730918               79.11674157                0.99999999               -0.04452390               -0.04668702                0.15400265                0.00090066                0.00105627                0.00409888
               9.88151614                0.86940663               79.12034510                0.98922356               -0.04613916               -0.04741711                0.15786059               -0.00437933                0.00065207                0.00544289
              -0.10268713                1.87040565               79.09017814                0.45557641               -0.02767599                0.07411825                0.10899490                0.06597161               -0.00174754               -0.00675903
               0.89703611                1.86237449               79.09366413                0.01000000               -0.01611165               -0.15714782                0.11587712                0.27502611               -0.00224642               -0.02634415
               1.89699064                1.85837811               79.09712684                0.01000001               -0.03665501               -0.03472725                0.11630262                0.72772015               -0.04067595               -0.03794424
               2.89630301                1.85714423               79.10029593                0.01000000               -0.16163039                0.05898308                0.13001837                1.04529842               -0.03465519                0.02285307
               3.89375803                1.85764254               79.10363275                0.01000000               -0.24381144                0.10580674                0.13505784                1.17247205               -0.03518101                0.09026523
               4.89142678                1.85771370               79.10702158                0.01000001               -0.29173050               -0.00549720                0.14489437                1.26092887               -0.03324567                0.11205703
               5.88792342                1.86116910               79.11016901                0.01087723               -0.52354853                0.13836177                0.15785461                1.03531173               -0.06932825                0.12739137
               6.88095581                1.86271251               79.11249720                0.01475973               -0.37301578                0.13113181                0.16676213                0.63530898               -0.05896184                0.10601758
               7.88046310                1.86478157               79.11612595                0.01000000               -0.05154009               -0.11355826                0.17496905                0.45073666                0.00357309                0.05780045
               8.87992501                1.86679877               79.11973019                0.21681242               -0.05414921               -0.05054005                0.18062582                0.00465071                0.00086457                0.06064597
               9.87938012                1.86889260               79.12334114                0.80134226               -0.05448892               -0.05246858                0.18469313               -0.00539636               -0.00031075                0.06173406
              -0.09265281                2.87148989               79.09370929                0.42549264               -0.02931226                0.08929750                0.11261451                0.03128786               -0.00305738               -0.02386291
               0.90705407                2.86034131               79.09704351                0.01000000                0.04228736               -0.18652996                0.12141301                0.45562888                0.00340669               -0.05500589
               1.90819294                2.85771076               79.10049433                0.01000000                0.04630953               -0.15579247                0.13060365                1.03272341                0.02186198               -0.03131376
               2.90798026                2.85701940               79.10421846                0.01000000               -0.03777899               -0.03061789                0.13932795                1.28278129                0.04240383                0.04759456
               3.90743736                2.85834287               79.10817412                0.01230977               -0.13600041               -0.03125288                0.14964079                1.36427392                0.04445224                0.09750402
               4.90526025                2.85820015               79.11177533                0.01000000               -0.43082761                0.07824083                0.16077425                1.57253503                0.02173332                0.12862595
               5.89882081                2.86355639               79.11503677                0.01000000               -0.66920763                0.18199223                0.17693425                1.75209477               -0.01491539                0.21167094
               6.89187610                2.86572616               79.11755544                0.01000000               -0.57428637                0.23289568                0.19428915                1.61355143               -0.02334497                0.35568674
               7.88733508                2.86298170               79.12017773                0.01000000               -0.69582918               -0.00380610                0.21388860                1.61980246                0.05890545                0.17028083
               8.87795952                2.86629838               79.12386083                0.01000001               -0.50572568               -0.24023085                0.22683085                1.71906739                0.00552571                0.21504663
               9.87722057                2.86835726               79.12746436                0.26781470               -0.07389494               -0.74238494                0.22270754                1.55290742               -0.00401701                0.09800781
              -0.07976422                3.87219160               79.09704763                0.45821938               -0.03079670                0.03190385                0.11477120                0.00889339               -0.00200989               -0.03094221
               0.91992781                3.85864389               79.10020508                0.01158754                0.03656169               -0.12829267                0.12659109                0.51479592                0.03213870               -0.06687224
               1.92096702                3.85526226               79.10403061                0.01000000                0.06993546               -0.22940557                0.13667240                1.14143716                0.09798102               -0.03215831
               2.92132652                3.85653187               79.10844078                0.01229654               -0.05521308               -0.12806565                0.15035302                1.33783730                0.10048776                0.05254322
               3.91986275                3.85701748               79.11245918                0.01000000               -0.18312807               -0.17278015                0.16108600                1.45289097                0.08801224                0.09612140
               4.91766396                3.85927852               79.11668144                0.01000000               -0.22117265                0.07265495                0.17388563                1.81350119                0.12261782                0.18369470
               5.91543930                3.86480894               79.12120201                0.01000000               -0.19312188                0.08929680                0.19063449                2.11277221                0.18072346                0.29008623
               6.91380153                3.86737042               79.12574742                0.01368317               -0.15761846                0.03065913                0.20152659                1.93973250                0.23216507                0.30100432
               7.91228693                3.86470545               79.12862248                0.01495712               -0.24353668                0.08335995                0.29265047                1.69475852                0.28598247                0.15582053
               8.90893079                3.86199416               79.12994456                0.01000002               -0.29832135               -0.28055667                0.34969572                1.75922379                0.19046893                0.30337595
               9.90632050                3.85404490               79.13120106                0.28050545               -0.26102869               -0.81684805                0.32483931                1.46638154                0.08066072                0.23582766
              -0.06537951                4.87212797               79.10043514                0.55557312               -0.03411526               -0.02732252                0.11572768                0.01068444               -0.00071986               -0.02123560
               0.93427934                4.85777546               79.10340129                0.01000000               -0.07433923               -0.06151452                0.13114299                0.49261059                0.06277939               -0.05550753
               1.93313370                4.85312265               79.10762505                0.01000001               -0.06487761               -0.26332428                0.14722532                1.20019153                0.13276588               -0.03564894
               2.93298178                4.85445809               79.11233248                0.01000000                0.03074148               -0.41837675                0.16170493                1.51763435                0.14848450                0.02855779
               3.93374853                4.85488727               79.11706502                0.01000000                0.03785159               -0.21305919                0.17429013                1.78451475                0.19101458                0.14666968
               4.93373882                4.85965325               79.12262146                0.01000000               -0.03820904                0.00959018                0.18738666                2.13216339                0.24612600                0.27067291
               5.93298435                4.86534232               79.12819102                0.01410777               -0.14822834               -0.03930700                0.21274219                1.95780955                0.20476599                0.24393982
               6.93077425                4.86633934               79.13197895                0.01377245               -0.31889195               -0.11719510                0.23454898                1.52685646                0.11711199                0.11086381
               7.92660651                4.86464890               79.13467413                0.01000000               -0.34848532                0.04781152                0.23922372                1.22654931                0.06727984                0.13142935
               8.92380454                4.86068725               79.13720945                0.01170074               -0.20798977                0.09769569                0.33333352                0.90612722                0.14459240                0.38528542
               9.92244672                4.85202030               79.14051048                0.30529910               -0.13578239               -0.02900795                0.38747037                0.64604078                0.25479835                0.45253869
              -0.05084551                5.87164515               79.10400707                0.73508753               -0.03691439               -0.05031178                0.11691335                0.01410092               -0.00019229               -0.00680194
               0.94878534                5.85741360               79.10681269                0.01000001               -0.04331350               -0.03203269                0.13637247                0.35240573                0.06531266               -0.03178514
               1.94828822                5.84999577               79.11092294                0.01087249                0.05646246               -0.47692377                0.16209181                1.01041804                0.15931674               -0.10090822
               2.94991459                5.84816434               79.11587314                0.01000000                0.10348338               -0.64588614                0.18133258                1.70306931                0.26184399               -0.01979425
               3.95035788                5.85275630               79.12220141                0.01000000               -0.00312092               -0.16917412                0.18990783                2.06278103                0.33946694                0.23317438
               4.94985217                5.85947032               79.12907139                0.01412362               -0.12242444               -0.09511098                0.20722408                1.94217901                0.25470946                0.25758295
               5.94790940                5.86402280               79.13394619                0.01420265               -0.24100476               -0.17895654                0.21876862                1.58302931                0.11868850                0.14725231
               6.94503208                5.86502652               79.13779460                0.01000000               -0.27196909               -0.05315659                0.21930359                1.42005337                0.10462993                0.16403712
               7.94247001                5.86566168               79.14209602                0.01000002               -0.26750730                0.26338171                0.23385082                1.46452070                0.13570829                0.30447614
               8.93968193                5.86394807               79.14683056                0.01000001               -0.29474001                0.42141264                0.25472875                0.93876974                0.08309035                0.40627185
               9.93657521                5.85346474               79.14999650                0.37039280               -0.31067189                0.39229585                0.18768917                0.36254787                0.07863096                0.46185006
              -0.03663439                6.87112173               79.10775540                0.99838597               -0.03887818               -0.04912574                0.11870774                0.00996187               -0.00025923                0.00218035
               0.96297683                6.85713480               79.11045717                0.25644631               -0.03871423               -0.03171728                0.14237770                0.03060439               -0.00831553               -0.01412426
               1.96259133                6.84358417               79.11297869                0.01476719                0.06529060               -0.34639567                0.17643456                0.62845917                0.13403204               -0.09231053
               2.96428264                6.84154036               79.11851067                0.01000000                0.05534197               -0.52343229                0.20526695                1.56591879                0.45839010               -0.03279459
               3.96369817                6.85150378               79.12774060                0.01368813               -0.14833769               -0.11566558                0.19701949                1.87090772                0.41205503                0.28736699
               4.96131589                6.85775103               79.13390013                0.01376308               -0.23047122               -0.26354843                0.22279932                1.53998838                0.14771938                0.17449339
               5.95908874                6.86176319               79.13893952                0.01000000               -0.18897233               -0.16208339                0.20665693                1.44070278                0.17827281                0.16090519
               6.95753644                6.86527621               79.14502510                0.01000002               -0.10566850                0.18924597                0.20242839                1.59825296                0.32027458                0.31228756
               7.95697537                6.86991653               79.15235188                0.01000000               -0.13797839                0.38093951                0.20666726                1.44194536                0.33445588                0.43217143
               8.95477688                6.86911550               79.15822400                0.01000001               -0.31555164                0.59594595                0.16563601                0.93274767                0.12119363                0.50792627
               9.95066434                6.85986622               79.16303457                0.49465026               -0.41125345                0.86017100                0.24052929                0.63000730                0.01320458                0.46387671
              -0.02267242                7.87066264               79.11154874                1.00000000               -0.03925898               -0.04420865                0.12095927                0.00306143               -0.00073987                0.00538385
               0.97693499                7.85677925               79.11417565                0.87408745               -0.04378683               -0.03902457                0.15015237                0.01037912               -0.00228463               -0.00584887
               1.97645184                7.84306786               79.11674992                0.01000000               -0.18108156               -0.05407723                0.18389952                0.42895625                0.10050109               -0.00528825
               2.97331336                7.83769569               79.12143793                0.01000000               -0.24432346               -0.64100274                0.20447876                1.63874062                0.36661426               -0.02291529
               3.97156537                7.85044299               79.13146642                0.01496214               -0.14604114               -0.18560461                0.30792444                1.63769350                0.28501459                0.33063574
               4.97039253                7.85419935               79.13761312                0.01000000               -0.11835519               -0.26190750                0.21304270                1.26048712                0.23394896                0.14089412
               5.96919827                7.86078114               79.14507733                0.01000002               -0.07743682               -0.04325139                0.18793567                1.52617559                0.43618329                0.21407926
               6.96884380                7.86881144               79.15452762                0.01000000               -0.08643175                0.38516494                0.16007149                1.51969449                0.58739168                0.36778889
               7.96746963                7.87328047               79.16357629                0.01000001               -0.02282986                0.52766329                0.12386509                1.21841808                0.60122510                0.44586817
               8.96838720                7.87586699               79.17331867                0.43517245                0.01021461                0.30342878                0.22685055                0.81193353                0.33980817                0.42289882
               9.96767393                7.87066816               79.17623134                0.96955872               -0.07132750                0.50234913                0.24872451                0.59208772               -0.00210094                0.31776998
              -0.00880639                8.87023756               79.11535964                0.99999999               -0.04144164               -0.04028314                0.12151860                0.00057815                0.00204336                0.00605800
               0.99077920                8.85635431               79.11795759                0.99999999               -0.04697961               -0.04433928                0.15467626                0.00066775                0.00317347               -0.00071744
               1.99025402                8.84250263               79.12056278                0.26124626               -0.05484330               -0.05662620                0.18857308                0.00366913                0.04329431               -0.00410657
               2.98968233                8.82872031               79.12397680                0.01000001               -0.51528217               -0.48738269                0.24477310                1.77709602                0.38925787               -0.06836962
               3.97994838                8.84779169               79.13350454                0.01000002               -0.67474227               -0.14527398                0.34715482                1.78917722                0.56454825                0.20259126
               4.97618748                8.85251288               79.14172703                0.01180063               -0.24741013               -0.03633949                0.28220867                0.86709798                0.62260867                0.25134772
               5.97500017                8.86089816               79.15233372                0.01000001               -0.03782403                0.00084052                0.13010241                1.10482688                0.80544473                0.13336342
               6.97543100                8.87297951               79.16502120                0.01000001               -0.03559954                0.21924982               -0.01567229                1.14712382                0.80986776                0.00879812
               7.97428818                8.88046980               79.17721810                0.40632868               -0.09015736                0.32792269                0.20888025                0.71733868                0.46488917                0.35193379
               8.97362786                8.87518408               79.18004536                0.98630062               -0.06922115               -0.06887185                0.23067348               -0.00014944               -0.00316751                0.00363240
               9.97290376                8.86991320               79.18288145                0.99899346               -0.07240964               -0.07606768                0.25244040               -0.00056723               -0.00307455               -0.00705870
               0.00510563                9.86985698               79.11916082                1.00000000               -0.04223596               -0.03805802                0.12422745               -0.00524877                0.00882965                0.00663970
               1.00468327                9.85589247               79.12176769                0.99024345               -0.04732016               -0.04618421                0.15763243               -0.00567445                0.01040662                0.00082211
               2.00415923                9.84193533               79.12438669                0.83309122               -0.05585291               -0.05672932                0.19186297               -0.00670083                0.05441850               -0.00477002
               3.00356621                9.82794804               79.12788035                0.27486926               -1.03014416               -0.07722713                0.23879611                1.66849700                0.29515331               -0.00464020
               3.98355634                9.84753751               79.13532640                0.28254544               -1.44690959               -0.02541849                0.29999297                1.63702318                0.71296916                0.06806807
               4.97462802                9.85347256               79.14745468                0.30588119               -0.63640854                0.09596838                0.30458888                0.50707572                0.87741017                0.32738064
               5.97082817                9.86079795               79.15796609                0.37020516               -0.12066907               -0.01002176                0.03476356                0.56899344                1.05199033                0.02322424
               6.97221464                9.87319643               79.17278276                0.49228910                0.43918343                0.02169205                0.02632685                0.63041237                0.86966717               -0.11224134
               7.97961184                9.87983892               79.18385571                0.93421494                0.33630845               -0.06308775                0.21265866                0.59702195                0.41923767                0.00229129
               8.97894081                9.87448955               79.18676109                0.99898853               -0.07037550               -0.06945240                0.23445976               -0.00331054                0.00758757                0.00308072
               9.97820433                9.86914680               79.18959614                0.99497026               -0.07364768               -0.07663966                0.25621347               -0.00421760                0.00398089               -0.00427444
              -0.11993538               -0.13358543               80.08371482                0.89809953               -0.01694613               -0.01682801                0.09907206                0.00571367                0.00012984               -0.00113576
               0.87989516               -0.13983798               80.08732690                0.64998860                0.01337928               -0.04466023                0.10468640                0.03215999                0.00075161               -0.00125157
               1.88033221               -0.14500598               80.09093320                0.46761325                0.07794595               -0.02707161                0.10992305                0.06511820               -0.00502861               -0.00149017
               2.88145408               -0.14740474               80.09435145                0.43728227                0.09467359               -0.02872482                0.11362875                0.03082105               -0.02357618               -0.00242952
               3.88222568               -0.14682217               80.09757117                0.46653757                0.03987704               -0.03013887                0.11604855                0.00834231               -0.03387003               -0.00098301
               4.88225162               -0.14453490               80.10081420                0.56108259               -0.02033713               -0.03368496                0.11736075                0.00837247               -0.02830848                0.00069338
               5.88181894               -0.14192010               80.10421972                0.73926197               -0.04705196               -0.03682852                0.11865448                0.01246961               -0.01635928                0.00150577
               6.88131058               -0.13954531               80.10779866                0.99920764               -0.04829082               -0.03895246                0.12019802                0.00945634               -0.00845265                0.00131008
               7.88085312               -0.13739761               80.11141439                1.00000000               -0.04422031               -0.03935475                0.12229335                0.00317016               -0.00731711                0.00302894
               8.88042618               -0.13534418               80.11501562                0.99999999               -0.04068187               -0.04160343                0.12301462                0.00074278               -0.00597734                0.00372747
               9.88003948               -0.13325170               80.11864848                1.00000000               -0.03866921               -0.04258107                0.12626516               -0.00479139               -0.00311273                0.00041503
              -0.11362569                0.86624629               80.08749990                0.64905972               -0.04472705                0.01345338                0.10406465                0.03240488               -0.00199121               -0.00118836
               0.88592704                0.85971542               80.09110049                0.01276156               -0.08037689               -0.07994035                0.10974314                0.10432414               -0.00620558               -0.00478855
               1.88476677                0.85472330               80.09463237                0.01000000               -0.16283257               -0.01850074                0.11493308                0.28268907               -0.02709231               -0.01198535
               2.88267039                0.85230801               80.09789759                0.01000000               -0.19462929                0.04795560                0.12024663                0.46779483               -0.05250287                0.00514999
               3.88087418                0.85287644               80.10096548                0.01188327               -0.13930386                0.05477639                0.12545208                0.52947351               -0.06171512                0.03007144
               4.87988431                0.85512825               80.10407229                0.01000000               -0.07126748               -0.05954637                0.13036710                0.51815944               -0.04879899                0.05745258
               5.87944883                0.85771161               80.10739776                0.01000001               -0.03702052               -0.01152638                0.13583662                0.37807009               -0.02371793                0.05997885
               6.87914390                0.86006517               80.11096497                0.25372435               -0.03322872               -0.03865965                0.14174592                0.02885992               -0.00413903                0.00542725
               7.87878426                0.86220884               80.11462853                0.86148135               -0.03916234               -0.04351356                0.14928022                0.01030927                0.00181523                0.00732113
               8.87836065                0.86423978               80.11828184                0.99999999               -0.04425852               -0.04678699                0.15415272                0.00074832                0.00127795                0.00537351
               9.87789909                0.86632249               80.12192233                0.98947194               -0.04615614               -0.04725315                0.15742624               -0.00535421                0.00071702                0.00213640
              -0.10622554                1.86668364               80.09126629                0.46495660               -0.02698294                0.07685258                0.10858378                0.06619869               -0.00180492               -0.00828904
               0.89350463                1.85856321               80.09481881                0.01000000               -0.01905333               -0.16082968                0.11495556                0.28329959               -0.01429346               -0.02579787
               1.89339340                1.85462400               80.09810725                0.01000001               -0.04238963               -0.04075112                0.11426659                0.74895916               -0.01614745               -0.01131181
               2.89265684                1.85355437               80.10158175                0.01000000               -0.16992405                0.05438630                0.12808628                1.07519138               -0.02784924                0.01923990
               3.88999491                1.85427335               80.10496433                0.01000000               -0.24386037                0.09870371                0.13255693                1.19481672               -0.03970129                0.09067419
               4.88777963                1.85427417               80.10845198                0.01000001               -0.27757487               -0.02732034                0.14270070                1.28452418               -0.03228265                0.11064152
               5.88444342                1.85784937               80.11173935                0.01078960               -0.51945419                0.11864702                0.15740734                1.08325400               -0.06543765                0.12557474
               6.87739055                1.85968150               80.11419371                0.01457611               -0.37793624                0.11512493                0.17355033                0.68388295               -0.04764413                0.11051793
               7.87688469                1.86173212               80.11790381                0.01000000               -0.05315237               -0.12962508                0.18102472                0.48532646                0.01144901                0.07878267
               8.87632750                1.86372008               80.12156376                0.24949358               -0.05588496               -0.05105351                0.18613927                0.00539982                0.00638008                0.07338324
               9.87576699                1.86580323               80.12520995                0.82978608               -0.05605084               -0.05292838                0.18941255               -0.00666895                0.00408589                0.06536362
              -0.09606087                2.86778334               80.09483308                0.43295319               -0.02864644                0.08999040                0.11210882                0.03285616               -0.00286565               -0.02749363
               0.90365266                2.85649882               80.09825451                0.01000000                0.04078330               -0.18934403                0.12068708                0.46604359                0.00324297               -0.05351482
               1.90475479                2.85390828               80.10178427                0.01000000                0.04360988               -0.16451528                0.12850820                1.06381112                0.01559333               -0.02173892
               2.90452486                2.85339574               80.10557758                0.01000000               -0.03520368               -0.02978579                0.13514728                1.31665518                0.03995095                0.04811726
               3.90405072                2.85485051               80.10961802                0.01241636               -0.12630439               -0.03999060                0.14093274                1.38719994                0.04020835                0.09376416
               4.90199877                2.85458184               80.11332909                0.01000000               -0.41720688                0.06761626                0.15184094                1.59498988                0.02093908                0.12093328
               5.89570658                2.86008455               80.11675170                0.01000000               -0.65299834                0.16222436                0.16808737                1.79780129               -0.01980631                0.20112212
               6.88893881                2.86236767               80.11944516                0.01000000               -0.56271853                0.17645374                0.19255824                1.69709685               -0.02382475                0.32703256
               7.88445221                2.85961634               80.12255650                0.01000001               -0.72706357               -0.06005731                0.23292941                1.73033295                0.02655405                0.31000590
               8.87439754                2.86321871               80.12620790                0.01000001               -0.54264073               -0.31616494                0.24118277                1.87568370                0.00676322                0.27622851
               9.87359940                2.86526392               80.12975759                0.27865431               -0.07981376               -0.78954393                0.23435620                1.68809948               -0.00289466                0.16120761
              -0.08299938                3.86848344               80.09819360                0.46210379               -0.03000509                0.03074778                0.11438824                0.01097160               -0.00170169               -0.03651853
               0.91670057                3.85477633               80.10147101                0.01188557                0.03860431               -0.13007491                0.12648885                0.52179133                0.03077080               -0.06534788
               1.91777270                3.85133370               80.10538066                0.01000000                0.06735715               -0.23137190                0.13402740                1.16695844                0.09520661               -0.03405313
               2.91804771                3.85295866               80.10989308                0.01240956               -0.06099470               -0.12032875                0.14185427                1.36326259                0.09329828                0.05105058
               3.91655281                3.85347354               80.11400530                0.01000000               -0.18011617               -0.17179330                0.15003394                1.45212883                0.07894196                0.08913278
               4.91444539                3.85562649               80.11833376                0.01000000               -0.19695976                0.07693590                0.15713148                1.81028836                0.11057417                0.17156789
               5.91261362                3.86109386               80.12295476                0.01000000               -0.13223452                0.06805605                0.16478440                2.10906124                0.15608721                0.28739484
               6.91180070                3.86321057               80.12757859                0.01415836               -0.09866545               -0.02737232                0.18548003                1.94978592                0.16866764                0.32735900
               7.91064031                3.86053097               80.13121327                0.01580051               -0.18035477                0.00775131                0.23010556                1.72729895                0.10394962                0.29944705
               8.90819360                3.85739678               80.13353764                0.01000002               -0.26008675               -0.35933938                0.33166847                1.86813756                0.07620283                0.24499645
               9.90543857                3.85001235               80.13496889                0.28414854               -0.27550298               -0.92309809                0.43889747                1.65727090                0.07358296                0.22315841
              -0.06842722                4.86839830               80.10158945                0.55767981               -0.03345451               -0.03027682                0.11512244                0.01255937               -0.00014449               -0.02777090
               0.93123824                4.85389733               80.10471535                0.01000000               -0.08305722               -0.06134616                0.13166034                0.50347209                0.06235052               -0.05365866
               1.92991164                4.84928084               80.10907948                0.01000001               -0.07939856               -0.25263211                0.14472846                1.22777526                0.12659376               -0.03195036
               2.92965027                4.85098916               80.11389462                0.01000000                0.02569094               -0.40767363                0.15286348                1.54309698                0.13568571                0.03194347
               3.93042546                4.85141464               80.11872167                0.01000000                0.04669777               -0.19167031                0.15757903                1.78327660                0.17442405                0.13496000
               4.93058422                4.85612056               80.12432571                0.01000000               -0.00608657                0.03599279                0.15303739                2.10524461                0.23739737                0.26016617
               5.93030373                4.86144567               80.13012067                0.01474456               -0.10434075               -0.04206292                0.16759282                1.89578483                0.20342548                0.25391185
               6.92849741                4.86182022               80.13417110                0.01468047               -0.27458693               -0.14184071                0.21679972                1.42930185                0.08940464                0.17341485
               7.92481199                4.85977137               80.13701662                0.01000000               -0.31092506               -0.00933563                0.24166878                1.15022978                0.08092732                0.20001980
               8.92227891                4.85603192               80.14065657                0.01409917               -0.16491629                0.02704528                0.30417210                0.77516377                0.15207988                0.35328145
               9.92151366                4.84680196               80.14447799                0.30648782               -0.07652445               -0.15568542                0.35254193                0.50299866                0.23374174                0.31308889
              -0.05374625                5.86787791               80.10517249                0.73474966               -0.03662805               -0.05330435                0.11561086                0.01584679                0.00061455               -0.01412792
               0.94588747                5.85354941               80.10818403                0.01000001               -0.05086864               -0.03010819                0.13720185                0.36661453                0.06774503               -0.03022776
               1.94523637                5.84628105               80.11252972                0.01079714                0.04441896               -0.47629523                0.16112316                1.05671501                0.15468980               -0.09050268
               2.94677584                5.84480518               80.11763500                0.01000000                0.09252868               -0.63177366                0.17231058                1.74967266                0.24247813               -0.01910845
               3.94708695                5.84964013               80.12394425                0.01000000               -0.01282981               -0.11320073                0.16418894                2.05909019                0.32639298                0.20441433
               4.94651925                5.85634635               80.13093648                0.01474674               -0.11286489               -0.05859152                0.16257433                1.87755470                0.25951844                0.24613149
               5.94482965                5.86025260               80.13597675                0.01524528               -0.22291048               -0.17658339                0.16430027                1.45820830                0.13413029                0.15935671
               6.94206104                5.86037376               80.13991376                0.01000000               -0.26982256               -0.06607419                0.21024690                1.29477296                0.13711894                0.19285335
               7.93943320                5.86034426               80.14462305                0.01107257               -0.26973744                0.19353239                0.28702953                1.33184514                0.18099065                0.38470513
               8.93666629                5.85793768               80.14949794                0.01000000               -0.27373581                0.33035871                0.25713181                0.79021208                0.08854689                0.41361182
               9.93395848                5.84689865               80.15220890                0.37146967               -0.27078083                0.34427513                0.19507304                0.19658122                0.03438393                0.38512001
              -0.03945328                6.86733221               80.10891227                0.99315977               -0.03793336               -0.05017278                0.11510441                0.01137000                0.00042364               -0.00492921
               0.96016738                6.85329516               80.11185989                0.25427445               -0.03782759               -0.02974634                0.14140956                0.03545158               -0.00115331               -0.01123168
               1.95979017                6.83975493               80.11477315                0.01455361                0.05586277               -0.35249204                0.18121274                0.67550946                0.13675164               -0.07758319
               2.96128464                6.83835369               80.12047065                0.01000000                0.01379645               -0.51581168                0.19994594                1.63726952                0.42614125               -0.02787328
               3.96006610                6.84915063               80.12952305                0.01416699               -0.18808937               -0.06470665                0.18078126                1.88058760                0.41618464                0.22478179
               4.95752285                6.85494873               80.13595315                0.01468040               -0.23128063               -0.22648670                0.20405583                1.43544538                0.19637802                0.12678944
               5.95544048                6.85791401               80.14092754                0.01000000               -0.16108237               -0.19390773                0.19803235                1.29668560                0.19416866                0.17985812
               6.95430121                6.86049874               80.14727509                0.01179299               -0.07777569                0.11031176                0.23700765                1.44772174                0.35743409                0.36250383
               7.95388497                6.86364202               80.15477675                0.01000000               -0.13862198                0.30418452                0.23133392                1.34413889                0.32753143                0.40268324
               8.95152877                6.86263910               80.16030141                0.01000001               -0.31808033                0.56149745                0.19876176                0.93634731                0.17479100                0.62087001
               9.94752336                6.85368746               80.16487750                0.49582084               -0.40054032                0.85026627                0.20429191                0.63845902                0.15189154                0.71258200
              -0.02544476                7.86687445               80.11272732                0.99999998               -0.03814689               -0.04393913                0.11652202                0.00342089                0.00137453               -0.00120937
               0.97417377                7.85295448               80.11566621                0.87213491               -0.04336023               -0.03798182                0.14947138                0.01182879                0.00251851               -0.00181493
               1.97368804                7.83923121               80.11861502                0.01000000               -0.20241156               -0.05518108                0.18837129                0.46296647                0.11759155                0.00244345
               2.97012554                7.83448895               80.12386209                0.01000001               -0.27921874               -0.67511282                0.23934646                1.73868761                0.44316655               -0.04306546
               3.96810366                7.84834600               80.13407892                0.01580649               -0.18303805               -0.13032216                0.22619245                1.67447193                0.43072110                0.13274900
               4.96646478                7.85181662               80.13968281                0.01000000               -0.14451544               -0.24004366                0.21861703                1.15877541                0.26815539                0.13874640
               5.96521335                7.85637445               80.14712535                0.01109217               -0.05886578               -0.09832412                0.24940099                1.33742986                0.45623158                0.23184667
               6.96528746                7.86258000               80.15653683                0.01000000               -0.05188689                0.12849890                0.20049624                1.35845204                0.51053141                0.29388473
               7.96417561                7.86642795               80.16489956                0.01000001                0.00301658                0.50940737                0.11912056                1.20099809                0.57866472                0.51578423
               8.96534780                7.86916763               80.17559227                0.43566222                0.02276641                0.29206969                0.22754689                0.83014648                0.37582288                0.43129971
               9.96463094                7.86390397               80.17873071                0.96951240               -0.07168529                0.47268942                0.25065253                0.59386570               -0.00199547                0.34895816
              -0.01154492                8.86645343               80.11655586                0.99999999               -0.04078764               -0.03961721                0.11716513                0.00060367                0.00274699               -0.00016511
               0.98804720                8.85253553               80.11950571                0.99999999               -0.04700239               -0.04402921                0.15457405                0.00059585                0.00419816                0.00036136
               1.98751503                8.83865131               80.12246931                0.29071170               -0.05517987               -0.05797595                0.19288187                0.00439164                0.05689747                0.00169586
               2.98694360                8.82485143               80.12648614                0.01000001               -0.56435809               -0.52297421                0.25658779                1.93155430                0.43339209               -0.06012280
               3.97622787                8.84654419               80.13696606                0.01000002               -0.71368429               -0.11791609                0.32188335                1.89585123                0.50010657                0.06992138
               4.97266992                8.85014785               80.14477983                0.01423989               -0.24010836               -0.04512229                0.26926598                0.69962099                0.50702761                0.26800940
               5.97142570                8.85594752               80.15391431                0.01000000               -0.06265895               -0.05341597                0.17575539                0.82953356                0.65757838                0.08361851
               6.97141674                8.86306871               80.16484324                0.01000001               -0.00542029                0.03315566                0.05296394                1.10536441                0.87404106                0.03890636
               7.97131729                8.87383016               80.17930090                0.40505615               -0.03805309                0.33887795                0.20743486                0.89717211                0.56697178                0.38802138
               8.97065568                8.86848049               80.18235444                0.98491235               -0.06946482               -0.06909255                0.23141121                0.00005531               -0.00295373                0.00385726
               9.96992800                8.86314125               80.18541506                0.99778875               -0.07276785               -0.07668034                0.25450788               -0.00045090               -0.00322402               -0.00693600
               0.00240312                9.86608211               80.12038297                1.00000000               -0.04153136               -0.03713181                0.11979551               -0.00601722                0.00453999                0.00103155
               1.00198780                9.85207390               80.12334286                0.99051196               -0.04715769               -0.04616277                0.15721622               -0.00646063                0.00644710                0.00049029
               2.00145996                9.83807169               80.12632368                0.85973314               -0.05620246               -0.05796197                0.19564935               -0.00772841                0.05790818                0.00043302
               3.00086375                9.82402946               80.13031852                0.28623999               -1.03678488               -0.08219677                0.24810782                1.78781424                0.33301085               -0.00359537
               3.98072426                9.84598768               80.13880378                0.28608655               -1.49049457               -0.05565071                0.41639857                1.79387491                0.59024641                0.02332046
               4.97105386                9.85091417               80.15095914                0.30702083               -0.59205506                0.07663160                0.28036259                0.30431666                0.64190589                0.32574786
               5.96888316                9.85530613               80.15839794                0.37135807               -0.07708746               -0.06413990                0.06210873                0.36219318                0.89647205               -0.07167580
               6.96951211                9.86324311               80.17345726                0.49335776                0.39120582                0.01743944                0.07540739                0.70450665                1.10340822                0.03661060
               7.97670728                9.87320551               80.18597288                0.93188122                0.32628537               -0.06246528                0.21037053                0.76613205                0.48028880                0.00239322
               8.97603782                9.86778578               80.18910423                0.99777900               -0.07034317               -0.06947110                0.23436825               -0.00354308                0.00779946                0.00297490
               9.97530042                9.86237036               80.19216364                0.99470805               -0.07374039               -0.07708820                0.25745561               -0.00429991                0.00387078               -0.00443498
              -0.12357396               -0.13740818               81.08470800                0.90012313               -0.01604374               -0.01595294                0.09963341                0.00574565                0.00019447               -0.00134029
               0.87626560               -0.14364912               81.08837325                0.65645821                0.01572791               -0.04542884                0.10458341                0.03353396                0.00059872               -0.00117664
               1.87674060               -0.14874516               81.09202883                0.47735035                0.08001428               -0.02632940                0.10918230                0.06495605               -0.00631721               -0.00145237
               2.87786589               -0.15100748               81.09548347                0.44467156                0.09393292               -0.02800795                0.11280580                0.03260557               -0.02697963               -0.00217829
               3.87861925               -0.15027239               81.09872856                0.47039715                0.03698268               -0.02926086                0.11547714                0.01083800               -0.03915272               -0.00069566
               4.87860554               -0.14784899               81.10198362                0.56379496               -0.02481177               -0.03296415                0.11660887                0.01077544               -0.03482272                0.00124574
               5.87812302               -0.14516575               81.10540099                0.73946532               -0.05087873               -0.03651558                0.11706730                0.01461458               -0.02409479                0.00225621
               6.87758797               -0.14280335               81.10896672                0.99289198               -0.04966565               -0.03796300                0.11606986                0.01089733               -0.01604281                0.00199423
               7.87712971               -0.14070956               81.11260174                0.99999998               -0.04404182               -0.03805727                0.11705692                0.00353366               -0.01428930                0.00507539
               8.87670713               -0.13872536               81.11622052                0.99999999               -0.03975279               -0.04061227                0.11738298                0.00077024               -0.01257318                0.00436576
               9.87633465               -0.13669847               81.11988191                0.99999327               -0.03724784               -0.04136447                0.12003686               -0.00582658               -0.00880628               -0.00447149
              -0.11727557                0.86243229               81.08854048                0.65562312               -0.04550057                0.01574395                0.10405945                0.03371482               -0.00211387               -0.00163958
               0.88226943                0.85589659               81.09219502                0.01261563               -0.08275469               -0.08231818                0.10909672                0.11014700               -0.00648786               -0.00460515
               1.88106934                0.85099155               81.09577725                0.01000000               -0.16569328               -0.01274351                0.11392013                0.29899993               -0.02698538               -0.00636326
               2.87895556                0.84871244               81.09909750                0.01000000               -0.19604740                0.04282578                0.11958592                0.47332499               -0.05114960                0.00587552
               3.87714839                0.84943500               81.10222189                0.01225436               -0.13977949                0.05379380                0.12564107                0.52917199               -0.06006582                0.02869558
               4.87615997                0.85182136               81.10538138                0.01000000               -0.07010246               -0.07406360                0.13134144                0.52173333               -0.04669995                0.05671905
               5.87574634                0.85446910               81.10876668                0.01000001               -0.03455624               -0.02537978                0.13712863                0.38727876               -0.02223425                0.06192957
               6.87546885                0.85681702               81.11236294                0.25287648               -0.03101451               -0.03769937                0.14108889                0.03456380               -0.00161638                0.01263498
               7.87512605                0.85890987               81.11611133                0.86144236               -0.03797791               -0.04305967                0.14878513                0.01219073                0.00566283                0.01207885
               8.87470929                0.86086852               81.11982463                0.99999999               -0.04382781               -0.04671293                0.15387630                0.00086743                0.00239693                0.00660963
               9.87424949                0.86288788               81.12349363                0.99002259               -0.04597931               -0.04684607                0.15647226               -0.00632309                0.00058743               -0.00188579
              -0.10982827                1.86290669               81.09234981                0.47493911               -0.02624500                0.07902089                0.10810046                0.06591172               -0.00180784               -0.00963477
               0.88990928                1.85470451               81.09596324                0.01000000               -0.01334892               -0.16388875                0.11382970                0.29958007               -0.00927787               -0.02480634
               1.88990475                1.85099997               81.09941217                0.01000001               -0.05101696               -0.04944888                0.14435986                0.76284582               -0.03075117               -0.02400870
               2.88888894                1.84984903               81.10285766                0.01000000               -0.19054906                0.04789855                0.12781707                1.08967396               -0.03958049                0.01798240
               3.88609377                1.85080348               81.10628389                0.01000000               -0.24414157                0.08710948                0.13298330                1.20811679               -0.04594753                0.08470615
               4.88400611                1.85066973               81.10987559                0.01000001               -0.26104163               -0.05421636                0.14336615                1.29542804               -0.03179364                0.10278901
               5.88087293                1.85432666               81.11331715                0.01074975               -0.50838169                0.09471633                0.16045132                1.11675987               -0.05717054                0.11770712
               6.87383847                1.85644267               81.11596820                0.01440348               -0.37754529                0.10324545                0.17974599                0.71142723               -0.03270222                0.11529313
               7.87332203                1.85842925               81.11974644                0.01000000               -0.05460054               -0.15187569                0.18646743                0.49375466                0.01936174                0.09067567
               8.87274646                1.86034038               81.12345298                0.29318761               -0.05762884               -0.05097218                0.19169372                0.00598826                0.01264304                0.08729510
               9.87216945                1.86236461               81.12712939                0.86447547               -0.05770097               -0.05327028                0.19432709               -0.00688770                0.00950790                0.06842990
              -0.09955297                2.86401270               81.09595147                0.44069106               -0.02792779                0.08990880                0.11157668                0.03437128               -0.00261570               -0.03079616
               0.90016775                2.85261881               81.09945726                0.01000000                0.03673558               -0.19142083                0.11972704                0.47183818                0.00321326               -0.05095321
               1.90118174                2.85000257               81.10306449                0.01000000                0.03888911               -0.18569965                0.12806794                1.07979583                0.01253186               -0.03129664
               2.90094553                2.84967041               81.10692140                0.01000000               -0.03458566               -0.03065933                0.13608235                1.34267630                0.02822249                0.03911564
               3.90049002                2.85117719               81.11099277                0.01256735               -0.12000874               -0.05535013                0.13899334                1.39868886                0.02886979                0.08075859
               4.89854536                2.85073704               81.11481214                0.01000000               -0.40907094                0.05217590                0.14975164                1.60530587                0.01312603                0.09898759
               5.89230861                2.85636343               81.11839852                0.01000000               -0.64752765                0.14306040                0.16537640                1.82940873               -0.02557951                0.17368089
               6.88559480                2.85888193               81.12140661                0.01000000               -0.56025876                0.13744993                0.20048200                1.72934106               -0.03155756                0.30777535
               7.88110343                2.85587235               81.12483632                0.01000001               -0.73505548               -0.10974901                0.23534674                1.80259913                0.01664742                0.28670313
               8.87089369                2.85984907               81.12868449                0.01000001               -0.55200724               -0.39474816                0.25124988                1.99514450                0.02060958                0.30130152
               9.87006329                2.86182248               81.13215148                0.29357231               -0.08304075               -0.92884716                0.24141847                1.83535138               -0.00186547                0.27693765
              -0.08635307                3.86470487               81.09933540                0.46647819               -0.02907586                0.02904748                0.11405503                0.01306146               -0.00134463               -0.04201472
               0.91335617                3.85087610               81.10273485                0.01221085                0.04010711               -0.13147773                0.12615251                0.52248374                0.02846505               -0.06244900
               1.91444907                3.84728598               81.10671116                0.01000000                0.06058381               -0.23339963                0.13420738                1.18321579                0.08664646               -0.03746069
               2.91456785                3.84923584               81.11127787                0.01256895               -0.07240786               -0.11576838                0.13985616                1.37591371                0.07771470                0.04239977
               3.91300092                3.84969648               81.11545986                0.01000000               -0.18209307               -0.17648353                0.14432478                1.43966528                0.05621011                0.06864335
               4.91092599                3.85171325               81.11982407                0.01000000               -0.18423510                0.07584093                0.14803407                1.80168989                0.08029510                0.13234874
               5.90931621                3.85718787               81.12449770                0.01000000               -0.10048107                0.05175722                0.14650389                2.11886419                0.11942153                0.25316178
               6.90891637                3.85919166               81.12945702                0.01480355               -0.04546706               -0.07047320                0.18445559                1.95589943                0.09374139                0.34868060
               7.90840687                3.85623427               81.13322459                0.01694488               -0.11085686               -0.03164180                0.19492113                1.69449570                0.02682447                0.21984741
               8.90669923                3.85244542               81.13657792                0.01393886               -0.17386025               -0.40282442                0.27573168                1.80222368                0.00621480                0.29654714
               9.90492967                3.84378766               81.13997901                0.28935218               -0.17695607               -1.03902040                0.46711893                1.60499547                0.08110741                0.22832971
              -0.07163420                4.86459365               81.10273759                0.56087449               -0.03294876               -0.03325481                0.11464455                0.01439928                0.00045828               -0.03521380
               0.92803631                4.84998926               81.10603450                0.01000000               -0.09397468               -0.06058001                0.13208287                0.50838862                0.06050863               -0.05092401
               1.92648631                4.84533458               81.11051962                0.01000001               -0.09915039               -0.23969656                0.14518180                1.24238768                0.11613254               -0.02807830
               2.92605330                4.84735504               81.11538975                0.01000000                0.01598085               -0.40148535                0.15093471                1.55473578                0.11048739                0.02780302
               3.92680592                4.84764752               81.12021660                0.01000000                0.05172309               -0.18266365                0.14849371                1.77410820                0.13244483                0.10574618
               4.92708777                4.85225385               81.12568221                0.01000000                0.02007761                0.05261290                0.12736586                2.09175542                0.18112779                0.20236309
               5.92720748                4.85739857               81.13154288                0.01558718               -0.07106877               -0.03923994                0.12232238                1.87585573                0.18577856                0.21113840
               6.92566639                4.85747247               81.13631494                0.01585976               -0.27339417               -0.17060347                0.19871452                1.40263710                0.11129940                0.20491950
               7.92173959                4.85523952               81.13950750                0.01000000               -0.31408107               -0.03193054                0.25871128                1.12094491                0.07345786                0.21900865
               8.91938477                4.85179258               81.14329290                0.01742356               -0.11304463                0.00650242                0.19796975                0.64851707                0.09436471                0.30047698
               9.91947870                4.84104207               81.14756132                0.30833831                0.00939301               -0.15100162                0.23035910                0.27051356                0.15637387                0.10292687
              -0.05685630                5.86403977               81.10631929                0.73572920               -0.03606844               -0.05626670                0.11394908                0.01812413                0.00143779               -0.02232246
               0.94278302                5.84966450               81.10955673                0.01000001               -0.06063278               -0.02806356                0.13731631                0.37544235                0.06941486               -0.02760852
               1.94193105                5.84249205               81.11414540                0.01072377                0.02833040               -0.46936852                0.16426389                1.08854704                0.14487361               -0.07847293
               2.94334963                5.84120614               81.11931935                0.01000000                0.08266088               -0.62996186                0.16942744                1.77767104                0.21013443               -0.01896538
               3.94358426                5.84604321               81.12548519                0.01000000               -0.01697915               -0.08913828                0.14739451                2.06464025                0.28692728                0.16478774
               4.94301004                5.85276551               81.13232287                0.01559034               -0.09847748               -0.03566858                0.11982277                1.85555279                0.21825264                0.21980079
               5.94161471                5.85640307               81.13723219                0.01656678               -0.19409420               -0.15934099                0.12940477                1.37283975                0.07425083                0.09114154
               6.93912816                5.85577960               81.14199954                0.01000000               -0.25545297               -0.07846210                0.17930599                1.21810591                0.08762454                0.25286367
               7.93650566                5.85559566               81.14783661                0.01328433               -0.26305706                0.12270845                0.29673319                1.27779790                0.15947132                0.41404717
               8.93386702                5.85257546               81.15197320                0.01000000               -0.23323449                0.18229928                0.25461920                0.69795735                0.09028120                0.37592673
               9.93184097                5.84076763               81.15389796                0.37294517               -0.20260522                0.32769892                0.16414220                0.07278114               -0.01728892                0.38315955
              -0.04252116                6.86346832               81.11005749                0.98690847               -0.03859515               -0.05224585                0.11404443                0.01264605                0.00124874               -0.01293405
               0.95709288                6.84942799               81.11328536                0.25323896               -0.03816141               -0.02836784                0.14372390                0.03967654                0.00582848               -0.00763338
               1.95671561                6.83594721               81.11660294                0.01438448                0.04813417               -0.35357425                0.18456499                0.70022791                0.14026965               -0.06014919
               2.95805557                6.83475580               81.12250959                0.01000000               -0.00881250               -0.51936221                0.20812659                1.66403535                0.39697824               -0.03231460
               3.95653936                6.84586475               81.13135623                0.01481927               -0.21083030               -0.01941239                0.18347645                1.87797448                0.42338572                0.13837977
               4.95383896                6.85154048               81.13798124                0.01584459               -0.24445863               -0.23089532                0.18895777                1.40230801                0.22414513                0.13330170
               5.95165018                6.85421175               81.14290017                0.01000000               -0.15015200               -0.19858835                0.17199501                1.21084565                0.25702253                0.12538634
               6.95083592                6.85590323               81.14976525                0.01417095               -0.05752519                0.06706887                0.27309982                1.28169997                0.40147696                0.43593935
               7.95049968                6.85769369               81.15697856                0.01000002               -0.13319900                0.17381695                0.22599546                1.15085871                0.29601966                0.34340539
               8.94817194                6.85543857               81.16219923                0.01000001               -0.29748456                0.49322439                0.18031934                0.90539244                0.14023763                0.55380954
               9.94454999                6.84759605               81.16712041                0.49734278               -0.36219520                0.81710649                0.23975659                0.69155633                0.17570684                0.77786830
              -0.02852272                7.86299486               81.11387918                0.99874414               -0.03796253               -0.04448605                0.11405436                0.00372950                0.00324524               -0.00961997
               0.97109766                7.84909714               81.11716508                0.87062458               -0.04347462               -0.03715515                0.15033427                0.01412653                0.00709728                0.00141882
               1.97060779                7.83542056               81.12051734                0.01000000               -0.21924342               -0.05596611                0.19168043                0.47088433                0.12795346                0.01189557
               2.96671279                7.83081889               81.12622486                0.01000001               -0.31243592               -0.68471903                0.24400874                1.80161263                0.42011178               -0.04679655
               3.96435907                7.84565496               81.13599027                0.01694044               -0.20017925               -0.06997478                0.18527747                1.62230819                0.33462787                0.04805017
               4.96270921                7.84814760               81.14198546                0.01000000               -0.14450943               -0.24718698                0.24185204                1.11585825                0.25911977                0.10606082
               5.96146888                7.85243130               81.15006535                0.01329677               -0.07144920               -0.14569035                0.27512539                1.27057568                0.46383000                0.21370688
               6.96128022                7.85712097               81.15853755                0.01000002               -0.07406989                0.04669886                0.20800845                1.16650023                0.40616736                0.32063473
               7.95998749                7.85907200               81.16595871                0.01000001                0.03961421                0.47316078                0.10963227                1.14678609                0.55116348                0.51747669
               8.96207251                7.86243995               81.17786960                0.43616638                0.06848233                0.31553474                0.22745868                0.86602235                0.42483245                0.44880772
               9.96135713                7.85710976               81.18124439                0.96932617               -0.07153718                0.43727499                0.25119775                0.57538331               -0.00215335                0.36088440
              -0.01465114                8.86257860               81.11770294                0.99999999               -0.03991510               -0.03857370                0.11218590                0.00059724                0.00350878               -0.00782911
               0.98494971                8.84868489               81.12104907                0.99999998               -0.04686584               -0.04345873                0.15389271                0.00115711                0.00567025                0.00125614
               1.98441154                8.83482789               81.12442042                0.33138720               -0.05481411               -0.05926473                0.19720865                0.00552390                0.07235545                0.00896886
               2.98385343                8.82106142               81.12910855                0.01000001               -0.63773648               -0.53037670                0.26495859                2.03354533                0.44677520               -0.04198155
               3.97165681                8.84446526               81.13994220                0.01363536               -0.72368199               -0.06632416                0.27600782                1.79484529                0.52425654               -0.00481166
               4.96937979                8.84659674               81.14711235                0.01753014               -0.17842418               -0.02593457                0.18175009                0.59977278                0.39776712                0.16311049
               5.96808833                8.85129794               81.15584883                0.01000000               -0.09272765               -0.10170694                0.21957729                0.75155316                0.51190459                0.07303137
               6.96752523                8.85683720               81.16608047                0.01000001                0.00140472               -0.02101827                0.12085252                1.06433035                0.82646006                0.17093742
               7.96811642                8.86715690               81.18136679                0.40389115               -0.00353048                0.37354167                0.20522554                0.92476144                0.59631452                0.43706400
               8.96745462                8.86174926               81.18467359                0.98310411               -0.06991921               -0.06952371                0.23230934                0.00090879               -0.00260400                0.00428870
               9.96671804                8.85634155               81.18797161                0.99625893               -0.07365841               -0.07744104                0.25653766               -0.00048248               -0.00275400               -0.00661661
              -0.00072335                9.86222338               81.12155673                0.99999916               -0.04051413               -0.03552150                0.11454698               -0.00676225               -0.00103425               -0.00498013
               0.99887151                9.84822797               81.12491202                0.99099923               -0.04674597               -0.04569199                0.15615789               -0.00722524                0.00185861                0.00064010
               1.99834173                9.83423527               81.12829968                0.89246567               -0.05625922               -0.05926172                0.19935722               -0.00781114                0.06126166                0.00652674
               2.99774633                9.82021136               81.13284251                0.30159347               -1.18105382               -0.08500624                0.25366353                1.89395055                0.43196545               -0.00254396
               3.97472066                9.84432848               81.14365437                0.29114910               -1.49371765               -0.01367798                0.47391010                1.67726210                0.50555108                0.02895775
               4.96787197                9.84762891               81.15306193                0.30881631               -0.42305846                0.10321675                0.16527952                0.15265318                0.37289699                0.21333697
               5.96625949                9.85039716               81.15920827                0.37279817               -0.05820531               -0.09007805                0.10941083                0.27070074                0.70630411               -0.10157442
               6.96670787                9.85670061               81.17429091                0.49474046                0.36555836               -0.01365964                0.12203473                0.72554687                1.13845527                0.18776686
               7.97357065                9.86654283               81.18806312                0.92957826                0.30990837               -0.06140742                0.20682173                0.76286676                0.53082552                0.00223523
               8.97290604                9.86104948               81.19144845                0.99625415               -0.07038700               -0.06997858                0.23412865               -0.00395316                0.00809494                0.00347382
               9.97216292                9.85556094               81.19474525                0.99428948               -0.07431204               -0.07806081                0.25839930               -0.00436617                0.00448557               -0.00383543
              -0.12726198               -0.14127720               82.08570748                0.90220346               -0.01517145               -0.01511162                0.10033605                0.00570782                0.00022314               -0.00146426
               0.87258630               -0.14750506               82.08941857                0.66334327                0.01788119               -0.04616183                0.10449265                0.03468658                0.00042721               -0.00110560
               1.87309564               -0.15253187               82.09311685                0.48749174                0.08142282               -0.02554272                0.10842948                0.06432831               -0.00736117               -0.00139251
               2.87421476               -0.15467637               82.09660756                0.45216091                0.09234176               -0.02722996                0.11212446                0.03425530               -0.02978095               -0.00188134
               3.87494248               -0.15382276               82.09988071                0.47485438                0.03339859               -0.02822253                0.11513666                0.01319393               -0.04412404               -0.00033638
               4.87488273               -0.15130551               82.10314638                0.56784026               -0.02942715               -0.03238358                0.11619652                0.01309996               -0.04226670                0.00184045
               5.87435393               -0.14860634               82.10656107                0.74162049               -0.05468737               -0.03596110                0.11533875                0.01724850               -0.03283592                0.00306483
               6.87378898               -0.14629785               82.11012006                0.98599898               -0.05201977               -0.03857591                0.11461728                0.01234664               -0.02494083                0.00281476
               7.87331354               -0.14431528               82.11375553                0.99579654               -0.04472215               -0.03789981                0.11418138                0.00386777               -0.02364044                0.00680909
               8.87289454               -0.14246508               82.11736328                1.00000000               -0.03864765               -0.03954005                0.11155962                0.00070979               -0.02076114                0.00505299
               9.87254059               -0.14056458               82.12104921                0.99876826               -0.03539556               -0.03981330                0.11306817               -0.00672547               -0.01513845               -0.01049505
              -0.12097704                0.85857169               82.08958109                0.66256549               -0.04624471                0.01785772                0.10407184                0.03483587               -0.00216050               -0.00196485
               0.87856051                0.85203333               82.09328243                0.01888524               -0.08491867               -0.08450469                0.10832262                0.11557139               -0.00653105               -0.00436660
               1.87732458                0.84721270               82.09691077                0.01000001               -0.16788768               -0.03057686                0.11266506                0.29031566               -0.02606045                0.01389088
               2.87520275                0.84505133               82.10028930                0.01000000               -0.19677962                0.03832423                0.11862034                0.47305349               -0.04837005                0.00729350
               3.87338899                0.84589502               82.10347830                0.01262393               -0.13986142                0.05096771                0.12544161                0.52174356               -0.05669804                0.02815623
               4.87240553                0.84837065               82.10669912                0.01000000               -0.06831997               -0.08976515                0.13205670                0.51833943               -0.04346685                0.05592386
               5.87202259                0.85103405               82.11014034                0.01000001               -0.03193023               -0.04109899                0.13755665                0.38995988               -0.01959088                0.06494684
               6.87176692                0.85331639               82.11378674                0.25367753               -0.02933795               -0.03792251                0.14351283                0.03949534                0.00162081                0.01972267
               7.87143583                0.85530572               82.11760423                0.86177264               -0.03703165               -0.04320350                0.14987539                0.01483737                0.00864240                0.01655406
               8.87102629                0.85713952               82.12135936                0.99999999               -0.04314993               -0.04644004                0.15285349                0.00172193                0.00329594                0.00838414
               9.87057283                0.85903729               82.12505178                0.99070218               -0.04534562               -0.04607189                0.15442892               -0.00703641                0.00083924               -0.00673755
              -0.11348854                1.85907996               82.09342830                0.48534096               -0.02547375                0.08050736                0.10759663                0.06510341               -0.00176580               -0.01065409
               0.88625672                1.85080485               82.09709540                0.01000001               -0.03137536               -0.16625914                0.11249768                0.29100138                0.01061763               -0.02330176
               1.88588395                1.84685659               82.10099445                0.01000001               -0.06316046               -0.06146726                0.14331280                0.77509839               -0.05162962               -0.04407796
               2.88499351                1.84609012               82.10413809                0.01000000               -0.19129600                0.03532554                0.13413473                1.11491441               -0.06101458                0.01456109
               3.88205803                1.84719660               82.10762400                0.01000000               -0.24415076                0.06973446                0.13668339                1.20787274               -0.05161626                0.08458597
               4.88011049                1.84689918               82.11131930                0.01000001               -0.24253169               -0.08787676                0.14553866                1.29125513               -0.02856418                0.09553606
               5.87720740                1.85057168               82.11494838                0.01071178               -0.49016378                0.06717904                0.16772750                1.13112278               -0.04671099                0.11204445
               6.87030722                1.85294370               82.11778863                0.01432046               -0.37101200                0.08589873                0.18365811                0.71759517               -0.01679596                0.12048059
               7.86978716                1.85482065               82.12163316                0.01000000               -0.05549033               -0.17167315                0.18985837                0.48669360                0.02924822                0.10548784
               8.86919741                1.85660612               82.12539764                0.34848504               -0.05914158               -0.05098627                0.19664824                0.00808054                0.02086524                0.10021345
               9.86860432                1.85851398               82.12909650                0.90868203               -0.05930883               -0.05421183                0.19854999               -0.00645025                0.01632063                0.06793890
              -0.10312476                2.86018183               82.09706462                0.44854248               -0.02713328                0.08885333                0.11115467                0.03579865               -0.00230310               -0.03346762
               0.89660390                2.84870814               82.10064905                0.01000000                0.03330238               -0.19273719                0.11849766                0.47194530                0.00413587               -0.04733846
               1.89754128                2.84598335               82.10434562                0.01000000                0.02785648               -0.18636156                0.13401314                1.10641856                0.00789227               -0.05123144
               2.89716103                2.84575784               82.10829923                0.01000000               -0.04019537               -0.03759078                0.13924193                1.35830726                0.01342584                0.02584231
               3.89673738                2.84728971               82.11239788                0.01279258               -0.11527410               -0.07870076                0.14315645                1.39640268                0.01661612                0.07231601
               4.89485555                2.84661312               82.11632412                0.01000000               -0.40684218                0.02521099                0.16198619                1.59954374                0.01159657                0.07173150
               5.88860053                2.85237763               82.12005923                0.01000000               -0.64928478                0.12205275                0.17422605                1.82914749               -0.03047277                0.13937598
               6.88186986                2.85503436               82.12345480                0.01000000               -0.55466259                0.11660756                0.20725652                1.70680218               -0.02882362                0.27421679
               7.87750728                2.85187225               82.12726344                0.01000000               -0.71876455               -0.22819556                0.25008532                1.76770811                0.01746539                0.27226626
               8.86749456                2.85611979               82.13123289                0.01000000               -0.54395893               -0.39434042                0.25675516                1.92234294                0.03073349                0.29179780
               9.86662810                2.85795305               82.13458596                0.31640389               -0.08664618               -0.96724372                0.24411497                1.76603673                0.00106080                0.35132869
              -0.08982519                3.86085702               82.10047470                0.47135632               -0.02807058                0.02641484                0.11405316                0.01495316               -0.00091680               -0.04721449
               0.90989411                3.84695011               82.10399406                0.01258581                0.03939051               -0.13255849                0.12557891                0.51674099                0.02772593               -0.05812040
               1.91096262                3.84312936               82.10806480                0.01000000                0.04795979               -0.23491615                0.13775177                1.18629743                0.08558342               -0.04160166
               2.91085330                3.84533830               82.11269020                0.01279753               -0.09159054               -0.11270509                0.14387352                1.37476146                0.06664246                0.03240020
               3.90913081                3.84562258               82.11689179                0.01000000               -0.19199244               -0.18927322                0.15426065                1.40548134                0.03066432                0.04616152
               4.90701345                3.84740340               82.12129444                0.01000001               -0.18808555                0.05279496                0.15384924                1.77075475                0.02921608                0.08253278
               5.90536910                3.85301273               82.12588484                0.01000000               -0.10324090                0.02781630                0.14596374                2.13292377                0.06551832                0.18125181
               6.90494863                3.85527585               82.13126770                0.01570836               -0.06566061               -0.08291368                0.17175467                1.90664591                0.00022608                0.36539164
               7.90405589                3.85025673               82.13511169                0.01000000               -0.16925785               -0.11663680                0.25680373                1.76196877               -0.12503016                0.16719641
               8.90156348                3.84871931               82.13905228                0.01000000               -0.18986698               -0.47368021                0.27655535                1.87650961               -0.27956346                0.53128716
               9.90025855                3.83916911               82.14431127                0.29652379               -0.13049295               -1.15057522                0.46997223                1.51878907               -0.11688631                0.32568519
              -0.07501187                4.86071013               82.10388234                0.56544669               -0.03217446               -0.03727315                0.11468809                0.01632482                0.00112660               -0.04349422
               0.92466639                4.84605697               82.10735700                0.01000000               -0.10545475               -0.06018654                0.13233492                0.50652212                0.05948790               -0.04721072
               1.92287904                4.84128503               82.11198312                0.01000001               -0.12516760               -0.22505458                0.14736070                1.24276852                0.10714013               -0.02241345
               2.92216304                4.84350374               82.11691331                0.01000000               -0.00485691               -0.40161302                0.16314259                1.55023303                0.08141157                0.02999263
               3.92278190                4.84350424               82.12169155                0.01000001                0.03587307               -0.19131630                0.15423595                1.74282155                0.08178466                0.05794987
               4.92288050                4.84766902               82.12687303                0.01000000                0.03023319                0.05199633                0.13313790                2.07767769                0.10681599                0.12644271
               5.92338656                4.85293395               82.13256712                0.01671318               -0.00608638               -0.11472944                0.12789607                1.84879880                0.09093996                0.12581318
               6.92275877                4.85337609               82.13814539                0.01740405               -0.20416849               -0.16475612                0.13533018                1.24330195               -0.00882796                0.25131942
               7.91930319                4.84953952               82.14219085                0.01000000               -0.33231927                0.04487059                0.24088388                1.09315878               -0.07416932                0.20580133
               8.91611238                4.84664619               82.14461596                0.01000001               -0.15994516               -0.10847132                0.23884548                0.81245592               -0.10835027                0.53442539
               9.91610429                4.83494154               82.14908518                0.31099950               -0.00080938               -0.20831798                0.29759436                0.30476738               -0.07515084                0.21310859
              -0.06019238                5.86011156               82.10745147                0.73862009               -0.03579747               -0.05982467                0.11334056                0.01987223                0.00222902               -0.03155297
               0.93944965                5.84574638               82.11093036                0.01000001               -0.07181990               -0.02614142                0.13800215                0.37944091                0.07279340               -0.02384272
               1.93837122                5.83862827               82.11581500                0.01070820                0.00945507               -0.45525101                0.17095504                1.10259805                0.14086956               -0.06490614
               2.93963875                5.83730604               82.12102355                0.01000000                0.07253718               -0.63509297                0.17846717                1.77379382                0.17552411               -0.01906513
               3.93982197                5.84179626               82.12689214                0.01000000               -0.02507252               -0.10455496                0.14731664                2.07087720                0.21431818                0.11509977
               4.93913730                5.84844333               82.13333293                0.01670644               -0.15919828                0.01415792                0.12623007                1.82516025                0.13897626                0.11643177
               5.93663800                5.85071814               82.13856484                0.01000001               -0.29640957               -0.26726873                0.18567633                1.44738783               -0.00255210                0.00385979
               6.93320911                5.85198073               82.14349988                0.01000000               -0.19945195               -0.03482881                0.17424741                1.29647900                0.04188704                0.37750274
               7.93264896                5.85115415               82.15055771                0.01612832               -0.03992686                0.14242571                0.16022357                1.13186740                0.13127485                0.36629677
               8.93241057                5.84654988               82.15459032                0.01000002               -0.14428893                0.05863476                0.26987322                0.59639428               -0.01673402                0.46654769
               9.92976318                5.83500275               82.15549174                0.37490482               -0.26473854                0.34784231                0.44866165                0.09982867               -0.16155360                0.70309617
              -0.04588405                6.85951364               82.11119316                0.99895980               -0.03774461               -0.05374788                0.11119827                0.01408708                0.00232756               -0.02191076
               0.95373850                6.84553414               82.11473437                0.25369153               -0.03723062               -0.02636109                0.14280908                0.04471391                0.01258935               -0.00331931
               1.95337133                6.83218001               82.11846445                0.01432400                0.03662104               -0.34883097                0.18813874                0.70419154                0.14537327               -0.04263618
               2.95447092                6.83080188               82.12463318                0.01000000               -0.01545904               -0.51759942                0.21358353                1.63246181                0.36358973               -0.02123438
               3.95306215                6.84141314               82.13319258                0.01570644               -0.20045521               -0.05376137                0.17698836                1.81819725                0.43185462                0.04434748
               4.95046182                6.84795217               82.13973231                0.01740171               -0.21326142               -0.18183031                0.12861751                1.23051148                0.27553132                0.00192792
               5.94879693                6.84758858               82.14436744                0.01000000               -0.11047356               -0.15091107                0.17116342                1.30136007                0.38822348                0.06663906
               6.94825235                6.85267951               82.15273708                0.01721568               -0.07127707                0.03483717                0.27671011                1.45539004                0.48244236                0.51423110
               7.94737138                6.85238803               82.15929665                0.01000002               -0.20303381                0.06175551                0.21502136                0.91786185                0.22796102                0.32102636
               8.94419167                6.84781888               82.16390780                0.01000000               -0.30881230                0.45597731                0.22437985                0.78292731                0.15226907                0.68776566
               9.94119514                6.84189839               82.16967263                0.49934864               -0.29965320                0.76338576                0.25284850                0.81170641                0.25630968                0.82805837
              -0.03195165                7.85903660               82.11500841                0.99378034               -0.03707960               -0.04471727                0.11060375                0.00410767                0.00455536               -0.01993427
               0.96767755                7.84521915               82.11867290                0.86901336               -0.04305150               -0.03602192                0.14979238                0.01598341                0.01121756                0.00376081
               1.96718732                7.83165165               82.12244863                0.01000000               -0.23113505               -0.05658274                0.19413083                0.46331071                0.14288890                0.02322820
               2.96305485                7.82695405               82.12874227                0.01000000               -0.40758486               -0.67038633                0.25612583                1.74778938                0.40662892               -0.03550168
               3.95903562                7.84072103               82.13778446                0.01000000               -0.27413778               -0.13146461                0.24140101                1.67498592                0.29965893               -0.08916731
               4.95757209                7.84480672               82.14451985                0.01000000               -0.05488780               -0.28092916                0.22780457                1.06178544                0.25076819               -0.04338233
               5.95793786                7.84769992               82.15262786                0.01613866               -0.00273215                0.03383274                0.15780249                1.08847451                0.40684740                0.17362066
               6.95751745                7.85267747               82.16069700                0.01000002               -0.10355182               -0.09727042                0.20837042                0.94324811                0.34956508                0.27507436
               7.95586683                7.85238926               82.16709220                0.01000000                0.05206530                0.40394999                0.19020638                1.01355237                0.63828820                0.67443419
               8.95855876                7.85566943               82.18014144                0.43670991                0.09857356                0.35842670                0.22826164                0.88441579                0.46972697                0.47759034
               9.95783830                7.85027046               82.18375466                0.96898919               -0.07204588                0.38048341                0.25227818                0.56419010               -0.00258716                0.35972803
              -0.01816700                8.85861929               82.11879958                1.00000000               -0.03898729               -0.03808365                0.10782889                0.00061679                0.00422705               -0.01700823
               0.98144313                8.84481371               82.12258356                0.99999998               -0.04651735               -0.04291762                0.15295265                0.00167697                0.00763635                0.00187929
               1.98090265                8.83104836               82.12641349                0.38391298               -0.05428995               -0.06039644                0.20070717                0.00739171                0.08719628                0.01820542
               2.98035733                8.81739416               82.13178531                0.01000000               -0.60967255               -0.52216872                0.26822159                1.94145077                0.43415791               -0.02941275
               3.96870920                8.83878385               82.14248622                0.01000000               -0.78193454               -0.07892638                0.24464802                1.82598375                0.83382485               -0.23949702
               4.96471864                8.84233359               82.14841483                0.01000001               -0.30067646               -0.07624886                0.19288609                0.74335935                0.67214940               -0.04149276
               5.96269567                8.84826523               82.15830586                0.01000002               -0.11453312               -0.05720823                0.24818467                0.61214606                0.52295925               -0.00282828
               6.96242797                8.85073410               82.16726030                0.01000001                0.09774001               -0.10499447                0.18174400                0.90553576                0.84111947                0.21567242
               7.96465047                8.86046703               82.18340541                0.40277590                0.07854039                0.37341552                0.20389467                0.92763653                0.62826925                0.48187695
               8.96399878                8.85498742               82.18700063                0.99999997               -0.06867976               -0.06819505                0.22857756               -0.00000717               -0.00061762                0.00610704
               9.96327688                8.84950806               82.19054581                0.99438220               -0.07219051               -0.07620420                0.25270369               -0.00002410               -0.00159526               -0.00436251
              -0.00432815                9.85827493               82.12267391                0.99874793               -0.03898273               -0.03443620                0.10862033               -0.00752725               -0.00760425               -0.01169289
               0.99528203                9.84436080               82.12646602                0.99165983               -0.04585755               -0.04529048                0.15388072               -0.00767046               -0.00344294                0.00106073
               1.99475470                9.83044372               82.13031082                0.93515403               -0.05668285               -0.06046380                0.20225422               -0.00730105                0.06156540                0.01406962
               2.99414837                9.81651068               82.13539179                0.32537587               -1.20694213               -0.08834778                0.25435751                1.81404353                0.51423279                0.00092043
               3.97061586                9.83914250               82.14828198                0.29782789               -1.55952335                0.03586499                0.44121314                1.52921947                0.66974129               -0.10933750
               4.96295790                9.84328175               82.15426473                0.31135080               -0.44177942                0.09481565                0.18408870                0.19458937                0.52596042                0.00180254
               5.96178027                9.84655576               82.16058616                0.37471595                0.02342322               -0.17094757                0.40409452                0.27325172                0.86496059               -0.14780004
               6.96342637                9.85057758               82.17589796                0.49660188                0.41929864               -0.01565246                0.13908641                0.76492987                1.18797463                0.27614757
               7.97016624                9.85985757               82.19010931                0.92712691                0.30456108               -0.06094656                0.20374412                0.73797480                0.54178521                0.00187389
               8.96951759                9.85430553               82.19378680                0.99437686               -0.06848545               -0.06818894                0.22837233               -0.00367875                0.01008069                0.00429236
               9.96879654                9.84874638               82.19733163                0.99373644               -0.07210526               -0.07616812                0.25250094               -0.00394913                0.00571977               -0.00265524
              -0.13099167               -0.14518469               83.08671472                0.90419541               -0.01435469               -0.01431356                0.10116886                0.00559633                0.00023837               -0.00149876
               0.86886478               -0.15139895               83.09046310                0.67029897                0.01980262               -0.04686265                0.10444142                0.03562598                0.00032883               -0.00102835
               1.86940438               -0.15636086               83.09419742                0.49791440                0.08208101               -0.02473761                0.10776273                0.06320452               -0.00785373               -0.00130090
               2.87050640               -0.15840860               83.09772596                0.45965760                0.08967892               -0.02636223                0.11172183                0.03575105               -0.03156950               -0.00154617
               3.87119796               -0.15747429               83.10103129                0.47989799                0.02867224               -0.02708714                0.11533182                0.01521226               -0.04850612                0.00012978
               4.87107985               -0.15491767               83.10430755                0.57382679               -0.03526716               -0.03154197                0.11654222                0.01544061               -0.05042105                0.00257498
               5.87049262               -0.15226298               83.10770777                0.74647419               -0.05925776               -0.03562948                0.11491156                0.01929014               -0.04280139                0.00382694
               6.86989469               -0.15008042               83.11125907                0.99824084               -0.05394724               -0.03766727                0.11167485                0.01387726               -0.03466152                0.00385678
               7.86941367               -0.14827078               83.11488536                0.99999999               -0.04482360               -0.03658957                0.10971317                0.00445867               -0.03450308                0.00783196
               8.86899822               -0.14661646               83.11845171                1.00000000               -0.03768234               -0.03816935                0.10583342                0.00080837               -0.03091619                0.00518411
               9.86866003               -0.14491350               83.12214327                0.99717236               -0.03381951               -0.03806517                0.10612857               -0.00756079               -0.02322204               -0.01761665
              -0.12472145                0.85467218               83.09062192                0.66975081               -0.04694270                0.01973877                0.10409776                0.03571826               -0.00214011               -0.00209139
               0.87480913                0.84813243               83.09436147                0.03087510               -0.08686509               -0.08645989                0.10743828                0.12051438               -0.00634142               -0.00404039
               1.87354125                0.84339177               83.09803056                0.01050711               -0.16942471               -0.04777919                0.11121392                0.28102219               -0.02435733                0.02024463
               2.87142063                0.84132778               83.10146991                0.01000000               -0.19683170                0.02694631                0.11734880                0.46978776               -0.04426462                0.01569205
               3.86960462                0.84225483               83.10473073                0.01306601               -0.13960180                0.05249554                0.12490465                0.50606992               -0.05161343                0.03070345
               4.86862860                0.84476691               83.10802251                0.01000000               -0.06688612               -0.10634407                0.13245932                0.50782429               -0.03890748                0.05586881
               5.86826690                0.84738073               83.11151781                0.01000001               -0.02956144               -0.05441812                0.13834213                0.38763824               -0.01565458                0.07134175
               6.86803737                0.84954291               83.11523320                0.25646593               -0.02703083               -0.03676806                0.14256841                0.04528396                0.00578459                0.02642933
               7.86772628                0.85136332               83.11910884                0.86195931               -0.03548533               -0.04247091                0.14833306                0.01716266                0.01080331                0.01985762
               8.86732766                0.85300185               83.12288170                0.99999999               -0.04224118               -0.04562107                0.15076308                0.00223683                0.00338098                0.01036488
               9.86688146                0.85470585               83.12658221                0.99144263               -0.04462058               -0.04486510                0.15131171               -0.00769352                0.00069773               -0.01206381
              -0.11719780                1.85521009               83.09450175                0.49597100               -0.02467190                0.08123852                0.10712325                0.06385363               -0.00168141               -0.01105467
               0.88255548                1.84687185               83.09821319                0.01051144               -0.04863636               -0.16795178                0.11096837                0.28169014                0.01681119               -0.02128279
               1.88182947                1.84268356               83.10227843                0.01000001               -0.07581937               -0.07420920                0.11724232                0.77033145               -0.02907971               -0.02154125
               2.88103909                1.84213033               83.10554035                0.01000000               -0.19746225                0.01536774                0.14384713                1.13166054               -0.05302008                0.00731715
               3.87788023                1.84357562               83.10901756                0.01000000               -0.24643247                0.05504398                0.14084868                1.20089804               -0.00633236                0.05604021
               4.87611044                1.84295545               83.11278637                0.01000001               -0.22054188               -0.12851922                0.15400194                1.27801949                0.00893535                0.12967410
               5.87346939                1.84664866               83.11667170                0.01074612               -0.46463324                0.04168821                0.17606267                1.12651680               -0.03619943                0.12801979
               6.86681778                1.84918422               83.11964137                0.01436601               -0.35857013                0.06721442                0.18646480                0.70039454               -0.00281823                0.12512232
               7.86629799                1.85087980               83.12354361                0.01000000               -0.05586753               -0.17620886                0.19171778                0.46176343                0.04125317                0.12401002
               8.86570043                1.85247112               83.12738594                0.43085341               -0.05999195               -0.04857284                0.19953299                0.00837900                0.03159418                0.11107638
               9.86509815                1.85418920               83.13110039                0.96349566               -0.06022802               -0.05357857                0.20016693               -0.00334621                0.02506973                0.06327321
              -0.10676791                2.85629695               83.09817456                0.45646359               -0.02626369                0.08663855                0.11099931                0.03702819               -0.00193976               -0.03501915
               0.89296946                2.84477339               83.10182721                0.01000000                0.02286562               -0.19330583                0.11702311                0.46878708                0.01221533               -0.04268580
               1.89368941                2.84190758               83.10574476                0.01000000                0.00961652               -0.19335525                0.14349869                1.12484335                0.00020731               -0.04268307
               2.89316179                2.84163514               83.10970624                0.01000000               -0.04459749               -0.04302829                0.14384274                1.37413728                0.00269357                0.01628759
               3.89279746                2.84335571               83.11385590                0.01312133               -0.10229213               -0.11247852                0.15286025                1.38455667               -0.01124255                0.04931867
               4.89111595                2.84219653               83.11805187                0.01000000               -0.41144957               -0.00702270                0.17597865                1.56327998               -0.04668378                0.12275224
               5.88456847                2.84821449               83.12188304                0.01000001               -0.66509129                0.08281762                0.19575653                1.79372977               -0.05959886                0.11625625
               6.87781412                2.85088719               83.12555174                0.01000000               -0.54469088                0.13123476                0.21430151                1.62504520               -0.02096516                0.23471175
               7.87367465                2.84783914               83.12983802                0.01000000               -0.68141402               -0.31145066                0.25950790                1.64834518                0.01739944                0.35317469
               8.86418584                2.85203039               83.13381959                0.01000000               -0.51481398               -0.13915126                0.24722078                1.60015457                0.03598669                0.30043141
               9.86337837                2.85363428               83.13703378                0.34759585               -0.08074709               -0.91935230                0.23311651                1.50917932                0.00422043                0.45224660
              -0.09341012                3.85694286               83.10161646                0.47687661               -0.02692932                0.02250229                0.11459760                0.01663316               -0.00038898               -0.05159534
               0.90632058                3.84300574               83.10524643                0.01307011                0.04373577               -0.13323219                0.12474032                0.50147152                0.03030653               -0.05228616
               1.90746459                3.83881646               83.10946619                0.01000000                0.03765616               -0.23857326                0.14108786                1.18237090                0.05610812                0.00366704
               2.90707371                3.84126976               83.11415534                0.01311971               -0.12273134               -0.10067919                0.15281652                1.36604533                0.04270796                0.00681858
               3.90500997                3.84132605               83.11854508                0.01000000               -0.22782206               -0.22747715                0.17990118                1.36148399                0.02612034                0.04293626
               4.90251727                3.84281500               83.12290105                0.01000001               -0.21783242                0.02738443                0.17874971                1.71057674                0.01006604                0.09926509
               5.90065332                3.84830501               83.12741697                0.01000000               -0.14116188               -0.04898319                0.18378920                2.10896826                0.02204979                0.14300828
               6.89969403                3.85180891               83.13289211                0.01697255               -0.12658112               -0.03102598                0.14748412                1.71988789               -0.01529118                0.25145118
               7.89812170                3.84465078               83.13836066                0.01000000               -0.38928232               -0.19648074                0.27951447                1.89950826               -0.22349595                0.35273338
               8.89190838                3.84968809               83.14210903                0.01515481               -0.30238706               -0.25436710                0.28093115                1.86444840               -0.40515807                0.70165593
               9.89207395                3.83580215               83.14937846                0.30497413                0.01655717               -0.97552556                0.24207841                0.89435046               -0.12576537                0.58397022
              -0.07856100                4.85674699               83.10503135                0.57199469               -0.03137090               -0.04224820                0.11561645                0.01820724                0.00197919               -0.05161153
               0.92112529                4.84210875               83.10868120                0.01000000               -0.11831006               -0.05977315                0.13246247                0.49719523                0.05952081               -0.04149342
               1.91907280                4.83713612               83.11346683                0.01000001               -0.15760937               -0.20519311                0.15513746                1.23517302                0.13787813                0.01682782
               2.91797310                4.83962155               83.11865261                0.01000000               -0.02954484               -0.40823977                0.17685891                1.51896551                0.13058678               -0.02395129
               3.91848190                4.83880617               83.12330131                0.01000001                0.01877060               -0.22409377                0.17889040                1.68369703                0.09637204                0.04063595
               4.91834852                4.84274422               83.12834497                0.01000000               -0.03639938               -0.02900668                0.20065313                2.00141253                0.10411949                0.12397852
               5.91775391                4.84723483               83.13410080                0.01000000               -0.12412064               -0.18125342                0.20927458                1.91329305               -0.06485934                0.13604268
               6.91586610                4.85026668               83.13902155                0.01000000               -0.19841409               -0.15354787                0.11055818                1.24768525               -0.28484742                0.31194883
               7.91378563                4.84390953               83.14432518                0.01000000               -0.27713329                0.05825005                0.20114107                1.32976961               -0.25545469                0.30081656
               8.91032344                4.84694305               83.14806981                0.01000001               -0.23741889               -0.35367541                0.33508874                1.34520803               -0.16118335                0.64953025
               9.90903726                4.83412377               83.15351321                0.31489830               -0.12861821               -0.07800277                0.37120483                0.45472662               -0.08920556                0.41065307
              -0.06376948                5.85609790               83.10858610                0.74414239               -0.03551537               -0.06369108                0.11364106                0.02143577                0.00321148               -0.04271017
               0.93587536                5.84181028               83.11231677                0.01000001               -0.07876344               -0.02448417                0.13848069                0.37813922                0.07939978               -0.02062018
               1.93465525                5.83471259               83.11756450                0.01076187               -0.00461988               -0.43376320                0.17756387                1.09730787                0.15918217               -0.05024692
               2.93578297                5.83310497               83.12288869                0.01000001                0.04529963               -0.65045785                0.19706997                1.73788520                0.15419064               -0.03946661
               3.93556124                5.83684417               83.12843152                0.01000000               -0.08330517               -0.14733983                0.18199295                2.03626575                0.17601423                0.08141190
               4.93411686                5.84223486               83.13484747                0.01000000               -0.20822600               -0.11760480                0.20064008                1.88309911                0.15617452               -0.04082875
               5.93139672                5.84467994               83.14094572                0.01000000               -0.30719151               -0.28766558                0.27297796                1.75795284                0.12464626                0.12150481
               6.92797303                5.84873796               83.14548449                0.01000000               -0.16780025               -0.06379696                0.30914562                1.54126479                0.20696103                0.43092577
               7.92804072                5.84581579               83.15104109                0.01000001                0.03126357                0.18350974                0.20959269                1.19895922                0.17261590                0.49776244
               8.92859830                5.84261458               83.15737066                0.01302432               -0.06168350               -0.16501432                0.34320367                0.94721107                0.08479440                0.62984919
               9.92680705                5.83424210               83.16287119                0.37778421               -0.17912576                0.08852639                0.53082130                0.61821411                0.14372317                0.60524006
              -0.04955704                6.85547317               83.11228146                0.99314039               -0.03695792               -0.05540739                0.10894801                0.01503370                0.00300640               -0.03286748
               0.95007338                6.84161906               83.11614155                0.25632060               -0.03593465               -0.02435549                0.14125424                0.04970540                0.02149874                0.00021352
               1.94972426                6.82846086               83.12036572                0.01436815                0.02629266               -0.33882509                0.18968484                0.68671411                0.15095014               -0.02740135
               2.95059923                6.82661239               83.12678126                0.01000000                0.01765289               -0.50741179                0.21795328                1.55625415                0.32993049               -0.00428418
               3.95007732                6.83585937               83.13489599                0.01696430               -0.12122517               -0.11330960                0.14889206                1.63965750                0.33092716                0.03323405
               4.94817473                6.84039212               83.14055360                0.01000000               -0.18337208               -0.18187164                0.09880432                1.21932254                0.34308604               -0.26548135
               5.94640988                6.84148151               83.14632343                0.01000000               -0.13095858               -0.13573206                0.30338347                1.53152913                0.43940922                0.22332496
               6.94555556                6.84899074               83.15529945                0.01000001               -0.12608457               -0.03193539                0.24833683                1.59661779                0.37163943                0.36031777
               7.94388819                6.84757972               83.16127899                0.01423705               -0.23571050                0.13180681                0.30782731                0.99600568                0.22502967                0.54550284
               8.94084135                6.84364276               83.16668683                0.01000000               -0.28708392                0.31421717                0.31067967                0.72604255                0.23482707                0.84720274
               9.93814651                6.83589430               83.17217738                0.50208066               -0.26948356                0.45945211                0.29099215                0.58874837                0.20382727                0.54138694
              -0.03576059                7.85498975               83.11609125                0.99999999               -0.03576209               -0.04501237                0.10666477                0.00446561                0.00633123               -0.03042592
               0.96388179                7.84132317               83.12016092                0.86753412               -0.04216051               -0.03448581                0.14773964                0.01807474                0.01589241                0.00818932
               1.96339620                7.82793609               83.12439996                0.01000000               -0.21861294               -0.05655269                0.19468576                0.44315126                0.16051229                0.03509359
               2.95950953                7.82295673               83.13134738                0.01000000               -0.44107674               -0.63943766                0.26003643                1.62532551                0.47920695               -0.02825433
               3.95457466                7.83457798               83.14081829                0.01000000               -0.33141781               -0.33407872                0.26019485                1.86335802                0.49082694               -0.20680028
               4.95288117                7.83859743               83.14654155                0.01000000               -0.05729878               -0.21850532                0.18523525                1.31078637                0.39711437               -0.24410618
               5.95342869                7.84196530               83.15322140                0.01000001                0.04630032                0.09007815                0.19401987                1.13969942                0.56689471                0.19832419
               6.95380718                7.84809925               83.16270496                0.01410769               -0.00599419               -0.15205226                0.30274278                1.00895647                0.55861015                0.25718257
               7.95330881                7.84845192               83.16976283                0.01000000                0.04987010                0.30988036                0.24779039                0.89264838                0.66756840                0.75557706
               8.95480458                7.84889893               83.18243484                0.43697519                0.03850697                0.22916436                0.22915406                0.72198712                0.43886678                0.45322261
               9.95407894                7.84343114               83.18628996                0.96848455               -0.07256376                0.33915196                0.25334442                0.52568373               -0.00222553                0.36095205
              -0.02213457                8.85457293               83.11985952                1.00000000               -0.03769057               -0.03744450                0.10311737                0.00068941                0.00414202               -0.02717370
               0.97748853                8.84092935               83.12410812                0.99999998               -0.04558560               -0.04194505                0.15057263                0.00204172                0.00937063                0.00261888
               1.97695372                8.82732980               83.12843456                0.46635666               -0.05123371               -0.06070489                0.20194880                0.00726830                0.09960578                0.02914590
               2.97646385                8.81382364               83.13447299                0.01000000               -0.26249693               -0.49699658                0.25412677                1.61991457                0.40223696               -0.02006967
               3.97170378                8.82917780               83.14483516                0.01478648               -0.47303604               -0.20138914                0.21948725                1.84331282                0.96226296               -0.37901426
               4.96700313                8.83602201               83.15097007                0.01000001               -0.60008658               -0.13161278                0.28284944                1.36555532                0.84012145               -0.16217136
               5.95970205                8.84328308               83.16081252                0.01277515               -0.38775344                0.04576257                0.30520587                0.92122280                0.78151175                0.10148189
               6.95924806                8.84594969               83.16971535                0.01000000                0.06197120               -0.15755073                0.28372329                0.88156392                0.94007564                0.27254361
               7.96094148                8.85377733               83.18544469                0.40136928                0.05269024                0.23602906                0.20271750                0.77425347                0.59479809                0.45081130
               8.96030187                8.84822605               83.18924514                0.99999998               -0.06728579               -0.06679735                0.22446187               -0.00096211               -0.00199942                0.00469094
               9.95959576                8.84267733               83.19302568                0.99208824               -0.07061092               -0.07474673                0.24829173                0.00056401               -0.00250894               -0.00593854
              -0.00845965                9.85424086               83.12372914                0.99716270               -0.03746075               -0.03320672                0.10286508               -0.00816734               -0.01518778               -0.02082381
               0.99116575                9.84048426               83.12798963                0.99230468               -0.04465415               -0.04450825                0.15065730               -0.00822137               -0.00913787                0.00042025
               1.99064727                9.82672199               83.13234476                0.98807246               -0.05529619               -0.06078075                0.20199437               -0.00401831                0.05780212                0.02344145
               2.99005982                9.81301680               83.13792966                0.35697243               -1.07023617               -0.08068406                0.23919292                1.55100695                0.56637284                0.00412487
               3.96924255                9.83055020               83.15247863                0.30562725               -1.19864098                0.13723959                0.16945430                0.90129515                0.88601001               -0.13434501
               4.96608700                9.83596518               83.15674371                0.31513266               -0.36585394               -0.00568392                0.27789005                0.52490477                0.72662869               -0.10188414
               5.96192547                9.84288055               83.16729016                0.37754148               -0.25713984               -0.04025253                0.49211912                0.67149456                0.80763400                0.15286766
               6.96094421                9.84494823               83.17707264                0.49911859                0.22960245               -0.10014579                0.19153991                0.68421168                0.90906846                0.18900251
               7.96651752                9.85317250               83.19213800                0.92446173                0.24705645               -0.06048273                0.20062139                0.68834157                0.57150073                0.00209102
               8.96588534                9.84756298               83.19601590                0.99209551               -0.06649331               -0.06630670                0.22206709               -0.00346826                0.00838179                0.00354486
               9.96518765                9.84193621               83.19979527                0.99301812               -0.06976837               -0.07411289                0.24585091               -0.00348839                0.00455964               -0.00348271
              -0.13475397               -0.14912156               84.08773086                0.90594387               -0.01358481               -0.01355993                0.10207625                0.00542173                0.00029702               -0.00143870
               0.86511018               -0.15532236               84.09150740                0.67731810                0.02148406               -0.04752066                0.10441185                0.03635655                0.00046895               -0.00095843
               1.86567571               -0.16022416               84.09527210                0.50843498                0.08196594               -0.02392530                0.10723754                0.06168775               -0.00745023               -0.00120584
               2.86674950               -0.16219519               84.09884200                0.46704960                0.08575282               -0.02540331                0.11173089                0.03703573               -0.03177893               -0.00115607
               3.86739077               -0.16121903               84.10218735                0.48577990                0.02241676               -0.02581495                0.11626532                0.01689701               -0.05167973                0.00076561
               4.86719784               -0.15868394               84.10547722                0.58228317               -0.04221908               -0.03068468                0.11794898                0.01770261               -0.05825770                0.00355743
               5.86654639               -0.15614989               84.10885930                0.75468208               -0.06398369               -0.03531669                0.11558607                0.02099179               -0.05447672                0.00480954
               6.86591816               -0.15416897               84.11235356                0.99311562               -0.05577747               -0.03683521                0.10959405                0.01455769               -0.04691065                0.00443538
               7.86543084               -0.15260559               84.11594979                1.00000000               -0.04499245               -0.03497847                0.10527006                0.00463641               -0.04641846                0.00938347
               8.86501831               -0.15122137               84.11947995                0.99829777               -0.03689017               -0.03660463                0.10045737                0.00076217               -0.04148312                0.00530393
               9.86469303               -0.14979479               84.12317178                1.00000000               -0.03252803               -0.03663187                0.10004788               -0.00806954               -0.03206851               -0.02571673
              -0.12849895                0.85074284               84.09166305                0.67678201               -0.04760033                0.02138936                0.10413705                0.03640474               -0.00205391               -0.00191583
               0.87102504                0.84420243               84.09543119                0.04753635               -0.08860232               -0.08820888                0.10646738                0.12499180               -0.00591253               -0.00361204
               1.86972900                0.83953659               84.09913505                0.01118103               -0.17038758               -0.05321390                0.10961764                0.28239155               -0.02194818                0.01666958
               2.86761729                0.83755078               84.10263628                0.01000000               -0.19624426                0.00976564                0.11584570                0.47153559               -0.03897369                0.02907442
               3.86580411                0.83852282               84.10597639                0.01000000               -0.13884996                0.02056274                0.12408279                0.53765166               -0.04483656                0.03587599
               4.86484029                0.84100921               84.10934830                0.01000000               -0.06526495               -0.09263720                0.13258880                0.52056703               -0.03214834                0.06335156
               5.86449882                0.84349695               84.11290718                0.01000000               -0.02743514               -0.05416328                0.13866381                0.37677459               -0.01192006                0.08088037
               6.86429159                0.84546268               84.11663811                0.26176693               -0.02477091               -0.03517131                0.14057317                0.05042356                0.00861843                0.03458313
               7.86400340                0.84704463               84.12057089                0.86178381               -0.03355268               -0.04113759                0.14509288                0.01933600                0.01434548                0.02435409
               8.86362054                0.84841259               84.12437463                0.99999998               -0.04088173               -0.04444408                0.14716370                0.00242324                0.00445432                0.01284528
               9.86318576                0.84983889               84.12807801                0.99189862               -0.04347727               -0.04386670                0.14719050               -0.00818034                0.00088927               -0.01837888
              -0.12094506                1.85130622               84.09557076                0.50670312               -0.02386744                0.08119502                0.10676883                0.06222838               -0.00155750               -0.01044840
               0.87881626                1.84291346               84.09931477                0.01118503               -0.05398731               -0.16906215                0.10931629                0.28291568                0.01326811               -0.01879745
               1.87797519                1.83871156               84.10333929                0.01000001               -0.08111436               -0.07973335                0.10288891                0.75120312                0.00168748                0.00881037
               2.87719398                1.83800012               84.10701503                0.01000000               -0.16449111               -0.00410831                0.13885894                1.09835663               -0.02054604                0.02666020
               3.87468537                1.83919223               84.11044097                0.01000000               -0.22794609                0.01128690                0.16278047                1.19129858                0.07382552                0.02520994
               4.87263505                1.83946331               84.11439934                0.01000001               -0.25284810               -0.10278674                0.17150662                1.23145327                0.07215283                0.19108435
               5.86962841                1.84276685               84.11846963                0.01097188               -0.46280513                0.02302673                0.17972884                1.05370823               -0.02408493                0.16619813
               6.86337895                1.84512760               84.12151793                0.01465257               -0.33803812                0.05075884                0.18611662                0.65043945                0.00883061                0.13362375
               7.86286765                1.84657166               84.12546751                0.01000000               -0.05532189               -0.14629680                0.19041608                0.41730840                0.05390192                0.14377990
               8.86227251                1.84788975               84.12938830                0.51491903               -0.05954115               -0.05036286                0.19913704                0.00771105                0.04301038                0.10888760
               9.86167682                1.84932787               84.13309983                0.97441261               -0.05956919               -0.05594873                0.19761547               -0.00126939                0.03381561                0.04471228
              -0.11046886                2.85236674               84.09928460                0.46422256               -0.02531284                0.08310497                0.11123127                0.03805235               -0.00152144               -0.03493059
               0.88927801                2.84082119               84.10298951                0.01000000                0.00676266               -0.19315329                0.11538144                0.47047112                0.02553674               -0.03709170
               1.88966640                2.83794192               84.10721560                0.01000000               -0.00871276               -0.16154704                0.13849648                1.09240562                0.01907169               -0.00961739
               2.88910376                2.83746861               84.11117608                0.01000000               -0.07497484               -0.07359076                0.15423298                1.31206213                0.01078398                0.02541652
               3.88816690                2.83874856               84.11545509                0.01000001               -0.16045100               -0.10781674                0.17335732                1.38534958               -0.03858305                0.04707519
               4.88589474                2.83895347               84.11984369                0.01000000               -0.41291057               -0.01838524                0.18860610                1.54583687               -0.12254346                0.23860008
               5.87990869                2.84395748               84.12397436                0.01000001               -0.61995867                0.04441437                0.20935479                1.68575064               -0.07442823                0.13436202
               6.87349557                2.84647785               84.12774083                0.01000000               -0.51606358                0.08537279                0.22925494                1.52406889                0.01653726                0.18081133
               7.86958742                2.84411869               84.13245360                0.01059263               -0.62385122               -0.18737082                0.21208304                1.42144385                0.04959365                0.44108007
               8.86101854                2.84740533               84.13617731                0.01563810               -0.46516421                0.03062296                0.23394566                1.23856178                0.03267425                0.28026492
               9.86028413                2.84871991               84.13924829                0.38659883               -0.07344095               -0.74793966                0.21886282                1.20783691                0.00525190                0.28557336
              -0.09709291                3.85296832               84.10276665                0.48324709               -0.02565864                0.01707629                0.11581438                0.01805120                0.00032147               -0.05456646
               0.90265050                3.83905039               84.10648886                0.01000000                0.01343959               -0.13322091                0.12367096                0.53278082                0.03540904               -0.04493145
               1.90317588                3.83548062               84.11088656                0.01000000               -0.00109607               -0.22093216                0.16118288                1.17383576                0.02345037                0.08567917
               2.90262858                3.83652831               84.11574654                0.01000001               -0.11341893               -0.15886256                0.17134058                1.36958994                0.03922927               -0.01641758
               3.90090750                3.83703589               84.12048982                0.01000000               -0.21428522               -0.21590217                0.20585870                1.47086885                0.06925834                0.08785017
               4.89834287                3.83909561               84.12486943                0.01000000               -0.25442300               -0.03756544                0.23542547                1.74439521                0.07402051                0.22824101
               5.89581904                3.84365513               84.12956062                0.01000000               -0.23218772               -0.09157087                0.24423268                1.96217808               -0.00108305                0.19805479
               6.89369912                3.84683506               84.13421738                0.01000000               -0.27249969                0.02724173                0.18338185                1.62554906               -0.10433165                0.10803724
               7.89036905                3.84282424               84.14070198                0.01000000               -0.56282972               -0.06216305                0.20416900                1.86127891               -0.42607115                0.67894719
               8.88244253                3.84850221               84.14467090                0.01121377               -0.35823267               -0.15150845                0.20906542                1.71134936               -0.31940741                0.36929423
               9.88320439                3.83436908               84.14915284                0.31302864                0.07618671               -0.95290227                0.09523180                0.74414905               -0.24800711                0.54746645
              -0.08227197                4.85270826               84.10619467                0.58088879               -0.03066972               -0.04805335                0.11744306                0.02002155                0.00305049               -0.05962580
               0.91742133                4.83815677               84.11000625                0.01000000               -0.10314158               -0.05883830                0.13231164                0.51118766                0.06719056               -0.03433653
               1.91566519                4.83352328               84.11508587                0.01000001               -0.12405207               -0.23780925                0.17008713                1.19708298                0.19721858                0.08303462
               2.91494029                4.83429136               84.12045049                0.01000000               -0.03241077               -0.40701273                0.18696313                1.50671025                0.24327028               -0.09440572
               3.91501698                4.83443052               84.12526936                0.01000000               -0.03884420               -0.26030395                0.23334805                1.71933863                0.22177508                0.10508144
               4.91416340                4.83820217               84.13088609                0.01000000               -0.18020912               -0.18387393                0.29233651                1.95496301                0.21649248                0.23203381
               5.91141280                4.84212606               84.13675261                0.01000001               -0.36629824               -0.13647652                0.27733549                2.07477000                0.04013498                0.26966516
               6.90683744                4.84702269               84.14035655                0.01000000               -0.31334772               -0.12568627                0.29366986                1.71516024               -0.04210579                0.28530824
               7.90514584                4.84287543               84.14621367                0.01000000               -0.15683739                0.06656718                0.28061275                1.55992646               -0.07241417                0.65706779
               8.90370069                4.84437516               84.15131774                0.01000003               -0.08562337               -0.39861830                0.37830842                1.33101326               -0.06647838                0.46387789
               9.90343338                4.82966187               84.15650927                0.32120868               -0.02673160               -0.29628528                0.27119677                0.45028066               -0.04119273                0.42242461
              -0.06758949                5.85200726               84.10972429                0.75301234               -0.03512706               -0.06785649                0.11475637                0.02303063                0.00418177               -0.05418420
               0.93205924                5.83787363               84.11369997                0.01000000               -0.07137812               -0.02312533                0.13826279                0.36900336                0.08900853               -0.01577444
               1.93098294                5.83072444               84.11936627                0.01097603               -0.01018462               -0.43633758                0.17831161                1.02999286                0.19693418               -0.03427278
               2.93185554                5.82838805               84.12496495                0.01000001                0.02002618               -0.60169254                0.20420941                1.63521724                0.17180385               -0.04269544
               3.93138347                5.83182982               84.13053200                0.01000000               -0.10544766               -0.23697307                0.23576951                1.89607277                0.22124458                0.06284927
               4.92974659                5.83541813               84.13734573                0.01000001               -0.14447763               -0.36268479                0.26229677                2.04142424                0.28762111                0.05693197
               5.92849392                5.84092560               84.14402440                0.01000000               -0.12468160               -0.11733330                0.31827340                2.01648296                0.29486440                0.27546556
               6.92725296                5.84432133               84.14968280                0.01000000               -0.21394066               -0.21786463                0.39284872                1.85610608                0.29373714                0.37808573
               7.92421510                5.84415559               84.15474956                0.01000001               -0.24883040                0.08504561                0.42709778                1.57736370                0.24990720                0.69060151
               8.92227635                5.84052985               84.16145439                0.01000001               -0.12892559               -0.23381980                0.43811975                0.92884592                0.10629578                0.63936616
               9.92163659                5.82844338               84.16610817                0.38200764               -0.06397601               -0.01772518                0.38571628                0.33421303               -0.02476393                0.45886565
              -0.05354410                6.85135113               84.11337212                0.98905138               -0.03716838               -0.05786166                0.10943821                0.01556893                0.00406052               -0.04524251
               0.94608421                6.83769426               84.11755946                0.26148494               -0.03526365               -0.02286308                0.14148337                0.05364255                0.02968334                0.00405387
               1.94575062                6.82479653               84.12225815                0.01464701                0.02275216               -0.32198828                0.18750348                0.63957055                0.15877382               -0.01409941
               2.94653926                6.82225751               84.12899225                0.01000000                0.00788689               -0.48454084                0.22608600                1.46298231                0.27958881                0.04054878
               3.94590836                6.82969106               84.13617042                0.01000000               -0.03215782               -0.25919793                0.16401462                1.54827384                0.21146773               -0.03984686
               4.94589610                6.83094847               84.14170839                0.01000000               -0.15345556               -0.29550035                0.25897536                1.67265107                0.33276334               -0.02837489
               5.94283925                6.83977940               84.15043511                0.01000000               -0.25832608               -0.18741428                0.37981375                1.81676826                0.41601505                0.28444270
               6.94072958                6.84266540               84.15770382                0.01000001               -0.11773227               -0.04580563                0.31162605                1.48461018                0.33845658                0.30134048
               7.94048460                6.84457634               84.16545320                0.01000001               -0.13698786               -0.04102423                0.40261758                1.11532912                0.24270455                0.42599922
               8.93798982                6.83969877               84.17012139                0.01000003               -0.30970141                0.08228625                0.60059669                0.66318222                0.25199868                0.78263423
               9.93429058                6.82930737               84.17549248                0.50534445               -0.36992442                0.40989132                0.59704533                0.38320796                0.27518053                0.67199343
              -0.03996437                7.85085002               84.11714170                1.00000000               -0.03489365               -0.04565995                0.10429324                0.00477115                0.00820119               -0.04339386
               0.95968669                7.83741636               84.12162769                0.86547014               -0.04122610               -0.03284428                0.14540557                0.02029652                0.02049727                0.01125791
               1.95921111                7.82428467               84.12634234                0.01000000               -0.17330160               -0.05550280                0.19190552                0.40300752                0.17742365                0.04852031
               2.95622066                7.81869724               84.13394299                0.01061069               -0.27765603               -0.59235141                0.21720312                1.39116974                0.56465107                0.00542676
               3.95365799                7.82664586               84.14298836                0.01000000               -0.15546936               -0.50739170                0.19002351                1.81799464                0.81542331               -0.42255473
               4.95311127                7.82950812               84.14822456                0.01000000               -0.02728163               -0.10302309                0.24901006                1.50895347                0.72505105               -0.03999535
               5.95311235                7.83717732               84.15650826                0.01000001               -0.04815276               -0.17766438                0.37759447                1.53192384                0.79946070                0.25087352
               6.95214822                7.84340522               84.16675185                0.01000001               -0.18120189               -0.04240494                0.38940298                1.10127621                0.50694518                0.24130818
               7.94948832                7.84333510               84.17204801                0.01000003               -0.06696235                0.12658754                0.46633129                0.76511962                0.56448085                0.60963040
               8.95080897                7.84217557               84.18472452                0.43674964                0.02976173                0.09007047                0.22952026                0.58470375                0.42708249                0.39809817
               9.95008355                7.83664120               84.18882155                0.96756210               -0.07254208                0.32883060                0.25398110                0.51531472               -0.00219162                0.32402003
              -0.02658137                8.85043793               84.12086193                0.99781425               -0.03631418               -0.03654010                0.09846996                0.00051805                0.00436979               -0.03832977
               0.97305549                8.83703738               84.12559502                0.99999998               -0.04443663               -0.04050895                0.14663839                0.00227448                0.01200386                0.00353897
               1.97252990                8.82368647               84.13045246                0.54466313               -0.05270123               -0.05962589                0.19997343                0.00663584                0.09757796                0.04064672
               2.97200147                8.81041048               84.13686784                0.01533022               -0.05362649               -0.45087040                0.23812973                1.24890236                0.35344488               -0.01926747
               3.97145737                8.81954322               84.14687596                0.01088038               -0.32288801               -0.27385957                0.15897450                1.71707752                0.57555328               -0.33710503
               4.96554371                8.82888801               84.15407182                0.01000003               -0.59383723                0.00943383                0.35011074                1.31252811                0.65072231               -0.06289351
               5.95958063                8.83622611               84.16440997                0.01000001               -0.44731941               -0.02597418                0.39858516                0.87104805                0.83539706                0.12446074
               6.95659732                8.84181730               84.17293476                0.01000003               -0.12819894               -0.18810772                0.51331828                0.77468286                0.93372703                0.24079862
               7.95701665                8.84710809               84.18745976                0.39945513               -0.01097614                0.15888292                0.20104685                0.64237788                0.52303069                0.43897979
               8.95637780                8.84150018               84.19148986                0.99999999               -0.06755191               -0.06703320                0.22476902               -0.00025642               -0.00216120                0.00452658
               9.95566561                8.83588398               84.19551165                0.98938217               -0.07121868               -0.07518229                0.24931614                0.00065232               -0.00299441               -0.00606443
              -0.01315289                9.85011922               84.12473122                1.00000000               -0.03634623               -0.03187138                0.09782698               -0.00845615               -0.02349748               -0.02969179
               0.98648364                9.83660619               84.12947917                0.99266673               -0.04381944               -0.04311897                0.14642997               -0.00853804               -0.01593992                0.00092697
               1.98597072                9.82309216               84.13435071                0.99377220               -0.05708442               -0.05943166                0.19753644               -0.00223618                0.03900060                0.03181307
               2.98534196                9.80967983               84.14017565                0.39639810               -0.82243530               -0.07306521                0.22232048                1.23787430                0.36817281                0.00481495
               3.96952201                9.82116867               84.15167107                0.31362211               -1.13315027                0.16254413                0.03846954                0.80731239                0.77162821               -0.25602199
               4.96267895                9.82969680               84.15982253                0.32133854               -0.59589935                0.08087902                0.24703042                0.48798275                0.66632395               -0.07472796
               5.95760402                9.83665783               84.17042854                0.38158716               -0.29595286                0.04317253                0.36183001                0.29965324                0.71400497                0.00983409
               6.95675989                9.83964307               84.17972876                0.50211501                0.25244858               -0.21742308                0.46765200                0.50900363                0.89478820                0.21573568
               7.96265300                9.84651276               84.19412174                0.92142782                0.26340323               -0.05953320                0.19698839                0.62322680                0.52632134                0.00214151
               8.96202796                9.84083491               84.19822814                0.98937563               -0.06620019               -0.06652686                0.22080593               -0.00374413                0.00828394                0.00313244
               9.96132899                9.83513756               84.20224865                0.99995665               -0.06989651               -0.07464219                0.24535494               -0.00339683                0.00403205               -0.00406693
              -0.13853880               -0.15307783               85.08875625                0.90717085               -0.01282744               -0.01282046                0.10296128                0.00521196                0.00042669               -0.00123875
               0.86133292               -0.15926570               85.09255134                0.68396687                0.02297908               -0.04814817                0.10436936                0.03694351                0.00099185               -0.00087480
               1.86192078               -0.16411087               85.09634217                0.51896645                0.08113279               -0.02311621                0.10688701                0.05991335               -0.00569214               -0.00109658
               2.86295558               -0.16602028               85.09996058                0.47430141                0.08041832               -0.02434798                0.11220521                0.03811395               -0.02982821               -0.00070914
               3.86352914               -0.16503707               85.10335660                0.49276381                0.01435814               -0.02442026                0.11795680                0.01825199               -0.05304864                0.00164429
               4.86324274               -0.16258868               85.10666653                0.59399590               -0.05011989               -0.02994939                0.12026786                0.01993658               -0.06571767                0.00484599
               5.86252675               -0.16026254               85.11001949                0.76734273               -0.06883748               -0.03494570                0.11706885                0.02258678               -0.06641054                0.00581158
               6.86186599               -0.15856083               85.11345095                0.99026582               -0.05839199               -0.03689752                0.11033685                0.01486443               -0.06022707                0.00536594
               7.86135891               -0.15732532               85.11699076                0.99999998               -0.04597133               -0.03420023                0.10348309                0.00483176               -0.06023947                0.01089084
               8.86094656               -0.15629973               85.12046086                0.99999999               -0.03619568               -0.03498654                0.09605600                0.00055817               -0.05316454                0.00511915
               9.86063499               -0.15524028               85.12414423                1.00000000               -0.03115714               -0.03494934                0.09411946               -0.00830788               -0.04122583               -0.03438110
              -0.13229881                0.84679396               85.09270466                0.68352876               -0.04823119                0.02286996                0.10416311                0.03697697               -0.00192836               -0.00127155
               0.86721887                0.84025281               85.09649082                0.06446666               -0.09019928               -0.08983557                0.10544303                0.12916978               -0.00526555               -0.00304950
               1.86589720                0.83565797               85.10022291                0.01000000               -0.17095287               -0.05549562                0.10797156                0.28628029               -0.01894509                0.01132935
               2.86379982                0.83373624               85.10378682                0.01027618               -0.19506680                0.00720066                0.11426805                0.48158358               -0.03268333                0.03562264
               3.86199586                0.83471873               85.10721238                0.01000000               -0.13724870               -0.01809068                0.12311565                0.59094325               -0.03646613                0.06333709
               4.86105484                0.83711182               85.11067429                0.01000000               -0.06285900               -0.05647834                0.13235870                0.54756852               -0.02389102                0.08231834
               5.86073868                0.83938800               85.11429109                0.01000000               -0.02544100               -0.04160077                0.13801316                0.36503690               -0.00673462                0.09133023
               6.86054602                0.84107020               85.11804466                0.26934102               -0.02310048               -0.03426021                0.14002669                0.05376001                0.01202761                0.04181897
               7.86027667                0.84233268               85.12201069                0.85924985               -0.03181969               -0.04009951                0.14211063                0.02134772                0.01690174                0.02785386
               8.85990963                0.84335041               85.12582497                0.99999998               -0.03921016               -0.04270439                0.14201914                0.00296450                0.00526271                0.01580529
               9.85949247                0.84441022               85.12952602                0.99127091               -0.04171575               -0.04232758                0.14107183               -0.00819904                0.00157711               -0.02545862
              -0.12471697                1.84737957               85.09663712                0.51744373               -0.02307210                0.08042421                0.10657090                0.06033473               -0.00142987               -0.00844814
               0.87505231                1.83893758               85.10039952                0.01000001               -0.05600353               -0.16976761                0.10765036                0.28649874                0.00807415               -0.01588403
               1.87416296                1.83477922               85.10433620                0.01000001               -0.07629102               -0.07450011                0.09999476                0.75866080                0.01530531                0.02209200
               2.87352649                1.83412373               85.10831753                0.01000000               -0.10952680               -0.01621387                0.13588258                1.05800292                0.02225121                0.07840094
               3.87197242                1.83460112               85.11227317                0.01024503               -0.20008253               -0.02351774                0.17294355                1.17601707                0.06948002                0.08231104
               4.86952484                1.83628175               85.11621650                0.01000001               -0.30516590               -0.03066925                0.17375412                1.16976450                0.07305092                0.18703535
               5.86586911                1.83890544               85.12026628                0.01139670               -0.47641636                0.02113719                0.17477922                0.94581475               -0.00192010                0.19930494
               6.85999651                1.84075397               85.12336370                0.01535094               -0.31817268                0.03668810                0.18238148                0.60434263                0.02024487                0.15285725
               7.85950565                1.84187269               85.12735193                0.01000000               -0.05340998               -0.04532034                0.18471225                0.40227920                0.06812700                0.11457623
               8.85892831                1.84284619               85.13136868                0.60701985               -0.05771347               -0.04986612                0.19521934                0.00877350                0.05525853                0.10634274
               9.85835138                1.84391316               85.13505270                0.98366420               -0.05769286               -0.05587397                0.19042248               -0.00085360                0.04133584                0.02504398
              -0.11420816                2.84840245               85.10039919                0.47181125               -0.02426477                0.07809506                0.11188929                0.03894411               -0.00104424               -0.03264937
               0.88554920                2.83685746               85.10413484                0.01025013                0.00462135               -0.19236070                0.11372563                0.48110327                0.03226924               -0.03070860
               1.88588427                2.83416797               85.10851468                0.01000000               -0.02056096               -0.10597234                0.13530012                1.05337331                0.07032593                0.03245599
               2.88513798                2.83341196               85.11279090                0.01000000               -0.12630418               -0.12283635                0.16776115                1.24044771                0.05402377                0.06779912
               3.88335819                2.83424837               85.11732305                0.01000001               -0.24960841               -0.06661677                0.18842372                1.41931432                0.02274553                0.11084928
               4.88014581                2.83649844               85.12182399                0.01000000               -0.40877145                0.00278347                0.19902348                1.54822033               -0.02888869                0.23573746
               5.87518276                2.83981074               85.12607013                0.01000000               -0.52400913                0.02912049                0.20617195                1.53600626               -0.02624302                0.19205324
               6.86966563                2.84180396               85.13013683                0.01146737               -0.44763567                0.02999846                0.21372168                1.40425248                0.04890424                0.22960593
               7.86623004                2.84142627               85.13407968                0.01510359               -0.58104993                0.12984808                0.14757246                1.00951146                0.15759042                0.26370953
               8.85804463                2.84235309               85.13849850                0.01000001               -0.44443008               -0.04563172                0.22758815                1.00037685                0.07782455                0.21866112
               9.85734144                2.84329274               85.14141103                0.43906813               -0.07031845               -0.72113308                0.21141177                1.08389329                0.00689962                0.24256293
              -0.10084812                3.84894147               85.10393275                0.49070522               -0.02430271                0.00971938                0.11774234                0.01914004                0.00127147               -0.05572568
               0.89890885                3.83509037               85.10771985                0.01000000               -0.02379764               -0.13232763                0.12256970                0.58735062                0.06183741               -0.03628487
               1.89867593                3.83265977               85.11268985                0.01024101               -0.03269086               -0.19254335                0.17008219                1.16326470                0.07910310                0.08173309
               2.89825504                3.83166700               85.11758215                0.01000001               -0.07018475               -0.24484662                0.18532666                1.40630259                0.10134888                0.04421899
               3.89727223                3.83326878               85.12266225                0.01000000               -0.16640810               -0.16913765                0.21248030                1.68970166                0.13824882                0.15700111
               4.89492688                3.83633742               85.12760956                0.01000000               -0.29942633               -0.07949215                0.25230231                1.86341863                0.12004682                0.28208115
               5.89128371                3.83948785               85.13230163                0.01052748               -0.42304211               -0.08231990                0.30603509                1.94599582                0.07447474                0.28342675
               6.88646603                3.84135394               85.13655975                0.01000000               -0.60684741               -0.06482667                0.27408972                2.04395520               -0.03010294                0.23966424
               7.87914676                3.84446965               85.14244404                0.01120078               -0.46983267                0.07885144                0.14035573                1.78628658               -0.21460068                0.46514128
               8.87706938                3.84193355               85.14629034                0.01440488               -0.04984119               -0.14579876                0.16819165                1.28372442                0.03308060                0.19645711
               9.87814993                3.82949050               85.15128309                0.32045997                0.10805552               -0.88379076                0.10333170                0.78013940                0.11420712                0.31770248
              -0.08612316                4.84859683               85.10738022                0.59304414               -0.02989347               -0.05523527                0.12007968                0.02195362                0.00438026               -0.06705807
               0.91357790                4.83421091               85.11132743                0.01000000               -0.06519530               -0.05743939                0.13187347                0.54124839                0.08483012               -0.02567580
               1.91257293                4.83031710               85.11686857                0.01000001               -0.04614421               -0.29024574                0.16915332                1.14785733                0.19274787                0.08570036
               2.91265502                4.82851503               85.12239187                0.01000000               -0.00455633               -0.39788492                0.19298567                1.51734017                0.23716352               -0.00231438
               3.91248181                4.83086562               85.12796828                0.01000000               -0.07299535               -0.30343456                0.24719995                1.83633382                0.27561345                0.14846576
               4.91119511                4.83490859               85.13419170                0.01175278               -0.16978260               -0.18931099                0.27895729                1.93743647                0.33096504                0.34010033
               5.90908615                4.83816435               85.13964751                0.01000000               -0.28160915               -0.14905494                0.27727984                1.96360370                0.30402503                0.28547506
               6.90556293                4.84050743               85.14489495                0.01000001               -0.38549939               -0.12007687                0.43346457                2.07477677                0.36571522                0.30525615
               7.90137617                4.84300330               85.14993744                0.01000000               -0.34323306               -0.20406846                0.42739796                2.05250929                0.39290156                0.41579348
               8.89869827                4.83943711               85.15563597                0.01000001               -0.17729181               -0.26676481                0.37413758                1.24549298                0.11441027                0.45702573
               9.89783033                4.82561693               85.15893714                0.33006856               -0.08679383               -0.25271470                0.26831144                0.56069572               -0.05504658                0.39750907
              -0.07163720                5.84783676               85.11088122                0.76618866               -0.03492466               -0.07229587                0.11698055                0.02411461                0.00531089               -0.06611845
               0.92801356                5.83394158               85.11508202                0.01000000               -0.05169226               -0.02192437                0.13779927                0.36106038                0.09795991               -0.01001234
               1.92732896                5.82685486               85.12113074                0.01139917                0.00198819               -0.45571505                0.16933042                0.93308705                0.22478965               -0.00640684
               2.92805332                5.82370931               85.12697288                0.01000000                0.01381932               -0.50348536                0.19399254                1.49844732                0.22002400                0.00529875
               3.92760534                5.82720009               85.13314691                0.01053821               -0.08382202               -0.41297745                0.29105339                1.89753080                0.29316612                0.12204505
               4.92637688                5.83255120               85.14009341                0.01000000               -0.13241984               -0.29813973                0.26690032                1.93384278                0.29490815                0.30281791
               5.92495695                5.83650675               85.14731119                0.01138115               -0.16271330               -0.17389166                0.28666450                1.80249037                0.31078497                0.28629247
               6.92312261                5.83895240               85.15334146                0.01000000               -0.18448418               -0.12794692                0.39079618                1.78125999                0.30158154                0.29119201
               7.92126726                5.84038828               85.15958304                0.01000000               -0.18784997               -0.21010204                0.45211409                1.62971983                0.29327390                0.40916843
               8.91936561                5.83659825               85.16613306                0.01000000               -0.21315241               -0.17058972                0.50368701                1.05958508                0.28843816                0.75634227
               9.91700421                5.82443621               85.17058552                0.38701599               -0.23613990                0.05019267                0.51017593                0.53767629                0.17686244                0.77841952
              -0.05785051                6.84715092               85.11447022                0.98706624               -0.03684733               -0.06023511                0.11044578                0.01558332                0.00476794               -0.05863387
               0.94178101                6.83377242               85.11897121                0.26863357               -0.03412687               -0.02144093                0.14025970                0.05647100                0.03731801                0.00805002
               1.94146695                6.82120280               85.12411579                0.01535178                0.02488585               -0.30713375                0.18351203                0.59866537                0.17383487                0.00077288
               2.94227873                6.81844532               85.13130298                0.01147792                0.00617884               -0.42598175                0.20142735                1.37532420                0.31833909                0.08916491
               3.94159053                6.82260607               85.13817629                0.01000000               -0.08567131               -0.58893727                0.23012018                1.97483514                0.30293223                0.05218820
               4.94056531                6.82894580               85.14573310                0.01000001               -0.14278853               -0.35585512                0.39123596                1.97829307                0.34506013                0.31904207
               5.93873476                6.83468651               85.15391971                0.01000000               -0.16293540               -0.17494220                0.37397173                1.74681763                0.39201447                0.24671062
               6.93730660                6.83794849               85.16153198                0.01000000               -0.12050235               -0.06289665                0.35671584                1.46992327                0.33012949                0.28968472
               7.93632471                6.83880126               85.16933134                0.01000001               -0.07322761               -0.08751582                0.38122474                1.17176567                0.44458237                0.39752141
               8.93584205                6.83602532               85.17869876                0.01523098               -0.17083807               -0.05529195                0.74865941                0.75132974                0.52404306                0.57604175
               9.93290795                6.82662078               85.18411829                0.50985311               -0.29340967                0.27280798                0.70488784                0.50138839                0.43217907                0.64443615
              -0.04456854                7.84663206               85.11817712                0.99999998               -0.03403643               -0.04670508                0.10309712                0.00492879                0.00961222               -0.05730105
               0.95509109                7.83351276               85.12306903                0.86089402               -0.04010456               -0.03118870                0.14214975                0.02185899                0.02439242                0.01394620
               1.95462937                7.82071218               85.12823807                0.01000000               -0.04672813               -0.05342145                0.18568049                0.39212045                0.15390630                0.06326366
               2.95415653                7.81518967               85.13569144                0.01513206                0.09861005               -0.56198418                0.13935529                0.97698426                0.38460309                0.11283474
               3.95660157                7.81542135               85.14461876                0.01119474               -0.01471157               -0.44265386                0.15463811                1.73323845                0.65604540               -0.13153295
               4.95386230                7.82543410               85.15152175                0.01000000               -0.28554792               -0.28898124                0.37704962                1.97524126                0.64839788                0.24295572
               5.95089061                7.83300791               85.16077329                0.01000000               -0.27279842               -0.14172531                0.41260517                1.55363355                0.58563426                0.30112848
               6.94840633                7.83769447               85.17049302                0.01000001               -0.21324289               -0.00798652                0.36625478                1.15981383                0.49756822                0.39078029
               7.94662575                7.83863797               85.17908946                0.01258782               -0.09168210                0.08409662                0.60595705                0.71601112                0.47531690                0.50814372
               8.94657269                7.83549242               85.18702524                0.43632870               -0.03923492               -0.06061770                0.23119230                0.38095572                0.17796631                0.08618192
               9.94584105                7.82989237               85.19136958                0.96689510               -0.07316364                0.12540858                0.25616103                0.36921298               -0.00240382                0.02246086
              -0.03151335                8.84621681               85.12182892                0.99999999               -0.03485830               -0.03618066                0.09498016                0.00033555                0.00436643               -0.05010070
               0.96813807                8.83314865               85.12704089                0.99999998               -0.04271003               -0.03891314                0.14157562                0.00269590                0.01503256                0.00447356
               1.96763245                8.82013437               85.13243403                0.63095694               -0.05144088               -0.05752090                0.19503719                0.00792110                0.09684616                0.05271204
               2.96710925                8.80720564               85.13923558                0.01000000               -0.08107917               -0.43460919                0.23193113                0.97825071                0.26720361                0.02267947
               3.96601087                8.81375299               85.14801465                0.01480648               -0.23128430                0.02090991                0.13254014                1.21936023                0.29244300                0.08110987
               4.96248357                8.82316617               85.15797229                0.01000001               -0.42319076               -0.12324455                0.31422793                1.24463595                0.57818761                0.01809366
               5.95754705                8.83185201               85.16878422                0.01000000               -0.38053760               -0.09839074                0.46148964                1.00156580                0.85591392                0.30366898
               6.95487282                8.83778876               85.17998172                0.01218778               -0.23500342               -0.10097566                0.71222159                0.76858129                0.76319852                0.46440618
               7.95284699                8.84048319               85.18946562                0.39739898               -0.13330279                0.06267026                0.20075302                0.44715053                0.25796629                0.19000064
               8.95220676                8.83481296               85.19374052                0.99999999               -0.06773410               -0.06716697                0.22515362               -0.00014103               -0.00254842                0.00426167
               9.95149230                8.82912895               85.19801201                1.00000000               -0.07144554               -0.07557488                0.25066752                0.00091047               -0.00291914               -0.00618867
              -0.01842550                9.84590845               85.12568568                1.00000000               -0.03470459               -0.03083687                0.09257770               -0.00860969               -0.03216522               -0.03881828
               0.98122746                9.83273450               85.13091823                0.99191976               -0.04218511               -0.04141469                0.14011498               -0.00839558               -0.02328500                0.00168250
               1.98073080                9.81956176               85.13629549                0.99933696               -0.05622681               -0.05726054                0.18931710               -0.00201611                0.02097020                0.03884721
               2.98010292                9.80649749               85.14237607                0.44908889               -0.78512829               -0.07081503                0.21480583                1.11325561                0.29696354                0.00637543
               3.96502823                9.81583954               85.15324802                0.32105377               -0.97234567                0.20865490                0.04395012                0.72532236                0.51741550                0.10313171
               4.96065601                9.82296921               85.16168432                0.33062030               -0.43644470               -0.01969691                0.24280212                0.57727140                0.61277379               -0.14083401
               5.95629934                9.83104009               85.17452676                0.38642029               -0.27546180               -0.08119129                0.43351079                0.51051606                0.93483263                0.16026549
               6.95514677                9.83567496               85.18642568                0.50616415                0.11226097               -0.21138033                0.67627034                0.46995943                0.85044513                0.36600416
               7.95854456                9.83989137               85.19607777                0.91857852                0.13886696               -0.05918206                0.19470254                0.49346333                0.27676336                0.00194451
               8.95792411                9.83414908               85.20043202                1.00000000               -0.06586392               -0.06638853                0.21987413               -0.00379014                0.00814137                0.00324766
               9.95722728                9.82838087               85.20470237                0.99837820               -0.06968287               -0.07480823                0.24543719               -0.00332297                0.00411128               -0.00400913
              -0.14233562               -0.15704316               86.08979009                0.90745139               -0.01202892               -0.01203054                0.10370242                0.00501176                0.00069009               -0.00087409
               0.85754409               -0.16321882               86.09359479                0.69004243                0.02441237               -0.04879156                0.10427975                0.03751933                0.00207533               -0.00078204
               1.85815263               -0.16800756               86.09740984                0.52950767                0.07972084               -0.02232940                0.10670525                0.05799486               -0.00223752               -0.00099527
               2.85913851               -0.16986186               86.10108610                0.48144328                0.07356072               -0.02318640                0.11304195                0.03905689               -0.02527088               -0.00018221
               3.85962384               -0.16889770               86.10454648                0.50137397                0.00410407               -0.02292955                0.12019868                0.01931365               -0.05224011                0.00286122
               4.85922059               -0.16660255               86.10788258                0.60983280               -0.05950462               -0.02918473                0.12312103                0.02236047               -0.07227977                0.00643376
               5.85843375               -0.16457685               86.11120068                0.78544865               -0.07391217               -0.03463919                0.11936749                0.02367427               -0.07832570                0.00701905
               6.85774235               -0.16324907               86.11456029                0.99025932               -0.06088067               -0.03646220                0.11150246                0.01447976               -0.07424032                0.00587520
               7.85721614               -0.16242763               86.11801945                0.99999999               -0.04703938               -0.03318313                0.10222629                0.00459174               -0.07474997                0.01159676
               8.85680156               -0.16184720               86.12140107                0.99999999               -0.03571780               -0.03319250                0.09245233               -0.00002783               -0.06534005                0.00476816
               9.85650178               -0.16124600               86.12505417                1.00000000               -0.02997778               -0.03327584                0.08855255               -0.00853659               -0.05076803               -0.04247197
              -0.13610984                0.84283653               86.09374631                0.68965287               -0.04886755                0.02429491                0.10412439                0.03753152               -0.00175880               -0.00003471
               0.86340148                0.83629326               86.09754005                0.08317684               -0.09180312               -0.09147084                0.10441778                0.13335947               -0.00438811               -0.00232509
               1.86205410                0.83176915               86.10129448                0.01000000               -0.17136662               -0.05654064                0.10643464                0.29118334               -0.01542168                0.00778104
               2.85997415                0.82990628               86.10492164                0.01116950               -0.19333862                0.02129616                0.11285459                0.48336904               -0.02549223                0.04981039
               3.85818732                0.83087300               86.10843870                0.01000000               -0.13451920               -0.01872550                0.12230683                0.58757441               -0.02678624                0.08281879
               4.85728377                0.83310560               86.11199548                0.01000000               -0.05967853               -0.06715666                0.13193822                0.55430641               -0.01424536                0.09548965
               5.85699375                0.83507676               86.11566744                0.01023690               -0.02356156               -0.02246257                0.13693110                0.36448804               -0.00070812                0.09889013
               6.85681254                0.83638631               86.11943865                0.27838579               -0.02163157               -0.03291788                0.13796468                0.05598168                0.01561842                0.04905580
               7.85656112                0.83724054               86.12341310                0.84807877               -0.03010354               -0.03890886                0.13782069                0.02218139                0.01887957                0.03052100
               8.85621046                0.83782087               86.12721501                0.99999999               -0.03729565               -0.04048611                0.13562868                0.00280306                0.00601406                0.01961137
               9.85581521                0.83842124               86.13089945                0.98818954               -0.03952557               -0.04051336                0.13301303               -0.00827650                0.00245931               -0.03281605
              -0.12849845                1.84344273               86.09770218                0.52816867               -0.02228861                0.07907965                0.10649286                0.05834227               -0.00129750               -0.00472308
               0.87127867                1.83495176               86.10146778                0.01000001               -0.05691350               -0.17032910                0.10610974                0.29126550                0.00475858               -0.01254810
               1.87036328                1.83086163               86.10533919                0.01034787               -0.07883142               -0.07658771                0.09985785                0.79875279                0.03369602                0.03997360
               2.86970204                1.83056406               86.10973268                0.01000000               -0.10936391               -0.01731482                0.13340638                1.06339396                0.06143927                0.09981762
               3.86817600                1.83072779               86.11389984                0.01085056               -0.17995394               -0.01482677                0.15039488                1.14458263                0.05716993                0.16012512
               4.86610296                1.83205432               86.11787442                0.01000001               -0.28665987               -0.04152224                0.15744388                1.17661143                0.08378717                0.16528895
               5.86244281                1.83497390               86.12196522                0.01219838               -0.47023782                0.03432188                0.17121901                0.90577429                0.02951484                0.20215777
               6.85669820                1.83609257               86.12516555                0.01663260               -0.31088017                0.07438082                0.17857171                0.57359282                0.03574890                0.15030215
               7.85622520                1.83679419               86.12916176                0.01026365               -0.05106436               -0.14698875                0.17766687                0.45334680                0.08351897                0.07438295
               8.85567692                1.83734307               86.13329268                0.71095367               -0.05448488               -0.04819886                0.18790706                0.00913793                0.06768587                0.10354121
               9.85513551                1.83794374               86.13690828                0.99023426               -0.05414097               -0.05402323                0.17738016               -0.00084131                0.04636642                0.00532398
              -0.11796105                2.84441812               86.10152239                0.47937094               -0.02310537                0.07150216                0.11284847                0.03969335               -0.00048850               -0.02772188
               0.88180790                2.83288668               86.10526403                0.01117200                0.01889484               -0.19098301                0.11229026                0.48353731                0.04652442               -0.02356322
               1.88241685                2.83023739               86.10992160                0.01000000               -0.02160133               -0.10501154                0.13242971                1.06028302                0.09255239                0.06912602
               2.88137587                2.82955998               86.11453131                0.01032072               -0.14140642               -0.13761698                0.16887422                1.26600967                0.09495171                0.10651513
               3.87958872                2.83057647               86.11922356                0.01000001               -0.24029963               -0.05985491                0.17458495                1.40921186                0.10658497                0.16502901
               4.87656988                2.83227516               86.12382416                0.01000000               -0.42588692                0.01576023                0.19551261                1.50941037                0.10949080                0.18590805
               5.87107098                2.83576320               86.12809780                0.01000000               -0.50528902                0.03861959                0.21292572                1.57571562                0.07376879                0.25634970
               6.86646410                2.83787393               86.13201527                0.01458144               -0.33467131                0.03888301                0.15883667                1.23970042                0.10723363                0.18213178
               7.86437756                2.83430076               86.13540504                0.01000000               -0.56102095               -0.02624394                0.15303889                0.95521025                0.24108978                0.03559578
               8.85524368                2.83685689               86.14072907                0.01461098               -0.48902488               -0.10245963                0.21401458                1.08140961                0.13241340                0.16600124
               9.85459706                2.83734078               86.14347653                0.50378110               -0.06466213               -0.73733574                0.19735442                1.06676491                0.01046812                0.09536162
              -0.10464169                3.84487278               86.10512150                0.49973531               -0.02281652                0.00002498                0.12013999                0.02004443                0.00253911               -0.05460261
               0.89513014                3.83113210               86.10894026                0.01000000               -0.02313327               -0.13028008                0.12171420                0.58551473                0.08050431               -0.02639704
               1.89489564                3.82876140               86.11428821                0.01084899               -0.02234921               -0.17204945                0.14784826                1.13592444                0.15478365                0.06581693
               2.89468316                3.82781172               86.11945307                0.01000001               -0.06252909               -0.23528183                0.17188293                1.39886359                0.15507102                0.12192903
               3.89364506                3.82953069               86.12473942                0.01005164               -0.17893631               -0.18306452                0.20758230                1.68492480                0.15840872                0.17418889
               4.89110443                3.83236952               86.12991548                0.01000000               -0.26433547                0.01225833                0.21244359                1.93745981                0.22148539                0.20305205
               5.88835835                3.83574629               86.13568132                0.01329465               -0.40748940               -0.14685955                0.27482975                2.01098890                0.25863423                0.29341690
               6.88295464                3.83687023               86.13969918                0.01000000               -0.60059564               -0.07639135                0.28987377                1.89603686                0.24937657                0.17709633
               7.87634644                3.83626931               86.14350910                0.01000001               -0.43447766               -0.01242306                0.17641921                1.81544677                0.29349852                0.17002474
               8.87426509                3.83529388               86.14803473                0.01000002               -0.04217034               -0.15919685                0.19317475                1.43366075                0.11244248                0.30231802
               9.87550303                3.82319702               86.15121947                0.33772562                0.12379408               -0.95155779                0.18597285                0.84696620               -0.00297030                0.37207078
              -0.09007880                4.84441862               86.10859626                0.60921047               -0.02916234               -0.06389484                0.12321150                0.02408618                0.00605235               -0.07335327
               0.90962957                4.83028108               86.11264372                0.01000000               -0.07327409               -0.05512506                0.13144631                0.55082806                0.09567077               -0.01562710
               1.90845572                4.82679640               86.11846893                0.01000001               -0.05228596               -0.27061560                0.15191801                1.16327523                0.16748978                0.09145365
               2.90858386                4.82485434               86.12431020                0.01000000                0.01368513               -0.41144021                0.18827305                1.48377302                0.18412171                0.12519414
               3.90872942                4.82691517               86.13021336                0.01000000                0.02598081               -0.27339913                0.20646213                1.90735909                0.19458296                0.24322997
               4.90910347                4.83252033               86.13646524                0.01485721               -0.09696844               -0.12182203                0.18701556                1.81434394                0.18659840                0.19856840
               5.90679005                4.83282601               86.14229821                0.01000001               -0.26208281               -0.16835197                0.25519598                1.84644932                0.19889390                0.29124832
               6.90386182                4.83634610               86.14902584                0.01515726               -0.22636027               -0.16810452                0.30696622                1.96421925                0.33368783                0.21224622
               7.90226284                4.83405230               86.15476163                0.01000002               -0.34363129               -0.16621326                0.34416786                1.91347009                0.36335267                0.26583076
               8.89698919                4.83367296               86.15880049                0.01348755               -0.32663699               -0.13499890                0.34465074                1.35174339                0.25986507                0.42471200
               9.89573010                4.81830962               86.16187550                0.34088816               -0.12590846               -0.21832000                0.37621696                0.50196118                0.21575273                0.46039801
              -0.07588488                5.84359488               86.11206391                0.78461082               -0.03462000               -0.07680303                0.11956936                0.02487540                0.00653679               -0.07772735
               0.92376892                5.83002960               86.11645596                0.01017336               -0.02636205               -0.02064130                0.13662394                0.36548174                0.10209676               -0.00331019
               1.92358788                5.82334909               86.12275288                0.01221217                0.02354625               -0.45458764                0.16288914                0.89965790                0.21426125                0.02450008
               2.92423985                5.81958292               86.12884480                0.01000000                0.02691885               -0.47660482                0.19732305                1.54876515                0.26952701                0.08926609
               3.92412626                5.82406270               86.13635306                0.01331192               -0.13796852               -0.38261001                0.26090634                1.95788134                0.30011506                0.27740410
               4.92148048                5.82993308               86.14268374                0.01000001               -0.13323476               -0.33096791                0.25268283                1.81334791                0.28915918                0.19737671
               5.92146157                5.83237925               86.14975769                0.01685144               -0.02338724               -0.07872493                0.20285679                1.58328389                0.31326040                0.30868225
               6.92101273                5.83350814               86.15749872                0.01000002               -0.20862916               -0.25192821                0.28688099                1.43122576                0.28958402                0.15892179
               7.91728898                5.83294505               86.16379185                0.01000003               -0.19850481               -0.05159759                0.36632358                1.45161911                0.36789396                0.34229064
               8.91704264                5.83259390               86.17152813                0.01406354               -0.05100300               -0.16727701                0.38366423                1.12900594                0.38523791                0.65221455
               9.91626892                5.81883062               86.17631169                0.39438446               -0.07737159                0.15512017                0.32541016                0.44192178                0.26135813                0.63888108
              -0.06245073                6.84288256               86.11558103                0.98783436               -0.03642656               -0.06247890                0.11168606                0.01501449                0.00544247               -0.07253885
               0.93718500                6.82986825               86.12036465                0.27744930               -0.03268579               -0.02019931                0.13781801                0.05833759                0.04520102                0.01225661
               1.93689555                6.81770465               86.12592839                0.01662333                0.08302674               -0.30586921                0.17934730                0.57664682                0.16342347                0.02147614
               2.93884554                6.81532225               86.13302079                0.01458514                0.03206642               -0.32807940                0.14478829                1.24252535                0.22369638                0.12276323
               3.93753688                6.81926297               86.14077283                0.01000000               -0.08958293               -0.49429365                0.24411276                1.87005218                0.18883171                0.31804566
               4.93705388                6.82590097               86.14953311                0.01511789               -0.13281085               -0.39025168                0.30818930                2.02163790                0.23500604                0.30712448
               5.93488067                6.83125151               86.15791455                0.01000002               -0.25666733               -0.20219401                0.28560784                1.48993888                0.22524877                0.26376299
               6.93192053                6.83130753               86.16483814                0.01000003               -0.13355998               -0.03685301                0.29260018                1.22697589                0.28207330                0.28311852
               7.93220947                6.83302035               86.17307770                0.01000000                0.08816010                0.02093226                0.35720267                1.20966645                0.65371186                0.51718823
               8.93368374                6.83032742               86.18509458                0.02487323               -0.00571805               -0.18682262                0.46997549                0.67186089                0.57332077                0.21258513
               9.93209511                6.82141203               86.18959023                0.51712126               -0.15886309                0.21830399                0.43132284                0.36235510                0.31027107                0.35344917
              -0.04955596                7.84234530               86.11920364                0.99999999               -0.03304490               -0.04776013                0.10208924                0.00466844                0.01056509               -0.07199900
               0.95011359                7.82962561               86.12447068                0.84821424               -0.03886058               -0.02953007                0.13770441                0.02262107                0.02761361                0.01625233
               1.94966683                7.81723170               86.13005595                0.01073415               -0.12907774               -0.05106795                0.17835882                0.43861474                0.09944210                0.07885109
               2.94753203                7.81302133               86.13673010                0.01000000                0.06408787               -0.55714009                0.12510446                0.99322553                0.14427595                0.19556087
               3.95094858                7.81417683               86.14608112                0.01731005                0.11963346               -0.33634085                0.14313102                1.50696786                0.25918109                0.31604739
               4.94992470                7.82212805               86.15576555                0.01000002               -0.25474036               -0.34068250                0.32430080                1.67212747                0.38517055                0.18151132
               5.94585378                7.82833537               86.16476036                0.01000003               -0.30706466               -0.13527454                0.38014241                1.52259221                0.45351198                0.40485979
               6.94378341                7.83277108               86.17407695                0.01000000               -0.16956737                0.19326140                0.34034708                1.21438381                0.56905548                0.69712302
               7.94246243                7.83336369               86.18416715                0.01808101               -0.08476152                0.04497225                0.40453610                0.61470379                0.31947273                0.35921961
               8.94208818                7.82885745               86.18934837                0.43627010               -0.05578129               -0.10743918                0.23355164                0.19648581                0.02816747               -0.11625321
               9.94134680                7.82319670               86.19394477                0.96814508               -0.07413764                0.05076944                0.25918373                0.18238242               -0.00227314               -0.11941714
              -0.03691798                8.84192736               86.12276153                0.99999999               -0.03309924               -0.03579817                0.09180027               -0.00023839                0.00420137               -0.06241495
               0.96275103                8.82927765               86.12842653                0.99999998               -0.04049441               -0.03702305                0.13522770                0.00252365                0.01890345                0.00531294
               1.96227213                8.81668329               86.13435321                0.72891781               -0.04930539               -0.05427574                0.18738366                0.00836258                0.09612415                0.06485927
               2.96176492                8.80417944               86.14150647                0.01640360               -0.18513045               -0.47474836                0.21789694                1.13247626                0.20269378                0.09400416
               3.95856952                8.81253616               86.14952676                0.01000002               -0.27135155               -0.07061355                0.19192514                1.22606819                0.23577907                0.10387341
               4.95633789                8.81908732               86.16035638                0.01347076               -0.19400240               -0.13359922                0.25895269                0.98704241                0.42151322                0.15170345
               5.95468947                8.82854602               86.17363977                0.01366507               -0.25789999                0.00213513                0.34351827                1.08954937                0.76271323                0.40191074
               6.95117989                8.83517276               86.18717919                0.02147825               -0.31361504                0.06520776                0.52604664                0.69040770                0.36280066                0.66209975
               7.94841717                8.83391980               86.19147482                0.39580025               -0.16997215               -0.00181667                0.20142390                0.23626823               -0.01665033                0.04073572
               8.94778045                8.82817863               86.19599294                0.99999999               -0.06764598               -0.06702937                0.22495641               -0.00071855               -0.00363525                0.00349986
               9.94706425                8.82242742               86.20052500                0.99896730               -0.07161917               -0.07600240                0.25186369                0.00106425               -0.00296633               -0.00638638
              -0.02426131                9.84162934               86.12658277                1.00000000               -0.03305607               -0.02980209                0.08748030               -0.00875181               -0.04018395               -0.04837936
               0.97540813                9.82888515               86.13228147                0.98857398               -0.04032034               -0.03924985                0.13207902               -0.00844747               -0.03086863                0.00253578
               1.97493228                9.81614619               86.13813705                0.99999996               -0.05397179               -0.05371053                0.17609245               -0.00192428                0.00301778                0.04353181
               2.97432869                9.80352636               86.14447177                0.51246748               -0.71851049               -0.06530808                0.20009037                1.08729604                0.11791581                0.01015726
               3.96056207                9.81276456               86.15255007                0.33731523               -1.03365017                0.02284036                0.18199479                0.99574008                0.58964925               -0.07134125
               4.95365569                9.81945606               86.16467857                0.34140030               -0.45013779                0.03687464                0.36496727                0.51245588                0.51741896                0.19971251
               5.95155932                9.82837808               86.17909876                0.39354591               -0.07189527               -0.01679418                0.25785342                0.41794303                0.75302381                0.18237571
               6.95221778                9.83407524               86.19325416                0.51280848                0.13113019               -0.10975239                0.49722943                0.35125383                0.63179169                0.39694304
               7.95418192                9.83332736               86.19801579                0.91770085                0.06742013               -0.05924349                0.19328257                0.24855601                0.01932951                0.00204835
               8.95356619                9.82751686               86.20262562                0.99897860               -0.06557001               -0.06617697                0.21877760               -0.00396130                0.00791398                0.00326552
               9.95287052                9.82167665               86.20715739                0.99652603               -0.06956662               -0.07507637                0.24581782               -0.00339442                0.00407005               -0.00409210
              -0.14613440               -0.16100776               87.09083030                0.90645754               -0.01109273               -0.01110623                0.10412937                0.00488054                0.00111899               -0.00032228
               0.85375467               -0.16717188               87.09463693                0.69528691                0.02595548               -0.04947987                0.10405142                0.03821221                0.00379557               -0.00065661
               1.85438471               -0.17190005               87.09847628                0.54024195                0.07794219               -0.02157031                0.10654638                0.05609058                0.00304778               -0.00090287
               2.85531352               -0.17369500               87.10222142                0.48867168                0.06515784               -0.02191291                0.11394538                0.04001152               -0.01795500                0.00044641
               3.85568787               -0.17276429               87.10576057                0.51214539               -0.00852835               -0.02139710                0.12250855                0.02030359               -0.04908963                0.00446458
               4.85514295               -0.17068581               87.10912895                0.63052224               -0.07026757               -0.02844247                0.12571776                0.02525472               -0.07736672                0.00849865
               5.85428252               -0.16905569               87.11240684                0.80942320               -0.07902699               -0.03430493                0.12141980                0.02417271               -0.08905672                0.00819848
               6.85356241               -0.16820003               87.11568100                0.99558957               -0.06296944               -0.03539196                0.11218518                0.01378180               -0.08749011                0.00663280
               7.85302313               -0.16788069               87.11903529                0.99821584               -0.04786845               -0.03185181                0.10054799                0.00386727               -0.08929524                0.01277397
               8.85260504               -0.16783223               87.12230991                0.99999999               -0.03548479               -0.03167410                0.08953844               -0.00112657               -0.07709560                0.00478643
               9.85231343               -0.16778027               87.12591528                1.00000000               -0.02916105               -0.03199394                0.08343377               -0.00886860               -0.05948984               -0.04993939
              -0.13992148                0.83888118               87.09478715                0.69489725               -0.04955832                0.02583936                0.10394228                0.03822875               -0.00154146                0.00186190
               0.85958294                0.83233332               87.09857918                0.10397594               -0.09356729               -0.09327355                0.10344262                0.13794335               -0.00325093               -0.00137513
               1.85820718                0.82788424               87.10235160                0.01000000               -0.17185963               -0.05741882                0.10518268                0.29699050               -0.01132676                0.00513339
               2.85614575                0.82608587               87.10604391                0.01000001               -0.19104371                0.01027113                0.11191041                0.50092998               -0.01738313                0.05774315
               3.85438630                0.82702174               87.10965852                0.01000000               -0.13022750               -0.01084770                0.12211849                0.61150571               -0.01578066                0.09222454
               4.85354120                0.82902977               87.11331305                0.01000000               -0.05524761               -0.07776745                0.13167468                0.57858889               -0.00346296                0.10255701
               5.85328135                0.83060126               87.11702971                0.01000000               -0.02142351               -0.02130346                0.13558572                0.36510215                0.00626600                0.11051358
               6.85311273                0.83144605               87.12080395                0.29088022               -0.02017243               -0.03082908                0.13427236                0.05760361                0.01964302                0.05785696
               7.85287790                0.83180079               87.12476711                0.83238156               -0.02845803               -0.03754513                0.13244686                0.02153736                0.02102997                0.03427499
               8.85254357                0.83185102               87.12853754                0.99999999               -0.03525613               -0.03824103                0.12871345                0.00147278                0.00703970                0.02447701
               9.85217278                0.83189979               87.13218628                0.99999999               -0.03707866               -0.03885832                0.12384901               -0.00841948                0.00364189               -0.04134653
              -0.13227411                1.83950903               87.09876698                0.53903939               -0.02154126                0.07737566                0.10642798                0.05637604               -0.00116741                0.00081602
               0.86751047                1.83096265               87.10252171                0.01000000               -0.05769547               -0.17098025                0.10487892                0.29700378                0.00238600               -0.00869272
               1.86657198                1.82695157               87.10633336                0.01090841               -0.06579276               -0.06413875                0.09912056                0.79043142                0.04478143                0.05021285
               2.86619462                1.82651042               87.11098566                0.01000001               -0.07989480               -0.01319955                0.11802543                1.08282446                0.10909025                0.09343892
               3.86497408                1.82701876               87.11528106                0.01172288               -0.15297044               -0.01561843                0.13041134                1.15295760                0.10334761                0.20598566
               4.86313521                1.82775884               87.11936538                0.01000001               -0.29029038               -0.04271133                0.14315722                1.17098381                0.12672933                0.16107435
               5.85916827                1.83051824               87.12369066                0.01364786               -0.48101288                0.03101860                0.19315720                0.93051117               -0.01012882                0.24016244
               6.85351495                1.83118339               87.12693513                0.01000001               -0.30596843               -0.02665406                0.17613299                0.61202443                0.04896997                0.12367322
               7.85304890                1.83136841               87.13090527                0.01000000               -0.04897245               -0.20049734                0.17060247                0.48398419                0.09839186                0.06086046
               8.85253550                1.83140294               87.13512682                0.82472469               -0.05006967               -0.04599815                0.17671030                0.00759988                0.07740913                0.09866036
               9.85204751                1.83144256               87.13860030                0.99999999               -0.04879917               -0.05055013                0.15886134               -0.00188236                0.04544549               -0.01483148
              -0.12170120                2.84042869               87.10265615                0.48693629               -0.02183266                0.06332589                0.11382890                0.04046562                0.00017928               -0.02006639
               0.87808047                2.82891372               87.10638064                0.01000001                0.00846202               -0.18899577                0.11136779                0.50072698                0.05441749               -0.01552878
               1.87846804                2.82660147               87.11116328                0.01000001               -0.01727117               -0.07613956                0.11695022                1.07974866                0.08662035                0.11495500
               2.87773505                2.82582188               87.11616839                0.01139602               -0.11355037               -0.10918664                0.13792787                1.24092638                0.11750651                0.12658859
               3.87619703                2.82670938               87.12081475                0.01000001               -0.21368279               -0.06279964                0.15064699                1.36787906                0.13310293                0.15974376
               4.87346139                2.82817554               87.12573424                0.01162346               -0.38650020               -0.00007293                0.18204773                1.48958682                0.16248158                0.20972780
               5.86846703                2.83122164               87.13032865                0.01127677               -0.44791713                0.03187674                0.19837817                1.51209263                0.18345303                0.22968534
               6.86450305                2.83091297               87.13331357                0.01000000               -0.30644963               -0.16490504                0.19642598                1.33400249                0.31728489               -0.07575786
               7.86233803                2.82779085               87.13714046                0.01304215               -0.59408185               -0.14274235                0.25677514                1.18251807                0.17317893                0.24884137
               8.85262141                2.83093106               87.14277879                0.01000000               -0.51410685               -0.07472241                0.19470918                1.10851460                0.15967912                0.13925013
               9.85205590                2.83088879               87.14535812                0.57910863               -0.05655153               -0.64548097                0.17621835                0.97944954                0.01373145                0.15203593
              -0.10843486                3.84077554               87.10633555                0.51097116               -0.02129113               -0.01206648                0.12251168                0.02092717                0.00420454               -0.05106528
               0.89135223                3.82718273               87.11015413                0.01000000               -0.01531765               -0.12655236                0.12152512                0.60957054                0.08942817               -0.01522367
               1.89125879                3.82542878               87.11564682                0.01170228               -0.02234965               -0.14599863                0.12851299                1.14660783                0.19989541                0.10871442
               2.89090524                3.82432668               87.12101981                0.01000001               -0.06403976               -0.20973460                0.14858073                1.35959844                0.15156585                0.14373590
               3.88997800                3.82576277               87.12681390                0.01235907               -0.12452771               -0.12963977                0.18434824                1.57260506                0.15471855                0.16579240
               4.88841469                3.82775738               87.13185844                0.01221903               -0.16526511               -0.10319192                0.19768478                1.73869227                0.24197045                0.13774061
               5.88667269                3.83115578               87.13779822                0.01729696               -0.23944484               -0.06543467                0.16734068                1.60821516                0.25101027                0.10620504
               6.88362579                3.82788529               87.14235722                0.01200145               -0.49957583               -0.19800804                0.21731647                1.63139996                0.27430390                0.04014685
               7.87668118                3.82851356               87.14597243                0.01000000               -0.60089667                0.01231601                0.24985626                1.92768724                0.22630931                0.39447175
               8.87160786                3.82990850               87.15015383                0.01000000               -0.24800635               -0.32465566                0.26350446                1.70898319                0.23717196                0.26748997
               9.87172105                3.81853294               87.15500255                0.38323261                0.01131945               -1.05780585                0.50583996                1.05941772                0.19473287                0.33363661
              -0.09409704                4.84018736               87.10984445                0.63017036               -0.02843147               -0.07390504                0.12588750                0.02674569                0.00816094               -0.07809143
               0.90561865                4.82638267               87.11395636                0.01000000               -0.08233582               -0.05141417                0.13116322                0.57542097                0.10073591               -0.00448543
               1.90425624                4.82368150               87.11990693                0.01000001               -0.05128085               -0.27716877                0.13909754                1.16055326                0.15936695                0.12888604
               2.90459303                4.82162718               87.12615733                0.01161020               -0.00189057               -0.37713231                0.17742075                1.46867603                0.20496611                0.16923081
               3.90421843                4.82411658               87.13209752                0.01221875               -0.08754006               -0.17870322                0.19485750                1.71376120                0.12460905                0.25984325
               4.90284223                4.82611170               87.13793201                0.01000000               -0.18575044               -0.21632647                0.18189688                1.80685558               -0.00324035                0.02521865
               5.90050342                4.82991294               87.14475143                0.01554033               -0.15344820               -0.20458590                0.19493834                1.52877956                0.00039046                0.19507511
               6.89977326                4.82695281               87.15103427                0.01000000               -0.08174251               -0.07833727                0.14634076                1.46892888                0.06558979               -0.01208873
               7.89886857                4.82803717               87.15682079                0.01385583               -0.14957835                0.02022333                0.19618918                1.76998440                0.04290853                0.54011285
               8.89678170                4.82443795               87.16252899                0.01405146               -0.14366080               -0.32800200                0.31789927                1.23190882                0.19428032                0.31623765
               9.89599536                4.80973267               87.16646148                0.38327253               -0.07863389               -0.45169226                0.39346131                0.57663312                0.14081843                0.38581162
              -0.08029056                5.83929744               87.11327261                0.80878027               -0.03429237               -0.08134789                0.12164624                0.02510779                0.00777394               -0.08822659
               0.91936652                5.82615445               87.11781450                0.01000000               -0.02420483               -0.01899216                0.13518768                0.36534979                0.10979273                0.00415968
               1.91922534                5.81988540               87.12438852                0.01363856                0.02385811               -0.46761222                0.18544349                0.92263105                0.23578656               -0.01424116
               2.91984368                5.81678404               87.13091934                0.01126761                0.02716790               -0.43059515                0.18917461                1.48092453                0.23396811                0.18514124
               3.91976870                5.82218870               87.13836504                0.01730786               -0.05441213               -0.24388271                0.15763726                1.56416119                0.11505608                0.26526705
               4.91875543                5.82343086               87.14514707                0.01556417               -0.16807624               -0.20526118                0.19620755                1.50784175                0.18152876                0.03207589
               5.91640718                5.82706406               87.15136832                0.01000000               -0.19376475               -0.24769187                0.18232557                1.51594881                0.12754929                0.16066598
               6.91488014                5.82631855               87.15907908                0.01240535               -0.09057233                0.00399103                0.12439226                1.49328096                0.12972040                0.15517042
               7.91459573                5.82891803               87.16690951                0.01787159               -0.01648051                0.03662762                0.21221160                1.36519214                0.33209775                0.49698932
               8.91455053                5.82334846               87.17380634                0.01000001               -0.09657304               -0.09905827                0.13502668                0.72976479                0.07058868                0.34687364
               9.91266427                5.80949910               87.17709372                0.40987901               -0.18862617                0.31620043                0.21148310                0.32139931               -0.12972240                0.55127701
              -0.06730890                6.83856040               87.11670394                0.99379161               -0.03534209               -0.06429309                0.11235150                0.01420438                0.00627473               -0.08575266
               0.93233768                6.82600283               87.12172757                0.28970231               -0.03059119               -0.01892587                0.13399684                0.05966963                0.05466797                0.01681999
               1.93207928                6.81432925               87.12770273                0.01000001               -0.02147297               -0.30105094                0.17650165                0.60729517                0.13128368                0.04025660
               2.93190822                6.81301528               87.13419875                0.01000000               -0.16122183               -0.30844122                0.18203012                1.30414362               -0.07455702                0.30309131
               3.92885484                6.81923893               87.14305854                0.01201762               -0.18922571               -0.46001738                0.19900516                1.59861190                0.06066190                0.27552122
               4.92812371                6.82200648               87.15189689                0.01000000               -0.04600651               -0.25948997                0.16151700                1.49256090                0.00519898                0.13997152
               5.92793471                6.82495910               87.15963187                0.01239891               -0.01693966               -0.08420877                0.13032889                1.51342149                0.10015770                0.21857012
               6.92778491                6.82703263               87.16738398                0.01538540                0.06038978                0.14886639                0.20874438                1.46555632                0.38475076                0.43894934
               7.92914251                6.82876972               87.17647540                0.01000003                0.15055056               -0.07463986                0.16349789                0.92861026                0.51037423                0.36103542
               8.93079592                6.82245678               87.18809827                0.04447445                0.04897771               -0.05397323                0.19923083                0.50474221                0.45956459                0.18840922
               9.93012206                6.81605668               87.19274474                0.52875484               -0.06738641                0.35350798                0.25471207                0.55691525                0.15913421                0.43837532
              -0.05489132                7.83801158               87.12021890                0.99703908               -0.03176209               -0.04855064                0.10057729                0.00391456                0.01195724               -0.08674705
               0.94479106                7.82577593               87.12582312                0.83150745               -0.03749433               -0.02793510                0.13237714                0.02197950                0.03199843                0.01880569
               1.94435879                7.81386439               87.13180525                0.01000000               -0.18870903               -0.04893977                0.17109350                0.46175014                0.07261577                0.09405041
               2.94101688                7.81061521               87.13819353                0.01306448               -0.08045262               -0.58356133                0.23726883                1.16026606                0.26164269                0.15217728
               3.94274974                7.81298836               87.14748138                0.01000000                0.09347985               -0.49387036                0.15997147                1.53237687                0.30450076                0.15553878
               4.94288647                7.81824106               87.15800777                0.01386885               -0.05501439               -0.23596276                0.21855258                1.55343260                0.36697332                0.18578041
               5.94164945                7.82537988               87.16837613                0.01766687               -0.12529117                0.02963599                0.23726510                1.45493073                0.45362615                0.37334426
               6.94038065                7.82929587               87.17729996                0.01000003               -0.19528336                0.24104534                0.15596405                0.92771031                0.35742821                0.57330512
               7.93774378                7.82742523               87.18718018                0.02495587               -0.15111173               -0.06602274                0.23973519                0.37654241                0.23457794                0.25286210
               8.93735842                7.82226899               87.19169628                0.43774679               -0.05705017               -0.04255390                0.23451566                0.07159899               -0.01657352               -0.15020246
               9.93660278                7.81656926               87.19655325                0.97376489               -0.07556350               -0.01340355                0.26439929                0.04236632               -0.00121691               -0.14421186
              -0.04275931                8.83758939               87.12366492                0.99999999               -0.03162224               -0.03565996                0.08912018               -0.00128894                0.00445917               -0.07439916
               0.95692446                8.82544412               87.12974544                0.99999999               -0.03828445               -0.03502965                0.12846718                0.00129070                0.02384290                0.00645074
               1.95647500                8.81335046               87.13618171                0.83692652               -0.04674468               -0.04998361                0.17633737                0.00709964                0.09339797                0.07453447
               2.95598957                8.80134405               87.14359352                0.01000000               -0.22992310               -0.49225922                0.19834796                1.15212004                0.18657346                0.13737735
               3.95187654                8.80936152               87.15185316                0.01000000               -0.45943709               -0.23111243                0.26424174                1.49039233                0.35171949                0.11255162
               4.94680083                8.81728722               87.16315134                0.01424951               -0.29490144                0.00390108                0.31227306                0.88797644                0.39569717                0.29359550
               5.94597851                8.82555182               87.17565459                0.01000001               -0.12535292               -0.08051309                0.11414255                0.78505439                0.49540866                0.08557994
               6.94429377                8.83185354               87.19050265                0.04072366               -0.11391360                0.10840019                0.19849443                0.51911802                0.28661857                0.53196740
               7.94370024                8.82744927               87.19349410                0.39607207               -0.06049462               -0.02874168                0.20101548                0.07840349               -0.10110820               -0.00254588
               8.94308388                8.82160570               87.19823965                0.99999999               -0.06656908               -0.06599892                0.22332280               -0.00391410               -0.00671322                0.00122592
               9.94236885                8.81578861               87.20304928                0.99367616               -0.07150248               -0.07675070                0.25274229                0.00040868               -0.00300604               -0.00755927
              -0.03062657                9.83729838               87.12743528                1.00000000               -0.03176259               -0.02910079                0.08263689               -0.00902993               -0.04782068               -0.05719514
               0.96905580                9.82507534               87.13355981                0.99999999               -0.03862872               -0.03687842                0.12308329               -0.00854954               -0.03971359                0.00365703
               1.96860085                9.81286471               87.13981734                0.99222046               -0.05037936               -0.04857437                0.15803985               -0.00267983               -0.01569883                0.04272267
               2.96804822                9.80077003               87.14637788                0.58776989               -0.59932198               -0.05740235                0.17853647                0.98093418                0.20231966                0.01350312
               3.95661442                9.80836611               87.15688792                0.38332048               -1.17962600               -0.09954109                0.52652009                1.35124028                0.37063231                0.16433549
               4.94445570                9.81831908               87.16898366                0.38383748               -0.69150959                0.10318534                0.35590507                0.53566243                0.43179404                0.27378496
               5.94278422                9.82376962               87.17968383                0.40920457                0.22049365               -0.17822016                0.16629495                0.33781159                0.70816298               -0.10524055
               6.94886557                9.83146388               87.19637026                0.52369974                0.33877327               -0.03896625                0.22557676                0.61121862                0.65522596                0.20358976
               7.94955969                9.82685040               87.19994342                0.92125716                0.00376112               -0.05988667                0.19473939                0.06020216               -0.05436927                0.00303709
               8.94894079                9.82094901               87.20480757                0.99366359               -0.06572705               -0.06566911                0.21746594               -0.00511645                0.00668718                0.00332536
               9.94824515                9.81503424               87.20961872                1.00000000               -0.06956439               -0.07543637                0.24695377               -0.00384755                0.00394095               -0.00431222
              -0.14992651               -0.16496331               88.09187267                0.90348947               -0.00994656               -0.00996018                0.10408293                0.00486593                0.00174474                0.00044171
               0.84997402               -0.17111644               88.09567581                0.69919926                0.02778077               -0.05025797                0.10360781                0.03915146                0.00610837               -0.00042483
               1.85062910               -0.17577626               88.09954077                0.55128450                0.07605464               -0.02090048                0.10623912                0.05429767                0.00989823               -0.00078311
               2.85149511               -0.17749793               88.10336501                0.49647136                0.05527081               -0.02051784                0.11445282                0.04104356               -0.00816633                0.00119756
               3.85173452               -0.17660430               88.10699665                0.52616836               -0.02340627               -0.01986961                0.12406954                0.02166213               -0.04407349                0.00652384
               4.85102699               -0.17480079               88.11039693                0.65706587               -0.08169770               -0.02788968                0.12678715                0.02891731               -0.08089606                0.01083254
               5.85010056               -0.17365861               88.11362907                0.83926637               -0.08314464               -0.03381739                0.12152944                0.02468447               -0.09836670                0.00975868
               6.84936410               -0.17336232               88.11680400                0.98536730               -0.06496188               -0.03483659                0.11262277                0.01153182               -0.10062444                0.00679137
               7.84880133               -0.17363578               88.12003041                0.99848879               -0.04922180               -0.03081538                0.09877323                0.00245893               -0.10314682                0.01448552
               8.84837966               -0.17420675               88.12319184                0.99999999               -0.03500423               -0.02997553                0.08570178               -0.00230749               -0.08759737                0.00519450
               9.84810124               -0.17478679               88.12672285                0.99915201               -0.02784178               -0.03039234                0.07767392               -0.00907025               -0.06760755               -0.05587314
              -0.14372473                0.83493709               88.09582516                0.69895266               -0.05032629                0.02766799                0.10352268                0.03915207               -0.00122231                0.00436726
               0.85577201                0.82838098               88.09960891                0.12800700               -0.09562253               -0.09535611                0.10257721                0.14318152               -0.00175129               -0.00006770
               1.85436282                0.82401473               88.10339813                0.01000000               -0.17262201               -0.05847654                0.10442219                0.30408858               -0.00639165                0.00308520
               2.85231957                0.82229689               88.10715985                0.01000000               -0.18801265               -0.00968523                0.11174745                0.53116453               -0.00803329                0.05957775
               3.85060257                0.82319700               88.11088107                0.01113522               -0.12381267                0.01477877                0.12299924                0.63760707               -0.00339865                0.09510452
               4.84984332                0.82492031               88.11462897                0.01000000               -0.04871978               -0.11722978                0.13199545                0.60035851                0.00820353                0.10521007
               5.84962817                0.82600321               88.11837916                0.01562846               -0.01876593                0.00684134                0.13391805                0.29694546                0.01285426                0.14535136
               6.84946800                0.82628932               88.12212409                0.30973502               -0.01900216               -0.02906291                0.13218361                0.05758761                0.02353396                0.07004099
               7.84924813                0.82605606               88.12606204                0.81435283               -0.02679559               -0.03630844                0.12726201                0.02021019                0.02435770                0.03981975
               8.84893209                0.82549350               88.12978928                0.99999996               -0.03287772               -0.03591098                0.12082282                0.00018145                0.00858333                0.02939247
               9.84859058                0.82490929               88.13337643                1.00000000               -0.03415100               -0.03689760                0.11375972               -0.00860978                0.00433479               -0.05124788
              -0.13603126                1.83559005               88.09983074                0.55027030               -0.02087345                0.07555710                0.10616264                0.05455345               -0.00102447                0.00790739
               0.86376001                1.82697644               88.10356535                0.01000000               -0.05868891               -0.17186505                0.10413419                0.30406366                0.00061808               -0.00401602
               1.86279496                1.82305421               88.10732160                0.01164731               -0.04119334               -0.03958492                0.09905953                0.76653094                0.04956315                0.05416198
               2.86293614                1.82230837               88.11209319                0.01086049               -0.04658610               -0.01196450                0.10311420                1.11960149                0.12644934                0.09304677
               3.86186324                1.82369127               88.11650807                0.01300783               -0.13540951               -0.04792462                0.12092705                1.13143010                0.09995778                0.14054327
               4.86022795                1.82285462               88.12073757                0.01000000               -0.35963829               -0.04718293                0.15206535                1.16246171                0.09392295                0.18318081
               5.85467047                1.82647821               88.12582836                0.01604771               -0.48824755                0.01230656                0.24076942                1.03671753               -0.09211655                0.24838230
               6.85046300                1.82605642               88.12868821                0.01000000               -0.23345614               -0.26763178                0.17512944                0.78449100                0.04031829                0.16977159
               7.85000135                1.82563805               88.13257381                0.01051053               -0.04664674               -0.09228175                0.16192903                0.40731932                0.10959617                0.13709878
               8.84953006                1.82507503               88.13682689                0.92211214               -0.04519467               -0.04393054                0.16313384                0.00623633                0.08341919                0.09372048
               9.84909746                1.82447526               88.14008551                1.00000000               -0.04326050               -0.04650192                0.13915744               -0.00385432                0.03902828               -0.03533075
              -0.12540644                2.83644823               88.10379897                0.49505320               -0.02044375                0.05365664                0.11438551                0.04136935                0.00095606               -0.01002150
               0.87438913                2.82494368               88.10749138                0.01000000               -0.01160246               -0.18622639                0.11124292                0.53111188                0.05624956               -0.00627122
               1.87436151                2.82322304               88.11226061                0.01086328               -0.01572942               -0.04310877                0.10244919                1.11734207                0.08648874                0.13202846
               2.87407454                2.82205760               88.11728986                0.01299207               -0.08382944               -0.08054349                0.10030482                1.13133659                0.08399071                0.09041489
               3.87268492                2.82223851               88.12223650                0.01000000               -0.18844626               -0.10637546                0.13650506                1.29783083                0.10488882                0.12855697
               4.87030561                2.82397666               88.12746512                0.01494844               -0.27621029                0.00359759                0.17301953                1.43712006                0.12647997                0.19170311
               5.86716072                2.82624934               88.13206536                0.01591827               -0.21538140               -0.15153005                0.18157400                1.25846602                0.18265020                0.07396239
               6.86599798                2.82093668               88.13594379                0.01000000               -0.43924043               -0.30519769                0.27934636                1.38823023                0.22417252                0.07255369
               7.85837591                2.82421043               88.14054055                0.01000000               -0.78891914               -0.05798158                0.27155305                1.33764332                0.07683296                0.26996124
               8.85021960                2.82461488               88.14462326                0.01000000               -0.43314401               -0.20907725                0.18133577                1.01085863                0.09921978                0.17790506
               9.84971303                2.82397925               88.14700089                0.70438196               -0.05065708               -0.78544339                0.15690503                0.96657697                0.01657707                0.35109213
              -0.11219478                3.83666318               88.10757173                0.52528657               -0.01977875               -0.02642490                0.12408499                0.02222437                0.00631126               -0.04573301
               0.88760744                3.82325191               88.11137076                0.01116624                0.01113278               -0.12063399                0.12243029                0.63607658                0.09218036               -0.00273440
               1.88802788                3.82219203               88.11685847                0.01302672               -0.05300193               -0.12953053                0.11938158                1.12630791                0.13576017                0.10459250
               2.88654740                3.82069750               88.12242468                0.01000000               -0.10635375               -0.18590895                0.13516452                1.28948931                0.12248492                0.11213453
               3.88590080                3.82156376               88.12842639                0.01580253               -0.07939414               -0.08388048                0.14987823                1.44955327                0.12032886                0.12985392
               4.88495951                3.82292657               88.13386918                0.01685897               -0.15105166               -0.21202946                0.19777392                1.39814958                0.09917293                0.10039803
               5.88287977                3.82344761               88.13902814                0.01000000               -0.23464989               -0.15459657                0.15270838                1.17803905                0.05288533                0.00533427
               6.88026652                3.81995247               88.14404551                0.01000000               -0.49018792               -0.07771068                0.18519909                1.40685335                0.03449941                0.14434270
               7.87307601                3.82447842               88.14850622                0.01000001               -0.51440526               -0.01464759                0.26203382                1.70957012               -0.03026939                0.37587524
               8.86997841                3.82089349               88.15330482                0.01000002               -0.16878749               -0.41348413                0.48452776                1.26512414               -0.43455563                0.50563754
               9.86970026                3.80876639               88.16133627                0.47075289               -0.02781489               -1.00222837                0.22289925                0.83571357               -0.34228319                1.08555368
              -0.09813941                4.83591973               88.11111401                0.65701241               -0.02787853               -0.08461640                0.12691352                0.03020674                0.01053587               -0.08135110
               0.90158181                4.82253100               88.11526699                0.01000000               -0.12092532               -0.04551664                0.13145961                0.59770654                0.10263149                0.00744134
               1.89944208                4.82063243               88.12125088                0.01000000               -0.05446067               -0.34617858                0.14959956                1.14896615                0.17982583                0.09496772
               2.90049259                4.81833943               88.12785862                0.01495243                0.00024178               -0.27265852                0.17032317                1.41618842                0.18851698                0.13205563
               3.89944692                4.82056090               88.13411051                0.01685303               -0.20539188               -0.15783707                0.19754358                1.38477467                0.09180728                0.11239349
               4.89638475                4.81973607               88.14010317                0.01000000               -0.28756608               -0.31584240                0.21343034                1.48723841                0.01647519                0.04714059
               5.89369560                4.82315741               88.14619697                0.01000000               -0.16402545               -0.13677379                0.17222465                1.34235829                0.03193037                0.04133869
               6.89310425                4.81938247               88.15195266                0.01000001               -0.10346515                0.01546864                0.13139170                1.42797492                0.06873673                0.14843296
               7.89162630                4.82391748               88.15868541                0.01265325               -0.09350696               -0.06240913                0.18924293                1.65451986               -0.02062257                0.57753112
               8.89123411                4.81634520               88.16515847                0.01000001               -0.04724049               -0.34656958                0.29940744                0.91544999               -0.06991647                0.54025513
               9.89068149                4.80393468               88.16974473                0.44956782               -0.05526207               -0.25967470                0.46762972                0.62892107               -0.23626397                0.63191775
              -0.08481318                5.83497085               88.11449683                0.83875357               -0.03379462               -0.08492550                0.12166912                0.02541803                0.00938633               -0.09747073
               0.91484887                5.82234158               88.11915971                0.01520391                0.00059793               -0.01674839                0.13346927                0.29976865                0.14198927                0.01109792
               1.91519878                5.81526846               88.12646175                0.01603637                0.00469097               -0.47696846                0.23700522                1.02553607                0.24518850               -0.09098340
               2.91494269                5.81524433               88.13262829                0.01591313               -0.14995609               -0.21147717                0.17911357                1.23222800                0.07601652                0.17945587
               3.91219966                5.81840702               88.13950581                0.01000000               -0.14174611               -0.24519207                0.14619976                1.14852247                0.00992462                0.07528376
               4.91210777                5.81660972               88.14660789                0.01000000               -0.10595590               -0.19481861                0.16769507                1.32524486                0.02003656                0.08838557
               5.91008054                5.82071214               88.15340420                0.01000001               -0.20209098               -0.22711570                0.19730294                1.56766261                0.01407328                0.08097011
               6.90806595                5.82026184               88.15998657                0.01000000               -0.04384320                0.12415884                0.12487864                1.60929359                0.02231726                0.22985363
               7.90920367                5.82323023               88.16803608                0.01000001                0.01021266               -0.19735429                0.10963708                1.18883080               -0.04083653                0.37331730
               8.90827020                5.81396209               88.17422867                0.01000001               -0.10519773               -0.00697661                0.14620685                0.78571191               -0.13513064                0.65193102
               9.90709972                5.80357290               88.18054135                0.44065549               -0.11704843                0.33926589                0.36706140                0.72624838               -0.03795204                0.80057236
              -0.07237250                6.83422122               88.11782806                0.98388224               -0.03479310               -0.06607363                0.11267397                0.01187719                0.00649940               -0.09891165
               0.92727957                6.82219603               88.12304459                0.30815385               -0.02887230               -0.01788606                0.13189007                0.05950873                0.06741880                0.02121209
               1.92705006                6.81109306               88.12945842                0.01000000               -0.26404899               -0.23173613                0.17540225                0.77319020                0.16968829                0.03577477
               2.92199859                6.81410988               88.13666140                0.01000000               -0.29990393               -0.42871133                0.26889286                1.33550317                0.07413790                0.21796794
               3.92105198                6.81565706               88.14475293                0.01000000               -0.07070269               -0.49570136                0.18139863                1.33772584                0.15163375                0.04791199
               4.92058454                6.81583969               88.15276345                0.01000001                0.01723756               -0.10102595                0.11347189                1.36098416                0.12995509                0.17271838
               5.92139673                6.81861510               88.16052112                0.01000000                0.10937408               -0.04663003                0.11729034                1.57897600                0.16089618                0.13999890
               6.92277202                6.82186564               88.16901302                0.01000001                0.01529651                0.04283352                0.14618679                1.27086345                0.17056033                0.22152371
               7.92170266                6.81997039               88.17634765                0.01000001                0.19168298               -0.09140016                0.09306574                0.89470116                0.36087924                0.37849590
               8.92660568                6.81620567               88.18907919                0.05125045                0.21410918                0.08749658                0.09577431                0.74315227                0.41332167                0.34339297
               9.92598484                6.81072000               88.19468447                0.55108822               -0.06208361                0.32175148                0.28201877                0.67687274                0.06960584                0.31582529
              -0.06052526                7.83364938               88.12121519                0.99774382               -0.03075265               -0.04991115                0.09881812                0.00258073                0.01379446               -0.10078403
               0.93916721                7.82198386               88.12711823                0.81255219               -0.03630032               -0.02630281                0.12730862                0.02079444                0.03795483                0.02257198
               1.93874873                7.81063374               88.13347782                0.01043723               -0.10392291               -0.04655835                0.16240930                0.39641010                0.14317382                0.10578253
               2.93708875                7.80667010               88.14147548                0.01000000               -0.07621865               -0.76836179                0.26075284                1.28428024                0.26295825                0.07910456
               3.93722436                7.80849299               88.14928055                0.01000001               -0.03596706               -0.51382035                0.23350388                1.64566055                0.34334632               -0.01951030
               4.93636941                7.81458920               88.16013660                0.01262793               -0.07951249               -0.09281801                0.18557434                1.55762013                0.52013122                0.21143213
               5.93563411                7.81977954               88.16950566                0.01000001               -0.21207433                0.01674137                0.08232411                1.11894608                0.34703028                0.02242334
               6.93212793                7.82111851               88.17719623                0.01000001               -0.14382199                0.24380807                0.08332189                0.89617117                0.36732142                0.39850853
               7.93275767                7.82140223               88.18896185                0.03687633                0.01278555                0.05676249                0.05065848                0.57744349                0.30358854                0.30898621
               8.93238364                7.81571203               88.19403868                0.44486885               -0.05745807               -0.05569059                0.22748789                0.00455119               -0.00257306               -0.08766897
               9.93160851                7.81000793               88.19923276                0.98639059               -0.07751286               -0.07546202                0.27675816               -0.00040832                0.00100335               -0.11121889
              -0.04898984                8.83322300               88.12454393                0.99999999               -0.02990618               -0.03523295                0.08543956               -0.00237828                0.00494384               -0.08528387
               0.95071110                8.82166998               88.13099587                1.00000000               -0.03590752               -0.03271507                0.12074604                0.00017395                0.02875631                0.00800643
               1.95029201                8.81016189               88.13787995                0.93028766               -0.04430813               -0.04521810                0.16313563                0.00620894                0.09037412                0.08091867
               2.94982494                8.79874265               88.14547343                0.01000000               -0.21229625               -0.42211939                0.18456427                0.97172573                0.21565591                0.08528095
               3.94604609                8.80538065               88.15481160                0.01000002               -0.46872704               -0.12556244                0.43635452                1.16926316                0.70513001               -0.46279299
               4.94045040                8.81398333               88.16660184                0.01000001               -0.43998750               -0.06610374                0.34693597                0.83477625                0.72641316                0.10185732
               5.93724634                8.81894993               88.17592262                0.01000000               -0.06888261               -0.07823726                0.14314906                0.77301674                0.87343542               -0.08174431
               6.93907275                8.82674180               88.19114908                0.04835909                0.07058381                0.26466491                0.03240809                0.75452497                0.45019385                0.43162530
               7.93865802                8.82110564               88.19549513                0.40265928               -0.04908716               -0.04563818                0.19212579                0.01248072               -0.05883016                0.01293182
               8.93809100                8.81509186               88.20045939                0.99999999               -0.06365726               -0.06322492                0.21770264               -0.01269436               -0.01220578               -0.00297365
               9.93738487                8.80921076               88.20557984                1.00000000               -0.07061342               -0.07782030                0.25274621               -0.00218329               -0.00285442               -0.01313686
              -0.03746678                9.83294472               88.12823551                0.99913749               -0.03014157               -0.02782760                0.07699462               -0.00921145               -0.05411554               -0.06569644
               0.96223180                9.82132956               88.13474313                1.00000000               -0.03664871               -0.03404208                0.11318790               -0.00869750               -0.04992307                0.00415851
               1.96180024                9.80972938               88.14129785                1.00000000               -0.04636465               -0.04325123                0.13891026               -0.00426935               -0.03528726                0.03688759
               2.96130451                9.79822771               88.14804250                0.71305590               -0.82156538               -0.05149326                0.15889501                0.96057520                0.39392794                0.01645963
               3.94536893                9.80598175               88.16308047                0.47249209               -1.09044222                0.06010957                0.17446494                0.68425513                1.10590649               -0.33927622
               4.93949566                9.81326713               88.17179667                0.45150902               -0.35164795               -0.07162087                0.46343636                0.51617856                0.74712206               -0.08732327
               5.93833597                9.81821479               88.18242466                0.44146288                0.27835237               -0.07351350                0.35490499                0.76619783                1.06166410                0.03305679
               6.94506271                9.82641181               88.19776570                0.54596214                0.31606279               -0.03299938                0.19248316                0.71273014                0.50528983                0.09219806
               7.94465723                9.82048947               88.20191058                0.93164597               -0.05190408               -0.06161734                0.20576543                0.00170743               -0.04744953                0.00523265
               8.94402463                9.81444753               88.20697494                1.00000000               -0.06650982               -0.06443302                0.21594510               -0.00853475                0.00087861                0.00351329
               9.94332703                9.80845152               88.21209647                0.99839991               -0.06975940               -0.07592386                0.24950011               -0.00538396                0.00343705               -0.00491372
              -0.15370578               -0.16890389               89.09291196                0.89800865               -0.00854704               -0.00856525                0.10344861                0.00496928                0.00258375                0.00139793
               0.84620875               -0.17504656               89.09670909                0.70159555                0.02996312               -0.05110140                0.10286121                0.04029127                0.00881834               -0.00000323
               1.84689348               -0.17963045               89.10060106                0.56274402                0.07427794               -0.02044356                0.10556674                0.05278359                0.01757260               -0.00062296
               2.84769431               -0.18126073               89.10451047                0.50533994                0.04404980               -0.01900260                0.11416890                0.04217375                0.00305004                0.00208220
               3.84777448               -0.18040265               89.10824196                0.54466884               -0.04008476               -0.01849355                0.12394802                0.02384857               -0.03840490                0.00904917
               4.84689261               -0.17893323               89.11166469                0.69021550               -0.09331791               -0.02734347                0.12488628                0.03355632               -0.08360029                0.01347224
               5.84590812               -0.17836068               89.11483743                0.87458605               -0.08720127               -0.03303209                0.11869818                0.02496180               -0.10482228                0.01113998
               6.84514858               -0.17870439               89.11793346                0.99997638               -0.06678858               -0.03329524                0.10948971                0.01051581               -0.11070794                0.00798765
               7.84457235               -0.17965424               89.12101075                1.00000000               -0.04939635               -0.02919690                0.09412915                0.00181161               -0.11611791                0.01552411
               8.84416066               -0.18092322               89.12402394                1.00000000               -0.03365396               -0.02729583                0.07984135               -0.00351353               -0.09727298                0.00537423
               9.84389927               -0.18220489               89.12746876                1.00000000               -0.02613910               -0.02829406                0.07063275               -0.00957622               -0.07394056               -0.06132846
              -0.14751342                0.83101046               89.09685760                0.70129057               -0.05116421                0.02986264                0.10279823                0.04029420               -0.00069489                0.00723679
               0.85197494                0.82444243               89.10063072                0.15677229               -0.09790885               -0.09767943                0.10185433                0.14889443                0.00029768                0.00177722
               1.85052840                0.82016512               89.10444005                0.01000000               -0.17363968               -0.05986074                0.10426899                0.31243696               -0.00006920                0.00135611
               2.84850214                0.81854924               89.10827886                0.01000000               -0.18395954               -0.02489640                0.11259602                0.55450625                0.00310729                0.05369884
               3.84684921                0.81941242               89.11211850                0.01000000               -0.11474777               -0.05615781                0.12528764                0.63992363                0.01081036                0.09549217
               4.84620719                0.82079333               89.11595296                0.01000000               -0.04029483               -0.12402267                0.13310265                0.53486762                0.01983167                0.12228675
               5.84604331                0.82130900               89.11970807                0.02846801               -0.01533329                0.00801812                0.13303193                0.18182508                0.02075025                0.20833156
               6.84590052                0.82096266               89.12344763                0.33781953               -0.01717205               -0.02682394                0.13018933                0.05860406                0.02822586                0.08346372
               7.84569987                0.82005380               89.12731235                0.78813309               -0.02498366               -0.03569421                0.12174823                0.01854886                0.02550830                0.04392422
               8.84540085                0.81880383               89.13095400                0.99999998               -0.03073477               -0.03167048                0.11265514               -0.00050508                0.00901935                0.03347628
               9.84508518                0.81751217               89.13446147                0.99548239               -0.03156710               -0.03418149                0.10372471               -0.00858728                0.00430449               -0.06277794
              -0.13976384                1.83169336               89.10089023                0.56193068               -0.02041889                0.07384044                0.10551489                0.05297439               -0.00082227                0.01579650
               0.86003197                1.82299985               89.10460440                0.01000000               -0.06003793               -0.17297698                0.10399607                0.31239318               -0.00082455                0.00204695
               1.85903540                1.81917234               89.10831455                0.01254939               -0.02474212               -0.02299736                0.10027603                0.75562087                0.04694684                0.05103582
               2.85953713                1.81824134               89.11304794                0.01222263               -0.03532737               -0.06252809                0.09479098                1.01193393                0.08194220                0.08455898
               3.85832886                1.81847420               89.11769961                0.01000001               -0.19218771               -0.10251100                0.13396961                1.08076594                0.05677798                0.09640647
               4.85569338                1.81858631               89.12240668                0.01000000               -0.44767808               -0.09576687                0.18801582                1.16402188                0.06103959                0.29056777
               5.84937530                1.82179969               89.12850605                0.01000001               -0.40587522               -0.09039463                0.26370778                0.98854305               -0.05992101                0.28032520
               6.84757587                1.82075913               89.13043772                0.01448020               -0.11365715               -0.19779517                0.17812827                0.62214922                0.00223305                0.23424049
               7.84710215                1.81963188               89.13414385                0.01000000               -0.04418459               -0.13980695                0.15544650                0.35897982                0.11653685                0.14869746
               8.84669218                1.81844337               89.13838950                0.98494997               -0.03956596               -0.03962976                0.14884571                0.01121068                0.08784985                0.09503796
               9.84631083                1.81711148               89.14138345                1.00000000               -0.03813481               -0.04261500                0.12304434               -0.00584010                0.02893418               -0.05606300
              -0.12906691                2.83248727               89.10494386                0.50418473               -0.01892645                0.04262384                0.11411410                0.04241950                0.00186862                0.00142194
               0.87074382                2.82098289               89.10860550                0.01000000               -0.02668780               -0.18237052                0.11211933                0.55475183                0.05070222                0.00476041
               1.87039933                2.81970517               89.11321226                0.01223977               -0.06524296               -0.03209936                0.09471216                1.01002295                0.07967760                0.08681355
               2.86943896                2.81729868               89.11817448                0.01000001               -0.11398884               -0.11203601                0.09830840                0.99534547                0.06687477                0.07195099
               3.86811956                2.81736220               89.12354485                0.01000000               -0.16384141               -0.09941764                0.13588063                1.20952690                0.10101257                0.15792095
               4.86616214                2.81887799               89.12919463                0.01000001               -0.22390978               -0.07295134                0.19176415                1.31209661                0.07557798                0.23217570
               5.86364136                2.81950111               89.13396013                0.01000000               -0.28254120               -0.23344189                0.24561765                1.31537648                0.14055911                0.00901345
               6.86051131                2.81700675               89.13890050                0.01000000               -0.42230676               -0.29979279                0.28942194                1.25091811                0.02779638                0.36011411
               7.85519522                2.81725766               89.14257152                0.01067667               -0.61829252               -0.08728387                0.22282113                1.03594014                0.23148369                0.09757399
               8.84814546                2.81801123               89.14640551                0.18431149               -0.37815301                0.05213278                0.18244166                0.13983633                0.11283717                0.40509373
               9.84763216                2.81665987               89.14849622                0.88454639               -0.05132976                0.01943517                0.14983844               -0.01005345                0.02159777                0.14775204
              -0.11590669                3.83254584               89.10881725                0.54415610               -0.01842064               -0.04260140                0.12395441                0.02439207                0.00888199               -0.03984125
               0.88390911                3.81935244               89.11260274                0.01000000               -0.05866205               -0.11201701                0.12473894                0.63875458                0.09239086                0.01151536
               1.88292007                3.81853035               89.11803445                0.01000001               -0.10610452               -0.18638033                0.13251282                1.07549861                0.09136123                0.06119706
               2.88178701                3.81600062               89.12372310                0.01000000               -0.09899957               -0.16169943                0.13488444                1.20101365                0.15106968                0.10812290
               3.88094008                3.81648584               89.12981146                0.01000000               -0.09953088               -0.10385846                0.16711113                1.34085686                0.15798250                0.17168251
               4.87979640                3.81712729               89.13581391                0.01000000               -0.16930058               -0.22810977                0.21119952                1.27840655                0.08138640                0.15854299
               5.87755407                3.81713085               89.14085239                0.01437005               -0.24793541               -0.15687315                0.20473440                1.16435870               -0.00130169                0.12690837
               6.87483769                3.81476327               89.14606120                0.01128215               -0.53687956               -0.15131687                0.24150368                1.44518012               -0.06895059                0.26443701
               7.86681648                3.81788620               89.15121311                0.01000001               -1.23754974                0.14001394                0.30627879                1.73889200                0.19747923                0.18705690
               8.85008669                3.81948603               89.15984439                0.01000000               -0.90019951               -0.18460134                0.39039737                1.78962861               -0.56429966                0.69571643
               9.84881249                3.81750018               89.15946053                0.63274455               -0.12742080               -0.67469623               -0.05176287                1.52468569               -1.04085157                1.36031219
              -0.10219227                4.83163524               89.11238272                0.69024994               -0.02733229               -0.09559318                0.12496149                0.03463566                0.01320270               -0.08391382
               0.89753440                4.81874255               89.11658555                0.01000000               -0.12732992               -0.03768168                0.13255092                0.53373002                0.11927616                0.01922183
               1.89526113                4.81597757               89.12289892                0.01000000               -0.10153284               -0.43360765                0.18591561                1.15313033                0.28648951                0.06305471
               2.89550375                4.81406469               89.12956379                0.01000001               -0.07255513               -0.22151191                0.18956524                1.29201990                0.23004966                0.08453406
               3.89381002                4.81528503               89.13604839                0.01000000               -0.22092413               -0.17169441                0.20875936                1.26493091                0.14909971                0.10065229
               4.89108526                4.81431580               89.14220062                0.01000001               -0.22587388               -0.22945003                0.22947564                1.32699966                0.16833227                0.19287879
               5.88929255                4.81636365               89.14819592                0.01670109               -0.12128515               -0.13857675                0.20027414                1.27102574                0.16433066                0.08028555
               6.88865956                4.81398041               89.15366210                0.01000001               -0.20211196               -0.04540105                0.16668285                1.47756049                0.17486829                0.14860558
               7.88525031                4.82005794               89.16060565                0.01401951               -0.21677536                0.04179661                0.19853534                1.65296043                0.06131065                0.33037508
               8.88432405                4.81431920               89.16851714                0.01207157               -0.15763684               -0.35098371                0.37102854                1.61819801               -0.32466418                0.93330931
               9.88209757                4.80316595               89.17581408                0.59601288               -0.22264820               -0.84646924                0.25942270                1.40804283               -0.23758903                0.94722518
              -0.08942859                5.83063398               89.11570599                0.87409056               -0.03300292               -0.08857138                0.11877358                0.02549887                0.01079389               -0.10397658
               0.91024138                5.81859881               89.12048389                0.02761128                0.00445624               -0.01369980                0.13259468                0.18727593                0.20497066                0.01932036
               1.91066053                5.80985820               89.12912862                0.01000001               -0.09607148               -0.39744433                0.26527951                0.97833398                0.28385161               -0.06328063
               2.90831995                5.81157038               89.13450161                0.01000000               -0.23364722               -0.27686206                0.24240890                1.28932401                0.01141600                0.14701877
               3.90598759                5.81305196               89.14128903                0.01437027               -0.15310889               -0.24313035                0.19959367                1.14716688                0.12224532                0.02147087
               4.90525777                5.81253829               89.14850097                0.01674149               -0.13388109               -0.11918317                0.19158656                1.25883539                0.05814482                0.20571655
               5.90330997                5.81435931               89.15531438                0.01000001               -0.22815806               -0.23530117                0.18738674                1.34637418               -0.00822865                0.04391284
               6.90069461                5.81385525               89.16157665                0.01000000               -0.18865356                0.01365143                0.17370259                1.55364255               -0.00433666                0.15854521
               7.89953690                5.81872213               89.16910225                0.01000000               -0.06759832               -0.23220366                0.12621506                1.48273583               -0.11241593                0.37788953
               8.89934264                5.81246636               89.17673048                0.01000000               -0.01285176               -0.24022886                0.36142636                0.91250746                0.13015410                0.92771283
               9.89927986                5.80057080               89.18443495                0.52498471               -0.00627835                0.02579152                0.50631167                0.72074663                0.24618116                0.71628669
              -0.07761196                6.82986381               89.11895742                0.99920178               -0.03323410               -0.06769742                0.10944219                0.01082817                0.00776506               -0.10913032
               0.92205570                6.81846855               89.12436537                0.33595220               -0.02659023               -0.01613599                0.12983012                0.06055047                0.08131918                0.02636258
               1.92185623                6.80802868               89.13121078                0.01448575               -0.19796141               -0.11498481                0.17829002                0.61316915                0.23252922               -0.00108762
               2.91809647                6.80852745               89.13957660                0.01000000               -0.30353888               -0.40925525                0.28603708                1.22735513                0.35735520                0.03507607
               3.91578546                6.81042242               89.14668651                0.01128789               -0.15709280               -0.52562376                0.23436596                1.41863191                0.25767178               -0.03216953
               4.91495461                6.81193214               89.15416633                0.01000001               -0.04411962               -0.19534880                0.14765339                1.45207097                0.13400523                0.23923579
               5.91490306                6.81165762               89.16197767                0.01000000                0.02074879               -0.19662275                0.16155708                1.52708852                0.13387267                0.06168941
               6.91536959                6.81425344               89.17030772                0.01000000                0.06954283                0.06373667                0.14728547                1.56662570                0.11486474                0.15014451
               7.91629392                6.81541386               89.17833671                0.01000000                0.26779742               -0.21323285                0.18122887                1.13486944                0.32619186                0.39094391
               8.92072554                6.80951463               89.19001376                0.08031193                0.20048484               -0.16654715                0.05793846                0.79806597                0.21822239                0.48777421
               9.92030362                6.80368178               89.19838512                0.60255173               -0.04219203                0.14393549                0.24556084                0.76445651                0.11250572                0.14069941
              -0.06642151                7.82928003               89.12219526                1.00000000               -0.02909708               -0.05002087                0.09399893                0.00198864                0.01491341               -0.11404321
               0.93328752                7.81827609               89.12836929                0.78613009               -0.03567375               -0.02446017                0.12176272                0.01931751                0.04239296                0.02406673
               1.93286502                7.80755850               89.13505343                0.01000000               -0.14071060               -0.04399365                0.15591346                0.35289402                0.14995408                0.11319168
               2.93047331                7.80338528               89.14340859                0.01069201               -0.09547383               -0.60223981                0.21581274                1.01277762                0.12276280                0.22811131
               3.93095554                7.80253948               89.15215146                0.01000001                0.12953398               -1.20583401                0.30366614                1.71556486                0.22817370                0.21992052
               4.93306399                7.80863131               89.16171926                0.01405918                0.02874448               -0.21339177                0.17159247                1.65754192                0.37010470                0.13146609
               5.93153043                7.81042686               89.17002262                0.01000000               -0.23965512               -0.03298400                0.09350086                1.52477942                0.39889394               -0.02696947
               6.92827089                7.81512999               89.17896640                0.01000000               -0.22786646                0.28315664                0.16379340                1.11930813                0.39654581                0.34881942
               7.92697310                7.81445748               89.18819335                0.01138614               -0.06174184               -0.03273428                0.11630133                0.54624135                0.27635260                0.28314331
               8.92703605                7.80913541               89.19624603                0.47301704               -0.03692038               -0.04523277                0.19842424                0.05107721                0.10858641               -0.01151123
               9.92623469                7.80344951               89.20208842                0.99768205               -0.08013562               -0.05098059                0.28702238                0.01977182                0.01207340               -0.18902144
              -0.05556431                8.82886339               89.12537371                1.00000000               -0.02721179               -0.03393603                0.07971041               -0.00353576                0.00502741               -0.09529465
               0.94416357                8.81797935               89.13216036                0.99999998               -0.03153817               -0.03060496                0.11267726               -0.00035532                0.03275357                0.00845538
               1.94380493                8.80714881               89.13944442                0.99026015               -0.03962639               -0.03959123                0.14895994                0.01170174                0.09289412                0.08567955
               2.94337104                8.79648265               89.14728481                0.19473801                0.05228961               -0.37120975                0.18497623                0.14138885                0.40393987                0.10584654
               3.94485072                8.78630574               89.16058025                0.01000000               -0.15764851               -0.87483217                0.35015380                1.76022382                0.74652963               -0.53384501
               4.94021807                8.80766430               89.17009006                0.01501929               -0.29753712               -0.12241784                0.33459223                1.58410824                1.04512665               -0.22216592
               5.93889998                8.81099794               89.17851757                0.01335333               -0.32464710                0.04999094                0.31020839                0.93851621                1.01183603                0.21438970
               6.93372513                8.81991658               89.19115081                0.08144560               -0.28433280                0.24723095               -0.01865408                0.74878942                0.57718292                0.21446546
               7.93321332                8.81475918               89.19733662                0.43389786               -0.04850407               -0.01666614                0.15967718                0.05608741                0.03679848                0.12079847
               8.93275505                8.80860997               89.20259370                0.99999999               -0.05712292               -0.05736165                0.20400642               -0.01802917               -0.01592746               -0.00651533
               9.93207086                8.80266216               89.20810420                0.99457013               -0.06841887               -0.07733912                0.24994991               -0.00297339               -0.00068423               -0.03235361
              -0.04472413                9.82860131               89.12897517                1.00000000               -0.02808663               -0.02620866                0.07004625               -0.00971389               -0.05999272               -0.07237979
               0.95499500                9.81766399               89.13582357                0.99519414               -0.03400618               -0.03153584                0.10338159               -0.00858835               -0.06184737                0.00403263
               1.95459575                9.80676668               89.14259554                1.00000000               -0.04254263               -0.03821267                0.12315874               -0.00606352               -0.05577052                0.02730694
               2.95414415                9.79596108               89.14955578                0.89393380                0.01913120               -0.05215728                0.15151113               -0.00888148                0.14819768                0.02162025
               3.95497837                9.78504284               89.16037722                0.63655934               -0.70450997               -0.12629038               -0.09277956                1.52385869                1.47865907               -1.03438011
               4.94005395                9.80618295               89.17825239                0.60043071               -0.84649453               -0.14813473                0.19461265                1.30277967                1.12896184               -0.10606482
               5.93804848                9.81142668               89.18678193                0.52921578               -0.02842544                0.04287335                0.44498967                0.60943281                0.82135500                0.29491182
               6.93948544                9.82007461               89.20021993                0.59948234                0.06764874                0.01580289                0.12454906                0.71090489                0.26608841                0.11152859
               7.93940145                9.81412416               89.20405873                0.95069808               -0.03564818               -0.06350211                0.21672742                0.01449205               -0.11580622                0.01735506
               8.93877248                9.80798818               89.20912647                0.99458618               -0.06653062               -0.06217916                0.21425670               -0.00932866               -0.01955242                0.00506762
               9.93807084                9.80190273               89.21460872                1.00000000               -0.07016372               -0.07594374                0.25436403               -0.00854745                0.00129027               -0.00682029
              -0.15746911               -0.17282665               90.09394165                0.88919317               -0.00696107               -0.00698087                0.10219034                0.00511284                0.00359291                0.00253975
               0.84246128               -0.17895976               90.09773304                0.70154203                0.03241395               -0.05190159                0.10177026                0.04142171                0.01155499                0.00076318
               1.84317917               -0.18346669               90.10165210                0.57454155                0.07269648               -0.02049447                0.10444766                0.05174748                0.02506392               -0.00030489
               2.84391521               -0.18499306               90.10564839                0.51610288                0.03165151               -0.01735373                0.11294326                0.04331916                0.01407425                0.00311258
               3.84381220               -0.18417640               90.10947562                0.56919574               -0.05778469               -0.01743985                0.12141448                0.02750633               -0.03429446                0.01205760
               4.84275952               -0.18310789               90.11289466                0.73028236               -0.10384236               -0.02680552                0.11911739                0.03905178               -0.08601951                0.01614322
               5.84173536               -0.18317710               90.11600304                0.91370702               -0.08914526               -0.03216815                0.11177891                0.02516536               -0.11028892                0.01277619
               6.84097661               -0.18423091               90.11899379                0.99229797               -0.06734360               -0.03147712                0.10199681                0.00759319               -0.11992084                0.00891625
               7.84038848               -0.18592848               90.12191299                0.99514993               -0.05002065               -0.02700593                0.08646946               -0.00007973               -0.12694593                0.01608608
               8.83997620               -0.18795938               90.12478867                0.99870807               -0.03278399               -0.02431556                0.07227526               -0.00480040               -0.10471490                0.00411803
               9.83973280               -0.18999879               90.12813550                1.00000000               -0.02433967               -0.02621733                0.06215725               -0.01104906               -0.07906289               -0.06715526
              -0.15128486                0.82710355               90.09788112                0.70136059               -0.05196187                0.03231804                0.10172567                0.04142119                0.00015589                0.01013812
               0.84819552                0.82052122               90.10164599                0.19253372               -0.10009214               -0.09988199                0.10125348                0.15413670                0.00312320                0.00440994
               1.84671330                0.81632837               90.10548351                0.01028098               -0.17461313               -0.06153024                0.10469565                0.32116777                0.00832687               -0.00024668
               2.84470326                0.81483340               90.10941177                0.01000000               -0.17843098               -0.04515044                0.11449410                0.52977761                0.01677733                0.04550012
               3.84314468                0.81564920               90.11338683                0.01117658               -0.10264369               -0.08152717                0.12894867                0.58092580                0.02716118                0.10732713
               4.84265038                0.81662406               90.11729102                0.01000001               -0.02980798               -0.07339054                0.13503790                0.43673984                0.03166099                0.15714056
               5.84254852                0.81650122               90.12103979                0.08449256               -0.01110724                0.05048780                0.13330662                0.12679632                0.02728741                0.26521699
               6.84242824                0.81545432               90.12472788                0.38426353               -0.01482971               -0.02403659                0.12965244                0.05967405                0.03064106                0.10040842
               7.84225192                0.81380146               90.12849701                0.75930590               -0.02324457               -0.03593463                0.11796988                0.01674838                0.02545809                0.04828005
               8.84196335                0.81179746               90.13204238                0.98032888               -0.02951011               -0.02581692                0.10639512                0.00044186                0.00811438                0.03254565
               9.84166172                0.80973904               90.13545092                1.00000000               -0.03016270               -0.03409800                0.09624257               -0.00807083                0.00334155               -0.07703671
              -0.14347603                1.82781972               90.10194104                0.57377912               -0.02047725                0.07230534                0.10443057                0.05191422               -0.00048709                0.02344770
               0.85631920                1.81904260               90.10564528                0.01014143               -0.06168095               -0.17403387                0.10443579                0.32111207               -0.00216420                0.01018810
               1.85529035                1.81530271               90.10932712                0.01000001               -0.05646339               -0.05444794                0.10276713                0.73670587                0.04294411                0.04672015
               2.85518993                1.81410393               90.11398901                0.01000001               -0.08251446               -0.10059639                0.09755438                0.96332707                0.03250182                0.12424637
               3.85364006                1.81419306               90.11918746                0.01000001               -0.22738162               -0.11820659                0.14756809                1.09303615                0.04649413                0.18214085
               4.85064230                1.81542430               90.12449788                0.01164313               -0.40995222               -0.07055584                0.20396781                1.11955546                0.15108583                0.28426040
               5.84544102                1.81783266               90.13110252                0.01184908               -0.28862169               -0.12089761                0.18149209                0.87907910                0.06211917                0.33441961
               6.84486986                1.81528836               90.13225078                0.01131065               -0.05303523               -0.14694216                0.18209391                0.55172187               -0.03631769                0.29021292
               7.84438031                1.81335282               90.13568274                0.01000000               -0.04112028               -0.23544034                0.15287665                0.47422821                0.11241260                0.18207823
               8.84404746                1.81152428               90.13980380                0.98737541               -0.03460356               -0.02677974                0.13731150                0.02773608                0.08572479                0.10085474
               9.84368824                1.80931925               90.14254640                0.99999999               -0.03592165               -0.04409137                0.11906977               -0.00541128                0.01904361               -0.07610326
              -0.13269234                2.82854965               90.10608125                0.51517021               -0.01728907                0.03038948                0.11293159                0.04348442                0.00294647                0.01260892
               0.86713477                2.81704054               90.10973377                0.01000000               -0.04607892               -0.17702139                0.11405158                0.53043052                0.04306172                0.01827079
               1.86638608                2.81523941               90.11415485                0.01000001               -0.10276616               -0.07866970                0.09856480                0.96126629                0.12220729                0.03700565
               2.86507945                2.81282147               90.11925603                0.01000000               -0.13505288               -0.13166404                0.13780741                1.03237578                0.15932144                0.16521536
               3.86368503                2.81328507               90.12495412                0.01000001               -0.18387782               -0.08495941                0.17219273                1.28605237                0.18866428                0.21715809
               4.86140189                2.81521294               90.13130040                0.01218355               -0.17094936               -0.11664283                0.19690438                1.28511082                0.14179907                0.22954207
               5.86026604                2.81408327               90.13697771                0.01728201               -0.17296880               -0.30413383                0.26306732                1.22339858                0.16296580                0.05636564
               6.85794252                2.81251548               90.14173223                0.01733028               -0.23827345               -0.24043809                0.22268081                0.93331533                0.22261973                0.17578284
               7.85550057                2.80909265               90.14499697                0.01000001               -0.56954367               -0.15836992                0.23219369                0.88042441                0.22974891                0.21582224
               8.84655164                2.81126187               90.14827209                0.44824143               -0.47685067                0.05859526                0.18434221                0.30810477                0.10762665                0.37390229
               9.84596356                2.80885721               90.14999766                0.97353422               -0.05880858               -0.03322332                0.15656666                0.05766938                0.02667085                0.06908572
              -0.11958812                3.82842751               90.11005082                0.56896305               -0.01738249               -0.05984728                0.12141213                0.02803202                0.01192136               -0.03555106
               0.88023805                3.81550217               90.11386554                0.01115984               -0.08385644               -0.10031273                0.12839042                0.58090785                0.10412937                0.02785631
               1.87873475                3.81372931               90.11950872                0.01000001               -0.12231356               -0.22200309                0.14697111                1.08880135                0.17611698                0.04982562
               2.87779178                3.81147065               90.12512237                0.01000001               -0.08825545               -0.17849395                0.17135858                1.28146146                0.21001035                0.19702439
               3.87696964                3.81249387               90.13176861                0.01291389               -0.11227335               -0.10943494                0.18324171                1.38639320                0.21641601                0.22847217
               4.87554631                3.81309145               90.13809317                0.01741881               -0.21815954               -0.21531760                0.22077314                1.27290454                0.11147683                0.20405312
               5.87260645                3.81174998               90.14312282                0.01000000               -0.35097611               -0.18910687                0.24629822                1.13214205                0.03797487                0.06826576
               6.86852679                3.81047960               90.14887558                0.01000000               -0.46820183               -0.28381758                0.24046405                1.23424022               -0.02947293                0.16495079
               7.86324241                3.81018542               90.15463180                0.01000000               -0.90408997                0.17715902                0.24260474                1.23567446                0.28159768                0.13064418
               8.85044499                3.81269619               90.16111277                0.10700838               -0.67957328                0.34317148                0.09015493                1.07250577                0.34303967                0.51060819
               9.84965094                3.80865478               90.16030101                0.98194596               -0.07940459               -0.54762184                0.10835719                0.86447331                0.02422834                0.29821440
              -0.10628102                4.82735271               90.11361324                0.73053984               -0.02678544               -0.10554442                0.11916877                0.03990967                0.01589052               -0.08622242
               0.89345112                4.81503429               90.11791800                0.01000001               -0.07626711               -0.02770035                0.13443749                0.43671230                0.15369268                0.03119461
               1.89219363                4.81079935               90.12496920                0.01164268               -0.07535006               -0.40191600                0.20237067                1.11703218                0.28124789                0.15388642
               2.89194412                4.80925159               90.13164992                0.01221869               -0.12007708               -0.16493763                0.19541387                1.27579246                0.22622350                0.15053216
               3.88979209                4.81109637               90.13828569                0.01743390               -0.21701256               -0.21477783                0.21817471                1.26652822                0.19356091                0.12773951
               4.88760387                4.81090659               90.14469269                0.01366127               -0.21356837               -0.21665524                0.20006068                1.14518834                0.17345045                0.19214320
               5.88552072                4.81030113               90.15020246                0.01386179               -0.17059942               -0.19706713                0.20209841                1.00831864                0.14567850                0.02398769
               6.88419188                4.80683913               90.15528632                0.01000000               -0.37616249               -0.18462332                0.25598943                1.39996240                0.18800442                0.10396406
               7.87799747                4.81263583               90.16265612                0.01000001               -0.73297412                0.14357712                0.23243573                1.99226431                0.19979332                0.04573171
               8.86953240                4.81812530               90.17257904                0.11897163               -0.33308239               -0.08382272                0.25336918                1.51822716               -0.26864561                0.72613540
               9.87133583                4.79790477               90.17493318                0.88795359                0.18034286               -0.66635966               -0.00797534                0.32612049               -0.49216385                0.97517864
              -0.09415309                5.82631662               90.11687230                0.91332234               -0.03212487               -0.09016811                0.11182435                0.02555060                0.01249557               -0.10955658
               0.90552566                5.81494816               90.12181160                0.08335590                0.05055902               -0.00982050                0.13281663                0.12879258                0.26447629                0.02608330
               1.90685809                5.80569099               90.13176734                0.01185717               -0.12575279               -0.28264261                0.18287661                0.87597560                0.33416214                0.05745108
               2.90301060                5.80817189               90.13747647                0.01726312               -0.31064405               -0.16735824                0.26109047                1.21165808                0.05320410                0.17068250
               3.90064521                5.80819831               90.14349768                0.01000000               -0.18826418               -0.34725650                0.24163805                1.12050222                0.06408944                0.05623494
               4.89924532                5.80875834               90.15043962                0.01387049               -0.19024629               -0.17502330                0.19615859                0.99899721                0.01264394                0.16386681
               5.89684028                5.80780864               90.15715194                0.01000000               -0.25269880               -0.25802424                0.17469987                1.02204315                0.02108908                0.04341436
               6.89419134                5.80678713               90.16346062                0.01000000               -0.25193764                0.03198306                0.19113737                1.48833602                0.06008943                0.18633658
               7.89180153                5.81305697               90.17056038                0.01000000                0.06746242               -0.19688288                0.22469947                1.73777883                0.28490532                0.14476753
               8.89554059                5.81101973               90.18145719                0.21545548                0.24064391               -0.58398483                0.30016309                1.18299717                0.37166261                0.49901590
               9.89661441                5.79532759               90.19066758                0.69360848                0.10738145               -0.10121247                0.25561316                0.43860622                0.33767063                0.65773573
              -0.08303310                6.82554935               90.12001691                0.99085985               -0.03143007               -0.06821967                0.10201422                0.00775522                0.00861482               -0.11858743
               0.91665260                6.81483788               90.12564119                0.38190797               -0.02387421               -0.01389796                0.12931336                0.06141973                0.09858940                0.02917951
               1.91648941                6.80514649               90.13302422                0.01130625               -0.14913181               -0.05135301                0.18220356                0.54584916                0.28759562               -0.04124858
               2.91366996                6.80590443               90.14238214                0.01735045               -0.24368618               -0.23238848                0.22125920                0.92200661                0.17404734                0.22668075
               3.91161569                6.80415124               90.14944025                0.01000000               -0.28482376               -0.46003200                0.23509068                1.21668272                0.16525665               -0.01377230
               4.90797348                6.80740612               90.15571652                0.01000000               -0.18414481               -0.37317773                0.24901396                1.38222168                0.10269939                0.21861372
               5.90793279                6.80514065               90.16375226                0.01000000                0.03683955               -0.25541967                0.18271417                1.47986179                0.17506818                0.10001505
               6.90871028                6.80747879               90.17195873                0.01000001                0.02938304                0.02323335                0.19964241                1.56271440                0.14761499                0.17933508
               7.90852045                6.80869817               90.17997223                0.01000001                0.11057205               -0.24958883                0.19265864                1.40851848                0.13406887                0.33837242
               8.91092172                6.80644560               90.19023796                0.29805650                0.14858892               -0.40589364                0.06912848                0.61510305                0.05809569                0.38034612
               9.91149223                6.79588052               90.19959569                0.70293866                0.05705153                0.05904132                0.05395169                0.12103241                0.06157790               -0.03567314
              -0.07257506                7.82495222               90.12309517                0.99999999               -0.02680404               -0.05060751                0.08619059                0.00032377                0.01562083               -0.12484622
               0.92715690                7.81467020               90.12955348                0.75733820               -0.03582113               -0.02265343                0.11768888                0.01772911                0.04691664                0.02444194
               1.92670852                7.80466393               90.13659609                0.01000000               -0.23554590               -0.04065632                0.15308541                0.46949818                0.18101574                0.10919974
               2.92244599                7.80352412               90.14579173                0.01000001               -0.16156781               -0.55960197                0.22862341                0.87158459                0.21907515                0.22537609
               3.92347716                7.79899767               90.15535388                0.01000000                0.17271802               -0.88366268                0.22957783                1.21631982                0.15379601                0.28338544
               4.92590035                7.80129479               90.16356845                0.01000001                0.14438417               -0.71996197                0.20770046                1.95723489                0.06848137                0.21032554
               5.92636485                7.80270025               90.17137568                0.01000000               -0.20061192                0.06688804                0.20547800                1.72232654                0.15162194                0.30833893
               6.92188811                7.80725180               90.18047210                0.01000001               -0.26798817                0.11493961                0.17811788                1.42260118                0.32499033                0.15690187
               7.92100509                7.80806519               90.19128788                0.05039337               -0.06139036               -0.05209695                0.16838880                0.75403510                0.22194087                0.23458777
               8.92066030                7.80290186               90.19800717                0.56280120               -0.04199376               -0.21822443                0.14751753                0.22631896               -0.00753402                0.10434799
               9.92016521                7.79650842               90.20497321                1.00000000               -0.04950904                0.00814292                0.23680367                0.10355318                0.04327906               -0.17003780
              -0.06246259                8.82453720               90.12613814                0.99862047               -0.02419447               -0.03290076                0.07206666               -0.00465720                0.00354485               -0.10284873
               0.93729547                8.81438481               90.13324942                0.98091490               -0.02559797               -0.02932026                0.10628628                0.00068758                0.03148013                0.00759597
               1.93702545                8.80433337               90.14085915                0.99004602               -0.02637794               -0.03453331                0.13744158                0.02858406                0.09909596                0.08371639
               2.93676791                8.79471239               90.14917295                0.45826500                0.05729847               -0.47029737                0.18573678                0.30927120                0.36987087                0.10362931
               3.93817142                8.78647799               90.16181467                0.11340733                0.33238489               -0.66487358                0.08927449                1.05314163                0.51251224                0.33269505
               4.94341561                8.79300688               90.17329369                0.12551472               -0.08745580               -0.32368043                0.20686050                1.48851325                0.70307235               -0.27109275
               5.93642231                8.80647841               90.18212678                0.22489273               -0.58091253                0.24420332                0.24150566                1.16006934                0.44307207                0.33024200
               6.93179736                8.80977758               90.19077600                0.30700640               -0.42356048                0.16261772                0.03835448                0.61986956                0.44739165                0.04422573
               7.92795110                8.80765623               90.19868868                0.53814214               -0.23962445               -0.03364215                0.11435926                0.23665043                0.15071792                0.00239044
               8.92700487                8.80208111               90.20453952                0.99999999               -0.08004600               -0.07092601                0.17952230                0.04052161               -0.00764903               -0.00245892
               9.92635018                8.79604338               90.21057884                0.99964555               -0.06546901               -0.06011705                0.23978524                0.00738305                0.00367115               -0.06670338
              -0.05236343                9.82429421               90.12963643                1.00000000               -0.02620875               -0.02429867                0.06190024               -0.01112549               -0.06604159               -0.07806332
               0.94737448                9.81408380               90.13681076                1.00000000               -0.03419729               -0.03010126                0.09619303               -0.00814578               -0.07629680                0.00295500
               1.94695262                9.80397327               90.14376102                0.99999999               -0.04438473               -0.03601013                0.11947882               -0.00556406               -0.07570320                0.01794421
               2.94648679                9.79411818               90.15107272                0.97769001               -0.03535609               -0.05942112                0.15792324                0.05823452                0.06857753                0.02652144
               3.94624550                9.78570020               90.16122488                0.98985697               -0.54082987               -0.07777870                0.10945399                0.84255785                0.29635816                0.02572330
               4.93567019                9.79482118               90.17568892                0.89842870               -0.67249830                0.18142941               -0.08726948                0.31966381                1.00790359               -0.51921020
               5.93279554                9.80758431               90.19132445                0.70441000               -0.12812573                0.11059048                0.17330271                0.42147177                0.66670905                0.27938374
               6.93310768                9.81050416               90.20025668                0.70520274                0.03195131                0.07265740               -0.00634660                0.12143340                0.08645600                0.02474503
               7.93343456                9.80739235               90.20624513                0.98636470               -0.00120459               -0.02638861                0.17513563                0.09730554               -0.09005700                0.04654050
               8.93308358                9.80148334               90.21126008                0.99962234               -0.05231146               -0.05977744                0.20978852                0.00355799               -0.05480661                0.00769551
               9.93238833                9.79530608               90.21718375                0.99569204               -0.06952504               -0.07373053                0.26004708               -0.01391073               -0.00515807               -0.01100500
              -0.16121671               -0.17673204               91.09495576                0.87659251               -0.00539031               -0.00541272                0.10035344                0.00515006                0.00471130                0.00376770
               0.83872939               -0.18285720               91.09874450                0.69791508                0.03480581               -0.05244094                0.10037246                0.04219571                0.01395739                0.00194645
               1.83947941               -0.18729936               91.10269001                0.58559716                0.07114451               -0.02154662                0.10319731                0.05157324                0.03131464                0.00034546
               2.84015228               -0.18872525               91.10676934                0.52967582                0.01814542               -0.01561330                0.11111070                0.04398211                0.02257902                0.00451157
               3.83984232               -0.18798392               91.11067025                0.60112074               -0.07537410               -0.01689697                0.11621073                0.03319376               -0.03428484                0.01551120
               4.83864480               -0.18740310               91.11404704                0.77659794               -0.11195556               -0.02639843                0.10962417                0.04452698               -0.09002140                0.01852963
               5.83760321               -0.18817867               91.11707301                0.95309180               -0.09022931               -0.03074718                0.10061141                0.02534284               -0.11461959                0.01429858
               6.83684021               -0.18999424               91.11997339                1.00000000               -0.06823282               -0.02919208                0.09058242                0.00549859               -0.12700480                0.01141526
               7.83623855               -0.19250054               91.12274014                0.99617803               -0.04981800               -0.02498089                0.07660354               -0.00210307               -0.13513169                0.01568906
               8.83584385               -0.19534828               91.12546945                1.00000000               -0.03071050               -0.02121182                0.06448302               -0.00737759               -0.10867410                0.00338326
               9.83562434               -0.19817883               91.12871190                1.00000000               -0.02195117               -0.02606290                0.05444310               -0.01199636               -0.08030210               -0.06708429
              -0.15504005                0.82321383               91.09889212                0.69768628               -0.05249468                0.03471154                0.10034318                0.04218810                0.00144206                0.01268922
               0.84443501                0.81661839               91.10265579                0.23409260               -0.10153961               -0.10134797                0.10072225                0.15722785                0.00688428                0.00796202
               1.84292916                0.81248517               91.10653396                0.01111022               -0.17503148               -0.06326141                0.10555813                0.32856898                0.01922970               -0.00184388
               2.84093438                0.81111862               91.11056874                0.01128186               -0.17079901               -0.01963750                0.11733054                0.47682432                0.03350601                0.03777724
               3.83951318                0.81184711               91.11469748                0.01000000               -0.08734685               -0.07331784                0.13339098                0.50609209                0.04607735                0.11197261
               4.83918744                0.81233292               91.11865372                0.01000000               -0.01804876               -0.11673773                0.13737987                0.39109969                0.04275327                0.18018084
               5.83915221                0.81151386               91.12237420                0.17221301               -0.00656542                0.03644130                0.13501872                0.13212484                0.03469134                0.23909194
               6.83905613                0.80971383               91.12604067                0.46466805               -0.01288356               -0.02233572                0.13179369                0.05824413                0.03236323                0.11304310
               7.83889453                0.80724966               91.12967174                0.74151367               -0.02234552               -0.03629916                0.11612710                0.01423005                0.02020596                0.04807620
               8.83860922                0.80443960               91.13308190                0.99999998               -0.02798038               -0.02104812                0.09894572                0.00050256                0.00419548                0.02808926
               9.83833493                0.80156054               91.13638632                0.99443625               -0.02742943               -0.03892483                0.08807562               -0.00879737                0.00201340               -0.08136662
              -0.14718206                1.82396219               91.10297884                0.58502176               -0.02153340                0.07079153                0.10320729                0.05171607                0.00018242                0.02988694
               0.85260261                1.81511584               91.10669311                0.01066321               -0.06336936               -0.17451734                0.10530519                0.32848352               -0.00348611                0.02082328
               1.85155055                1.81143541               91.11036989                0.01000001               -0.11378915               -0.11107440                0.10574020                0.80791106                0.04081129                0.04513601
               2.85032682                1.81088200               91.11499903                0.01000001               -0.14003447               -0.08244989                0.05063846                1.00030327                0.05902781                0.08821502
               3.84874986                1.81054972               91.12065097                0.01000000               -0.17633918               -0.13614499                0.15785416                0.98577167                0.14874445                0.20816613
               4.84680004                1.81026215               91.12648604                0.01000000               -0.29425403               -0.12296811                0.22582834                0.98937587                0.17835255                0.27118161
               5.84286478                1.81255016               91.13213589                0.01000000               -0.22653696               -0.14528725                0.10941275                0.83067689                0.11630754                0.29809507
               6.84226930                1.80955904               91.13407960                0.01000000               -0.05337014               -0.29081141                0.17574268                0.60558190               -0.00883190                0.27029576
               7.84179738                1.80677348               91.13720138                0.01000000               -0.03631427               -0.23123081                0.15177094                0.45137615                0.09611213                0.20079501
               8.84154302                1.80423076               91.14113573                0.94667277               -0.02954318               -0.01296461                0.12939694                0.04786368                0.07847524                0.09875726
               9.84120652                1.80104267               91.14376485                0.99925955               -0.03364984               -0.06367865                0.12669287                0.00016680                0.01631030               -0.08338158
              -0.13631302                2.82462966               91.10720250                0.52906286               -0.01555197                0.01703194                0.11112509                0.04405595                0.00435894                0.02124673
               0.86353146                2.81312804               91.11088653                0.01130927               -0.01828811               -0.16952527                0.11690448                0.47826022                0.03672611                0.03481847
               1.86332122                2.81026368               91.11518356                0.01000001               -0.08526659               -0.13614448                0.05111028                0.99883036                0.08465890                0.06150570
               2.86182613                2.80946962               91.12093063                0.01000000               -0.17363708               -0.16673957                0.18470454                1.11305196                0.20457266                0.21103444
               3.85984847                2.80912421               91.12698870                0.01000000               -0.24258021               -0.14130071                0.20339332                1.19758353                0.19820615                0.20943765
               4.85697452                2.80987355               91.13313272                0.01000000               -0.16898126               -0.12230422                0.18135676                1.16777938                0.23019493                0.14319052
               5.85646885                2.80860812               91.13922147                0.01682953               -0.00150362               -0.36393711                0.19741956                0.93452094                0.12343920                0.11851981
               6.85694445                2.80389761               91.14335411                0.01000000               -0.16092546               -0.25254206                0.15436920                0.72434377                0.05015348                0.17736109
               7.85325034                2.80262504               91.14721540                0.01000000               -0.58235737               -0.19667721                0.24771423                0.93482842               -0.08655886                0.43125044
               8.84529730                2.80418031               91.15009235                0.60323094               -0.42679519                0.05802399                0.17242582                0.36985935                0.08744657                0.28636354
               9.84471444                2.80028697               91.15162756                0.99643441               -0.05828666               -0.12568602                0.17643507                0.09636796                0.02556667                0.01277308
              -0.12329770                3.82430283               91.11124549                0.60112689               -0.01685107               -0.07701770                0.11621964                0.03370188                0.01539642               -0.03540525
               0.87653379                3.81172533               91.11517055                0.01000000               -0.07583621               -0.08538329                0.13279376                0.50652669                0.10944430                0.04666457
               1.87518558                3.80871252               91.12097387                0.01000000               -0.14032288               -0.17335042                0.15791151                0.98274157                0.20378058                0.14973249
               2.87372733                3.80754721               91.12715027                0.01000000               -0.14439862               -0.23741919                0.20287013                1.19483920                0.20284450                0.20552236
               3.87229760                3.80772371               91.13347630                0.01000000               -0.15278054               -0.15067327                0.21419527                1.25294276                0.16976508                0.17671804
               4.87067172                3.80781606               91.14022938                0.01510664               -0.23832274               -0.20306731                0.20516035                1.16053472                0.09338196                0.13186527
               5.86753115                3.80527142               91.14577836                0.01000000               -0.39662335               -0.28969162                0.25657704                1.09178893                0.06187945                0.10859138
               6.86273925                3.80450820               91.15087048                0.01169514               -0.36599528               -0.12114726                0.21356645                1.02950277                0.17760901                0.08040922
               7.86021124                3.80283994               91.15606520                0.01166212               -0.57304912                0.12094748                0.18473667                0.97930729                0.25228920                0.25948672
               8.85127827                3.80539124               91.16164749                0.34121581               -0.46453405                0.21585870                0.05710121                0.85328969                0.30407201                0.39577733
               9.85092056                3.79852895               91.16162768                0.98838757               -0.03577096               -0.39920105                0.16098808                0.45535059                0.05762831                0.21103863
              -0.11048399                4.82308931               91.11476609                0.77680741               -0.02637053               -0.11318245                0.10970459                0.04512762                0.01828310               -0.09016496
               0.88925230                4.81142037               91.11927430                0.01000000               -0.11809205               -0.01640213                0.13672885                0.39047207                0.17684789                0.04231138
               1.88715417                4.80679667               91.12694634                0.01000000               -0.12702914               -0.28801613                0.22349544                0.98971008                0.26016657                0.18557785
               2.88671172                4.80472124               91.13347207                0.01000000               -0.12578421               -0.16476975                0.18001716                1.16202153                0.13887286                0.23476562
               3.88463848                4.80611075               91.14041188                0.01512637               -0.20371048               -0.23508053                0.20367036                1.15497920                0.12631404                0.10035244
               4.88263751                4.80581221               91.14620183                0.01354512               -0.15129962               -0.15121372                0.17267236                0.89441059                0.05833978                0.06503637
               5.88161249                4.80281429               91.15223789                0.01761244               -0.13357609               -0.17968129                0.19560657                0.94210292                0.09162336                0.08072948
               6.87996599                4.80147466               91.15878189                0.01000000               -0.48295215               -0.17993168                0.28256516                1.39892033                0.09941114                0.14498116
               7.87195345                4.80504399               91.16525437                0.01000001               -0.66459537                0.07307187                0.24017909                1.70250025                0.21628288                0.12763315
               8.86667408                4.80849749               91.17358452                0.34825645               -0.22037127               -0.03017422                0.06854454                1.13246891                0.24868082                0.05125722
               9.86754602                4.79230295               91.17565457                0.99999999                0.08719409               -0.47329744                0.10654575                0.21514274               -0.11962296                0.68845593
              -0.09905728                5.82203918               91.11794248                0.95284499               -0.03068533               -0.09100551                0.10069586                0.02559919                0.01403840               -0.11391863
               0.90063587                5.81139729               91.12314022                0.17077013                0.03680970               -0.00550559                0.13442422                0.13404438                0.23820100                0.03380154
               1.90167891                5.80295220               91.13278615                0.01000000               -0.14910876               -0.22108577                0.10784507                0.82837815                0.29514108                0.11566694
               2.89765369                5.80425182               91.13972342                0.01685602               -0.36863460                0.00122794                0.19691925                0.92597875                0.11531976                0.12604586
               3.89430622                5.80302210               91.14612179                0.01000000               -0.28986476               -0.39099823                0.25398780                1.08288462                0.10583671                0.06757511
               4.89185640                5.80479179               91.15242414                0.01760889               -0.17977333               -0.13183130                0.19259069                0.93573844                0.07359732                0.10239974
               5.89071075                5.80167779               91.15880838                0.01000002               -0.16842184               -0.16900510                0.16660019                0.83337539                0.07420654                0.08898221
               6.88848796                5.80090957               91.16539940                0.01000000               -0.17361649               -0.03229980                0.19698281                1.23797592                0.17676585                0.19342825
               7.88723842                5.80430137               91.17359624                0.01000001               -0.09096334               -0.17950901                0.27302845                1.63104058                0.31962020                0.02701645
               8.88666869                5.80478776               91.18273374                0.44165539                0.01870350               -0.39629545                0.11940034                1.01757720                0.04592106                0.12383422
               9.88761249                5.78906300               91.18954721                0.87507845                0.09438029               -0.18201288               -0.04961207                0.19120997               -0.09152186                0.48012334
              -0.08868823                6.82126920               91.12099771                0.99999998               -0.02915968               -0.06886560                0.09064531                0.00568473                0.01112924               -0.12594756
               0.91102017                6.81131026               91.12695164                0.46138016               -0.02222844               -0.01202948                0.13134213                0.05974133                0.11163873                0.03112230
               1.91086720                6.80237496               91.13485485                0.01000000               -0.29293911               -0.05223146                0.17596831                0.60018519                0.26815810               -0.01270669
               2.90516139                6.80474580               91.14400179                0.01000000               -0.25554972               -0.15749168                0.15318649                0.71795800                0.17751912                0.05163029
               3.90575620                6.79829078               91.15138833                0.01167207               -0.12324022               -0.35946682                0.20932524                1.01891517                0.07745842                0.18370818
               4.90269658                6.80317558               91.15914661                0.01000000               -0.17969940               -0.47655656                0.27749714                1.38494093                0.14174240                0.11607336
               5.90216222                6.79943418               91.16563196                0.01000000               -0.02973306               -0.17293375                0.19235001                1.23007766                0.18567016                0.19841483
               6.90210192                6.80082867               91.17430056                0.01000002               -0.07330741               -0.07294050                0.22487223                1.41950791                0.20004203                0.22296436
               7.90069607                6.80145381               91.18218988                0.01000000                0.00810345               -0.19342929                0.22871472                1.31906674                0.26335901                0.19641244
               8.90226399                6.80057158               91.19139633                0.51487392                0.10618262               -0.39334705                0.11135866                0.68701168                0.06101944                0.12271108
               9.90281972                6.78866269               91.19946415                0.80534922                0.05557285                0.00012978                0.00256780                0.08689631               -0.00884921                0.11078032
              -0.07902572                7.82066187               91.12391908                0.99745203               -0.02493509               -0.05020217                0.07654249               -0.00190308                0.01522194               -0.13337674
               0.92072493                7.81115670               91.13072307                0.73721841               -0.03636007               -0.02181396                0.11594956                0.01488474                0.04701956                0.01924099
               1.92024708                7.80190757               91.13811514                0.01000000               -0.23139524               -0.03583780                0.15235998                0.44706995                0.19860519                0.09314656
               2.91609703                7.80110198               91.14798106                0.01000000               -0.19961698               -0.57357729                0.24358977                0.92883740                0.41822458               -0.07394299
               3.91625474                7.79583276               91.15674301                0.01169165                0.11573932               -0.56010716                0.18036774                0.96913466                0.26247213                0.24711343
               4.91841181                7.79526066               91.16587327                0.01000001                0.07022414               -0.65268045                0.22051563                1.68285904                0.13250001                0.22461346
               5.91765922                7.79821912               91.17413218                0.01000001               -0.17766606               -0.08900851                0.25298288                1.61534947                0.02225374                0.33826461
               6.91485849                7.79945076               91.18252875                0.01000000               -0.18911880                0.00939215                0.21586120                1.31114104                0.18216911                0.28738185
               7.91387685                7.80043279               91.19156113                0.02707535               -0.08292240               -0.08020355                0.07030768                0.96190737                0.10946580                0.12308857
               8.91320004                7.79692081               91.19919638                0.69236253               -0.03543265               -0.26318464                0.10953844                0.35403619                0.01222585                0.07612001
               9.91316819                7.78906560               91.20682449                0.99787872               -0.00318486                0.02274334                0.14257060                0.07677467                0.03708969               -0.08896366
              -0.06971596                8.82026515               91.12681505                1.00000000               -0.02118737               -0.03092026                0.06439273               -0.00751240                0.00285318               -0.10689607
               0.93007217                8.81087398               91.13428609                0.99999998               -0.02103632               -0.02781526                0.09900221                0.00062976                0.02716132                0.00400002
               1.92986331                8.80165820               91.14219325                0.94763886               -0.01296127               -0.02928712                0.12983810                0.04864579                0.09704647                0.07680296
               2.92981294                8.79327425               91.15099954                0.60921567                0.05584569               -0.42050065                0.17277349                0.36926265                0.28193139                0.08472266
               3.93098023                8.78708864               91.16236574                0.34733736                0.20772355               -0.45479357                0.05923766                0.84411529                0.39498966                0.29526617
               4.93396741                8.79012197               91.17422727                0.35609434               -0.03505607               -0.21261908                0.06525209                1.11330066                0.06347530                0.24955902
               5.93027911                8.79765401               91.18334768                0.45030111               -0.39281687                0.01999507                0.11489179                1.00251085                0.13149021                0.05151800
               6.92611107                8.80101651               91.19191790                0.52026046               -0.39074738                0.10786952                0.10829331                0.68155583                0.13228724                0.06480607
               7.92246416                8.79984974               91.19962380                0.67815853               -0.26995849               -0.02453648                0.09148964                0.35057222                0.08460453                0.02328250
               8.92071190                8.79530788               91.20618415                1.00000000               -0.11992577               -0.11099173                0.15085950                0.14027526               -0.00379490                0.00052022
               9.92006564                8.78911756               91.21289991                0.99926113               -0.06462615               -0.02963910                0.21607379                0.02857447                0.00496701               -0.07219889
              -0.06039363                9.82004346               91.13021318                1.00000000               -0.02618964               -0.02216929                0.05453227               -0.01207313               -0.06618548               -0.07913158
               0.93934448                9.81060039               91.13774743                0.99635815               -0.03933237               -0.02735893                0.08825927               -0.00885059               -0.08066704                0.00199554
               1.93881973                9.80132182               91.14498512                0.99999997               -0.06463177               -0.03363781                0.12740673                0.00022029               -0.08264896                0.01561960
               2.93805184                9.79269197               91.15271424                0.99798254               -0.12652000               -0.05822811                0.17737674                0.09464366                0.01287879                0.02521187
               3.93628933                9.78673689               91.16256630                0.99040193               -0.39696954               -0.03517468                0.16238335                0.44672515                0.21544650                0.05726325
               4.93011245                9.79100827               91.17650700                0.99999998               -0.47372109                0.08863015                0.11032765                0.20861042                0.68593120               -0.10962050
               5.92681491                9.79861902               91.19024798                0.88826718               -0.19092841                0.09650060               -0.04802374                0.18357363                0.49206173               -0.08648879
               6.92629388                9.80160815               91.20009300                0.80802859               -0.01089944                0.05916384               -0.00080653                0.08443300                0.14477742               -0.01552448
               7.92659692                9.79994206               91.20756144                1.00000000                0.02219227                0.00923214                0.10414068                0.06791751               -0.05196028                0.03289292
               8.92673773                9.79470098               91.21332224                0.99921506               -0.02382886               -0.06069044                0.19541573                0.02912052               -0.06368744                0.00683997
               9.92612034                9.78847282               91.21980967                0.99521320               -0.06173898               -0.06447384                0.25665429               -0.01734645               -0.01526714               -0.01722135
              -0.16495235               -0.18062400               92.09594872                0.85946542               -0.00414753               -0.00417542                0.09813326                0.00495523                0.00584540                0.00502974
               0.83500618               -0.18674342               92.09974049                0.68885054                0.03664845               -0.05247317                0.09884266                0.04233504                0.01593455                0.00358592
               1.83578062               -0.19114767               92.10371605                0.59476619                0.06901874               -0.02407224                0.10246723                0.05252023                0.03566244                0.00161744
               2.83638655               -0.19250165               92.10787060                0.54700324                0.00340910               -0.01391045                0.10932231                0.04368308                0.02565033                0.00665552
               3.83584880               -0.19192062               92.11179983                0.64155978               -0.09151082               -0.01714370                0.10844350                0.04079368               -0.04104906                0.01930900
               4.83455634               -0.19195066               92.11508714                0.82717660               -0.11660968               -0.02606676                0.09792228                0.04859418               -0.09700834                0.02014509
               5.83351661               -0.19349351               92.11801527                0.98600175               -0.08934774               -0.02863085                0.08609560                0.02455278               -0.11995699                0.01596863
               6.83276938               -0.19613717               92.12080544                0.99999999               -0.06634082               -0.02538576                0.07523121                0.00163856               -0.13107079                0.01479495
               7.83218979               -0.19947790               92.12344507                0.99622078               -0.04692101               -0.02203515                0.06454732               -0.00647096               -0.13419430                0.01570594
               8.83183096               -0.20311663               92.12607833                0.99787414               -0.02739703               -0.01904076                0.05681030               -0.01039920               -0.10321906               -0.00051277
               9.83164185               -0.20668932               92.12922437                0.99196039               -0.01891078               -0.02519179                0.04803386               -0.01214045               -0.07425050               -0.06289253
              -0.15878337                0.81933425               92.09988798                0.68868670               -0.05252688                0.03655348                0.09883287                0.04233100                0.00316774                0.01482137
               0.84069136                0.81273185               92.10366044                0.27890290               -0.10158482               -0.10141289                0.10024012                0.15648037                0.01151961                0.01239587
               1.83918494                0.80861161               92.10759468                0.03421906               -0.17407517               -0.06482534                0.10667688                0.33237180                0.03246866               -0.00331770
               2.83720986                0.80735925               92.11175838                0.01000000               -0.16018440               -0.09960064                0.12092113                0.44995949                0.05350513               -0.02412374
               3.83598125                0.80790794               92.11605465                0.01000000               -0.06905677               -0.10071116                0.13783093                0.48542801                0.06710835                0.12054042
               4.83582872                0.80778867               92.12003862                0.01524704               -0.00629281               -0.08402032                0.13924232                0.32401605                0.05359026                0.22096425
               5.83585539                0.80622018               92.12374017                0.31172062               -0.00253808                0.02204026                0.13858237                0.12386496                0.04110610                0.21076330
               6.83577796                0.80360898               92.12736375                0.58766316               -0.01202883               -0.02409969                0.13128796                0.04699597                0.02921713                0.11045682
               7.83561481                0.80030174               92.13081955                0.74634656               -0.02226424               -0.03485121                0.11138903                0.00703096                0.00749640                0.04470156
               8.83533268                0.79669297               92.13402129                0.95241278               -0.02608349               -0.01971997                0.09035021               -0.00102253               -0.00533415                0.02154065
               9.83509315                0.79305876               92.13721243                0.99999999               -0.02395330               -0.04501459                0.08173238               -0.00770267               -0.00342531               -0.07129635
              -0.15090092                1.82010707               92.10400518                0.59422020               -0.02406578                0.06868462                0.10250843                0.05263139                0.00146723                0.03437547
               0.84885842                1.81122832               92.10775138                0.03370958               -0.06492138               -0.17361852                0.10643846                0.33228105               -0.00468939                0.03378333
               1.84780065                1.80755583               92.11144192                0.01000000               -0.13845068               -0.13730334                0.10804912                0.65641248               -0.01357730               -0.01006394
               2.84608941                1.80550634               92.11500178                0.01000000               -0.13363564               -0.12341632                0.05870372                0.93326147                0.14646695                0.08252139
               3.84512794                1.80606516               92.12234455                0.01000001               -0.16824942               -0.16297232                0.17675115                1.01642024                0.31661048                0.19440534
               4.84272442                1.80636893               92.12901445                0.01000000               -0.24771675               -0.17276294                0.30464043                0.94132149                0.09204393                0.46246003
               5.84017361                1.80694729               92.13329077                0.01000000               -0.15483431               -0.17044876                0.11639418                0.68349735                0.05913796                0.26995140
               6.83962774                1.80338084               92.13576563                0.01319536               -0.04635909               -0.21685796                0.15560239                0.40257392                0.00185223                0.22481260
               7.83924642                1.79982507               92.13871816                0.01624869               -0.02871203               -0.07239535                0.14826596                0.22622348                0.07207283                0.23944629
               8.83905349                1.79648897               92.14239174                0.92980216               -0.02451056               -0.01077931                0.12603736                0.05705242                0.06287972                0.08875902
               9.83875621                1.79241039               92.14508026                0.99999999               -0.02972820               -0.09044600                0.13775597                0.00770800                0.01665833               -0.06348504
              -0.13997323                2.82070794               92.10830375                0.54657785               -0.01385370                0.00243662                0.10935592                0.04368349                0.00655038                0.02442054
               0.85988823                2.80925947               92.11207186                0.01000000               -0.09958023               -0.15903133                0.12050633                0.44988669               -0.02516228                0.05458885
               1.85803516                2.80586554               92.11517705                0.01000000               -0.12612360               -0.12973211                0.05747720                0.93307165                0.07700392                0.14742077
               2.85736576                2.80489092               92.12295012                0.01000000               -0.12940519               -0.12333431                0.18934250                1.10198943                0.24967846                0.25434289
               3.85544706                2.80464850               92.12902198                0.01000001               -0.17963700               -0.17300542                0.20778191                1.08001911                0.12824773                0.22787167
               4.85377302                2.80433341               92.13492753                0.01039949               -0.14668137               -0.18546461                0.19705676                1.02750881                0.13186174                0.24830504
               5.85251343                2.80281120               92.14092610                0.01000000               -0.14106782               -0.30209486                0.17391537                0.89838627                0.02424345                0.27289873
               6.85095166                2.79927182               92.14481961                0.01000001               -0.27411406               -0.33604179                0.20935909                0.91035116               -0.08355867                0.34169380
               7.84703115                2.79885384               92.14995125                0.01000000               -0.35316251               -0.12444421                0.26990531                0.77351642               -0.20911452                0.52769975
               8.84388841                2.79647738               92.15172061                0.64806444               -0.18133342                0.03152949                0.15500369                0.21532311                0.01141419                0.19248039
               9.84340448                2.79124984               92.15352636                0.99924814               -0.04839298               -0.17809214                0.19647342                0.08159205                0.02190293                0.01988386
              -0.12713032                3.82015581               92.11237521                0.64168032               -0.01711301               -0.09277625                0.10848825                0.04126122                0.01920260               -0.04199920
               0.87269855                3.80804769               92.11652141                0.01000000               -0.10195233               -0.06743155                0.13720622                0.48624903                0.11863036                0.06750684
               1.87083064                3.80496118               92.12266695                0.01000001               -0.16761544               -0.15834618                0.17582063                1.00779971                0.19038152                0.31572602
               2.86934625                3.80303965               92.12917977                0.01000001               -0.17724032               -0.17585853                0.20751283                1.07670677                0.22296833                0.13157509
               3.86728583                3.80260505               92.13605252                0.01000000               -0.21171773               -0.20952866                0.28540038                1.18807702                0.22161054                0.22664500
               4.86511189                3.80265964               92.14219637                0.01000000               -0.20414520               -0.21604309                0.22903218                1.07359932                0.20094091                0.07970678
               5.86320293                3.80090540               92.14825436                0.01509704               -0.16598830               -0.19627509                0.20827015                0.81300297                0.14768728                0.20766669
               6.86179213                3.79666000               92.15314691                0.01000001               -0.28458688               -0.20309907                0.22227846                0.93213773                0.22817409                0.18752881
               7.85751119                3.79733619               92.15832653                0.01000001               -0.54140854               -0.05981938                0.20761734                1.04744554                0.08872481                0.31023083
               8.85096395                3.79711956               92.16225479                0.43924519               -0.33340280                0.07934046                0.08085161                0.58648771                0.16130281                0.25734695
               9.85084313                3.78884854               92.16352078                0.99999998               -0.01208202               -0.37477416                0.19807914                0.24283721                0.04374878                0.24305747
              -0.11493178                4.81885242               92.11580733                0.82730954               -0.02603859               -0.11745876                0.09807222                0.04896812                0.01992666               -0.09709876
               0.88480783                4.80791084               92.12065258                0.01459133               -0.09345117               -0.00504202                0.13859666                0.32968268                0.21658869                0.05314384
               1.88319919                4.80269862               92.12943910                0.01000000               -0.17759012               -0.24326831                0.30544047                0.94049896                0.45962631                0.09477141
               2.88125603                4.80137375               92.13525027                0.01039848               -0.18052910               -0.14382799                0.19542095                1.01972078                0.24710735                0.13519599
               3.87958861                4.80045792               92.14235910                0.01000000               -0.21556856               -0.20158384                0.22764976                1.07070948                0.07419093                0.20641338
               4.87694466                4.80001255               92.14814613                0.01000001               -0.24077421               -0.23990413                0.27739149                1.06732837                0.02651280                0.03391901
               5.87477313                4.79888570               92.15411459                0.01000001               -0.18905168               -0.23555877                0.22956388                0.86717533               -0.03466008                0.19380751
               6.87316363                4.79520984               92.16093762                0.01000001               -0.36263132               -0.07614883                0.20688493                0.99592078               -0.06448394                0.24632952
               7.86752050                4.79765745               92.16745970                0.01000000               -0.45289073               -0.03372038                0.19198265                1.31013758                0.24201824                0.12753520
               8.86410581                4.79806419               92.17394993                0.44659871               -0.13586165               -0.07174769                0.05125415                0.78204981                0.19081902                0.06425714
               9.86480327                4.78375436               92.17706410                0.99999999                0.06974586               -0.38640344                0.13359271                0.08471142                0.00576011                0.46815111
              -0.10426781                5.81780663               92.11888622                0.98558555               -0.02861886               -0.08993085                0.08630069                0.02469174                0.01570759               -0.11942309
               0.89544600                5.80794685               92.12450009                0.30968232                0.02227578               -0.00166849                0.13796081                0.12547905                0.20968679                0.04027849
               1.89617771                5.80009582               92.13392424                0.01000000               -0.17323232               -0.15676226                0.11512449                0.69097393                0.26706726                0.06013985
               2.89198136                5.80016310               92.14141485                0.01000000               -0.30582437               -0.13471768                0.17245019                0.89541943                0.27061141                0.02607592
               3.89006122                5.79857337               92.14857744                0.01508583               -0.19753387               -0.16268683                0.20679485                0.80649449                0.20400320                0.15159667
               4.88803068                5.79786156               92.15429144                0.01000001               -0.23560354               -0.18670440                0.22873814                0.86204476                0.18851049               -0.02715332
               5.88534915                5.79619422               92.16048394                0.01000000               -0.25459439               -0.25502776                0.29749901                0.94972891                0.16819713                0.17586969
               6.88293879                5.79513703               92.16740027                0.01000001               -0.22447807               -0.02005564                0.29352997                1.17285617                0.27670656                0.24841549
               7.88085959                5.79666178               92.17602095                0.01000001               -0.12153747               -0.14979561                0.22130487                1.48594751                0.28394817                0.08386450
               8.88050804                5.79568461               92.18384520                0.50547820                0.01487195               -0.28135037                0.09951752                0.76103594                0.10324830                0.00320256
               9.88115703                5.78112047               92.18967534                0.93837862                0.06489846               -0.14677521                0.03068561                0.06240264               -0.02190208                0.33778350
              -0.09471839                6.81705380               92.12182981                0.99981075               -0.02533842               -0.06696418                0.07538195                0.00182717                0.01440074               -0.13016826
               0.90502823                6.80787747               92.12826803                0.58422415               -0.02395897               -0.01131387                0.13081711                0.04824008                0.10972973                0.02838936
               1.90480243                6.79956338               92.13654359                0.01321243               -0.21706803               -0.04536770                0.15565456                0.40234290                0.22244181               -0.00078591
               2.90068686                6.79867940               92.14544587                0.01000001               -0.33911959               -0.25577928                0.20676019                0.89210289                0.33935224               -0.08433674
               3.89802004                6.79720419               92.15362675                0.01000001               -0.20610796               -0.28054182                0.21963579                0.91861211                0.18517806                0.22995999
               4.89656471                6.79627846               92.16126646                0.01000001               -0.07639002               -0.35775860                0.20481010                0.98557302                0.24519407               -0.05702841
               5.89649224                6.79378515               92.16759927                0.01000001               -0.02057585               -0.22222033                0.29057764                1.16677717                0.24206270                0.28799953
               6.89615319                6.79480872               92.17645618                0.01000001                0.00998161                0.01225350                0.23045628                1.30200683                0.22411496                0.23670452
               7.89669187                6.79466154               92.18454653                0.03798730               -0.06426770               -0.17843689                0.20852415                1.16478202                0.21541562                0.13524160
               8.89486783                6.79243718               92.19246514                0.60182805               -0.07561379               -0.30240853                0.09866987                0.56453635                0.04549543               -0.03226632
               9.89517959                6.78081885               92.19964705                0.84793786                0.03117598                0.00864578                0.03696159                0.06285523               -0.01186348                0.11792925
              -0.08587861                7.81646735               92.12462602                0.99999999               -0.02201578               -0.04743143                0.06472892               -0.00613797                0.01545913               -0.13261825
               0.91390123                7.80772057               92.13187247                0.74355739               -0.03493733               -0.02185104                0.11144253                0.00766924                0.04443071                0.00702226
               1.91342264                7.79918846               92.13964329                0.01481104               -0.08593133               -0.02819644                0.14903634                0.23887185                0.23500921                0.06933931
               2.91218260                7.79504751               92.15066353                0.01000000               -0.12941219               -0.35028714                0.26950241                0.76606297                0.52501416               -0.20862398
               3.91083440                7.79296254               92.15896123                0.01000001               -0.05107109               -0.53220791                0.20315905                1.02411625                0.31319677                0.08762544
               4.91116118                7.79070639               92.16797876                0.01000000               -0.03399815               -0.44570675                0.18520158                1.29628695                0.13065086                0.24530680
               5.91015444                7.79174981               92.17643534                0.01000001               -0.15293216               -0.11960899                0.21173604                1.47724771                0.08327692                0.29147071
               6.90810254                7.79538210               92.18478932                0.03749241               -0.18138319               -0.06496310                0.20611335                1.16785112                0.12713048                0.22704610
               7.90652677                7.79309304               92.19269403                0.13516599               -0.12305418               -0.12699838                0.12378141                0.64697091                0.01882918                0.03829941
               8.90564146                7.78963644               92.20019794                0.78642489               -0.04379897               -0.22357612                0.09638342                0.34926893                0.00220919               -0.02741023
               9.90565079                7.78129339               92.20782462                0.99532221                0.00093363                0.03976875                0.09680992                0.05761501                0.00458838               -0.02745922
              -0.07734761                8.81610517               92.12742600                0.99656838               -0.01919014               -0.02760154                0.05701659               -0.01032337               -0.00080075               -0.10179936
               0.92246049                8.80744045               92.13522946                0.95173811               -0.01997310               -0.02597737                0.09071863               -0.00088777                0.02096492               -0.00553162
               1.92225293                8.79899945               92.14345591                0.93075996               -0.01132198               -0.02432721                0.12664608                0.05716975                0.08711044                0.06106166
               2.92223405                8.79167366               92.15262842                0.65146304                0.02952766               -0.19272476                0.15509234                0.22705828                0.18942132                0.01135170
               3.92284349                8.78656003               92.16299943                0.44437014                0.07345569               -0.32590946                0.08277420                0.58089746                0.25815996                0.15600590
               4.92370317                8.78736433               92.17459873                0.45217086               -0.07410020               -0.13185366                0.05118697                0.76894431                0.07387447                0.18841936
               5.92136148                8.79139297               92.18442462                0.50771403               -0.27680922                0.01520658                0.09604143                0.75207361                0.01366161                0.10626140
               6.91816698                8.79350946               92.19294187                0.59904189               -0.29922672               -0.07693074                0.09420674                0.56579136               -0.02684451                0.05243299
               7.91537695                8.79212157               92.20051847                0.77520299               -0.22570587               -0.04590562                0.08772787                0.35477690               -0.03347752                0.01219408
               8.91365287                8.78796566               92.20755671                0.99999999               -0.11794759               -0.11462460                0.12955720                0.17064063               -0.02426606               -0.01876154
               9.91301800                8.78161423               92.21490032                0.99128799               -0.06348703               -0.00756276                0.18102063                0.03772433               -0.00478185               -0.05408865
              -0.06875564                9.81591532               92.13072708                0.99150616               -0.02551570               -0.01898553                0.04839967               -0.01223258               -0.06208369               -0.07348609
               0.93098920                9.80720103               92.13857595                0.99999999               -0.04557615               -0.02394258                0.08218372               -0.00779909               -0.07030592               -0.00365764
               1.93033283                9.79870192               92.14630916                0.99999998               -0.09130063               -0.02975266                0.13857150                0.00758952               -0.06208798                0.01614205
               2.92916319                9.79119301               92.15462025                0.99999996               -0.17855799               -0.04806416                0.19689933                0.08003471                0.02139598                0.02146710
               3.92676167                9.78644435               92.16447255                0.99999998               -0.37280283               -0.01156827                0.19883752                0.23563384                0.24564754                0.04330682
               4.92170713                9.78806931               92.17789548                0.99999999               -0.38554494                0.07049848                0.13138224                0.08087629                0.47047221                0.00528655
               5.91905078                9.79205394               92.19036398                0.94664244               -0.15086836                0.06609783                0.02878097                0.05763784                0.34417367               -0.02234679
               6.91868976                9.79384348               92.20024055                0.84672530                0.00576681                0.03340221                0.03292636                0.05832728                0.13184444               -0.01173002
               7.91916611                9.79217493               92.20832794                1.00000000                0.04359235                0.00533598                0.08023951                0.05393966               -0.01441122                0.00241248
               8.91956161                9.78734395               92.21516839                0.99125939               -0.00289845               -0.06217115                0.16989275                0.03923476               -0.05233108               -0.00385597
               9.91910814                9.78114213               92.22231683                1.00000000               -0.04534680               -0.04720928                0.22749358               -0.01116661               -0.02057462               -0.01977632
              -0.16868334               -0.18450998               93.09691843                0.83767670               -0.00359111               -0.00362240                0.09586388                0.00463470                0.00685412                0.00615583
               0.83128075               -0.19062538               93.10072135                0.67248044                0.03729432               -0.05192039                0.09757404                0.04208188                0.01769788                0.00551536
               1.83206254               -0.19502427               93.10473936                0.59964845                0.06503803               -0.02827886                0.10299302                0.05468945                0.03756026                0.00403788
               2.83258151               -0.19636769               93.10895578                0.56873176               -0.01288731               -0.01273377                0.10795890                0.04214531                0.01944658                0.01028542
               3.83180480               -0.19610737               93.11283912                0.69040977               -0.10461558               -0.01794251                0.09887405                0.05025802               -0.05575324                0.02359119
               4.83048919               -0.19690316               93.11600548                0.87723288               -0.11595146               -0.02719531                0.08438876                0.04836658               -0.10894108                0.01916468
               5.82948577               -0.19930910               93.11879492                0.99797150               -0.08500994               -0.02372796                0.07046044                0.02075193               -0.12594255                0.01938375
               6.82878900               -0.20281497               93.12147802                0.98513421               -0.06019970               -0.02222495                0.06094686               -0.00410413               -0.13021125                0.01951044
               7.82828177               -0.20693538               93.12403109                0.96223234               -0.03944129               -0.01940217                0.05450141               -0.01095963               -0.12705772                0.01681356
               8.82800017               -0.21124446               93.12660565                0.89518175               -0.02172585               -0.01985324                0.05238524               -0.01292336               -0.09682644               -0.00288749
               9.82784726               -0.21541282               93.12967258                0.94104020               -0.01529134               -0.03084595                0.05168323               -0.01314648               -0.07281453               -0.05273348
              -0.16252160                0.81545379               93.10086877                0.67232140               -0.05196966                0.03719580                0.09757483                0.04207370                0.00518950                0.01674197
               0.83695871                0.80885541               93.10466059                0.32174936               -0.09989058               -0.09972668                0.09998122                0.15152417                0.01663079                0.01729744
               1.83548059                0.80469294               93.10866750                0.06373772               -0.17070979               -0.06619898                0.10826473                0.33078121                0.04678303               -0.00377005
               2.83354451                0.80350497               93.11298717                0.01000000               -0.14527413               -0.11458085                0.12560643                0.43961468                0.07634033               -0.03157405
               3.83257511                0.80371320               93.11745410                0.01000000               -0.04853936               -0.12110664                0.14078760                0.42922623                0.08857358                0.12762638
               4.83257372                0.80282489               93.12143857                0.14335811                0.00370432                0.07627946                0.14217628                0.19729587                0.06415483                0.30558272
               5.83264919                0.80045362               93.12514585                0.51396560               -0.00063138                0.00361762                0.14003280                0.09742399                0.04191096                0.17228207
               6.83256110                0.79696278               93.12866643                0.72704518               -0.01311366               -0.02927948                0.12492364                0.02534713                0.01568834                0.08878110
               7.83238692                0.79287060               93.13189952                0.76717714               -0.02257213               -0.03169592                0.10198758               -0.00374086               -0.01308798                0.03993453
               8.83210965                0.78855700               93.13488891                0.84439454               -0.02513893               -0.02244538                0.08729864               -0.00767659               -0.01833099                0.01974968
               9.83188414                0.78427872               93.13802097                0.99334597               -0.02255098               -0.05640710                0.08815321               -0.01205781               -0.01122542               -0.05140006
              -0.15464511                1.81623393               93.10502901                0.59925380               -0.02828116                0.06471250                0.10304681                0.05478343                0.00389554                0.03642583
               0.84507208                1.80738008               93.10882188                0.06325756               -0.06631402               -0.17028142                0.10804510                0.33070111               -0.00487213                0.04782927
               1.84402861                1.80365175               93.11253088                0.01000000               -0.13592692               -0.13529372                0.10915483                0.62315234               -0.01070632               -0.00835470
               2.84235354                1.80134069               93.11617311                0.01000001               -0.14796040               -0.15632421                0.13565836                0.86245004                0.20861155                0.18025666
               3.84106940                1.80147050               93.12418599                0.01000000               -0.23294232               -0.18697638                0.23501855                1.05713249                0.43412591                0.19667099
               4.83769469                1.80462243               93.13257885                0.01617738               -0.18865201               -0.05835791                0.21341430                0.72133356                0.10925841                0.38270050
               5.83729636                1.80076325               93.13446378                0.01422079               -0.04078648               -0.06755604                0.11324698                0.31947252               -0.06422540                0.22232670
               6.83687896                1.79659944               93.13719165                0.01059148               -0.03418159               -0.18062859                0.13314216                0.26772378                0.00499796                0.23556004
               7.83661273                1.79243070               93.14016670                0.19916484               -0.02202268                0.03500300                0.14354306                0.07436616                0.05160179                0.27647424
               8.83643851                1.78830663               93.14365648                0.95142976               -0.02250354               -0.01950673                0.12802994                0.04345828                0.04321289                0.07677486
               9.83616266                1.78345904               93.14651996                0.99999999               -0.02758516               -0.10172995                0.14558924               -0.00191688                0.01322286               -0.03047578
              -0.14371823                2.81674804               93.10938961                0.56846946               -0.01268611               -0.01373347                0.10802137                0.04212728                0.01020424                0.01832702
               0.85615491                2.80544978               93.11329666                0.01000000               -0.11493699               -0.14426687                0.12522844                0.43908035               -0.03292143                0.07716829
               1.85398303                2.80198707               93.11633310                0.01000001               -0.15900705               -0.14433813                0.13481258                0.86174699                0.17703403                0.20968566
               2.85297477                2.80037849               93.12471748                0.01000001               -0.17735065               -0.17310606                0.21487431                1.02171016                0.31989367                0.32286386
               3.85043602                2.79997368               93.13114434                0.01000000               -0.26335657               -0.12755014                0.23760763                1.19615308                0.15968046                0.27637896
               4.84770764                2.80165773               93.13707386                0.01000000               -0.16871876               -0.42154177                0.23049007                1.19614128                0.07047486                0.20840676
               5.84706164                2.79910250               93.14269978                0.01500793               -0.07297554               -0.22634935                0.16148918                0.69652350                0.03459748                0.19631682
               6.84624813                2.79335021               93.14754129                0.01000000               -0.24472942               -0.22293343                0.28281402                0.74098807               -0.04993300                0.46371489
               7.84216705                2.79357066               93.15261350                0.01580272               -0.21488245               -0.04472968                0.15928653                0.55408971               -0.09187536                0.31670160
               8.84195048                2.78816687               93.15319243                0.67163174               -0.03130374                0.00011107                0.14403484                0.07725224               -0.07747784                0.12786324
               9.84154098                2.78224413               93.15555703                0.99999999               -0.04094980               -0.18033358                0.19478162                0.06277145                0.01846922                0.05300891
              -0.13120605                3.81595926               93.11341525                0.69056762               -0.01792928               -0.10558583                0.09897516                0.05066178                0.02348456               -0.05654653
               0.86861466                3.80449475               93.11791467                0.01000000               -0.12295521               -0.04726030                0.14021724                0.43015603                0.12548096                0.08874237
               1.86633485                3.80076499               93.12449028                0.01000000               -0.19067613               -0.22761288                0.23431480                1.05748999                0.19286524                0.43496482
               2.86480114                3.79787857               93.13130053                0.01000000               -0.13108152               -0.25942012                0.23749712                1.19568025                0.27438206                0.16059503
               3.86371322                3.79891949               93.13918430                0.01695817               -0.11562211               -0.11297921                0.24508995                1.05517224                0.24311814                0.24589249
               4.86248869                3.79619160               93.14481002                0.01440703               -0.20894290               -0.36311034                0.25127857                1.05107074                0.15459856                0.12368482
               5.85953436                3.79623627               93.14994376                0.01000001               -0.26290621               -0.23208221                0.20075132                0.85076657                0.05976995                0.16178507
               6.85723057                3.79214077               93.15531605                0.01321110               -0.33282495               -0.06011576                0.19517414                0.71914547               -0.01457418                0.26962848
               7.85287786                3.79153611               93.16021755                0.01000000               -0.39602417               -0.18351905                0.20642697                0.88912616               -0.02541057                0.12490006
               8.84931009                3.78830885               93.16326452                0.45688100               -0.18071426                0.00126753                0.11366565                0.36259264                0.05423991                0.18032417
               9.84926357                3.77985237               93.16558926                0.99999999               -0.00465118               -0.33663618                0.20299733                0.14894815                0.01877796                0.26001622
              -0.11977596                4.81463632               93.11672754                0.87733173               -0.02717369               -0.11655131                0.08461762                0.04858452                0.01899749               -0.10898715
               0.87995230                4.80450458               93.12204623                0.14218526                0.07624832                0.00463317                0.14156431                0.19877029                0.30453882                0.06365996
               1.88174901                4.79743481               93.13305515                0.01619114               -0.06092166               -0.18572396                0.21573777                0.72280769                0.38853247                0.10550948
               2.87873387                4.79519008               93.13738049                0.01000000               -0.42612857               -0.16504159                0.23026148                1.19454341                0.20772084                0.07304495
               3.87322643                4.79771409               93.14496488                0.01440772               -0.36607962               -0.20665560                0.25102788                1.05009627                0.12070858                0.15715205
               4.87141228                4.79439553               93.15174966                0.01000000               -0.25493158               -0.25316038                0.26203626                0.89890873                0.04023254                0.04473191
               5.86812780                4.79446086               93.15682917                0.01000002               -0.30405406               -0.22628787                0.32786529                0.95919334                0.05516633                0.18451189
               6.86533120                4.79214789               93.16291959                0.01000000               -0.21731540               -0.08907253                0.26258349                0.83469669                0.11537735                0.22561436
               7.86378149                4.78990028               93.16909402                0.01000001               -0.22225652               -0.13221334                0.16682065                0.98194654                0.22930760                0.06932567
               8.86088606                4.78819222               93.17460960                0.46339233               -0.11742971               -0.09861224                0.08106520                0.56901520                0.11566614                0.10855264
               9.86143290                4.77551140               93.17832642                0.99880611                0.05468352               -0.33083231                0.13265536                0.04444809                0.01193456                0.41090794
              -0.10997086                5.81362824               93.11966849                0.99775991               -0.02375574               -0.08551454                0.07074686                0.02088249                0.01904530               -0.12552932
               0.88979158                5.80458741               93.12589944                0.51148182                0.00381795                0.00005437                0.13949277                0.09854815                0.17150591                0.04127766
               1.89010549                5.79705051               93.13508864                0.01422698               -0.06894276               -0.03973088                0.11262650                0.31897621                0.21983750               -0.06600176
               2.88841272                5.79457774               93.14317243                0.01501560               -0.22978975               -0.06898479                0.16032957                0.69336349                0.19472013                0.03494793
               3.88550970                5.79478638               93.15025769                0.01000001               -0.23463103               -0.26039508                0.20044311                0.84816931                0.15958744                0.06242411
               4.88372010                5.79112839               93.15699890                0.01000002               -0.22719195               -0.30239196                0.32704793                0.95699032                0.18045198                0.05963198
               5.88096586                5.79171051               93.16475836                0.01000001               -0.26175092               -0.26090392                0.39316999                1.14584418                0.21896749                0.22581830
               6.87848508                5.79035932               93.17127000                0.01000000               -0.22467002               -0.19870907                0.36692662                1.07435487                0.20632988                0.15332607
               7.87647246                5.78889184               93.17802234                0.01624923               -0.17029102               -0.12073611                0.20816435                1.05956081                0.21103259                0.03996064
               8.87507926                5.78633661               93.18472409                0.50115488               -0.04791445               -0.23093519                0.09144657                0.57656002                0.07315449                0.00014745
               9.87551417                5.77323572               93.19016092                0.92940136                0.04349075               -0.13197019                0.07483395                0.02919850               -0.01020256                0.30285142
              -0.10127666                6.81292603               93.12250534                0.98488312               -0.02223520               -0.06074600                0.06127708               -0.00396588                0.01916076               -0.12959484
               0.89850099                6.80450567               93.12956798                0.72485549               -0.02925713               -0.01258463                0.12472985                0.02594271                0.08842862                0.01509121
               1.89813820                6.79664019               93.13796794                0.01055342               -0.18178615               -0.03342422                0.13285435                0.26777189                0.23231916                0.00302512
               2.89486527                6.79381039               93.14813699                0.01000000               -0.22495161               -0.24153925                0.28209104                0.73663212                0.45988792               -0.05246202
               3.89363917                6.79250619               93.15578104                0.01324400               -0.06186571               -0.32868915                0.19424793                0.71155195                0.26947313               -0.01416160
               4.89362795                6.78834769               93.16324281                0.01000000               -0.09127051               -0.21469308                0.26184974                0.82836051                0.22360181                0.11902499
               5.89181376                6.78924278               93.17144351                0.01000000               -0.19954956               -0.22436664                0.36481785                1.06871838                0.14902319                0.21282968
               6.88963696                6.78817371               93.17890969                0.01000001               -0.14091678               -0.14266636                0.30984718                1.04500476                0.11116752                0.12425907
               7.88899542                6.78748555               93.18636037                0.01513985               -0.07817911               -0.18325035                0.19177140                0.88860821                0.01068868               -0.02637991
               8.88807338                6.78357352               93.19336972                0.63022773               -0.03883956               -0.25277852                0.09384740                0.42104124                0.01819530               -0.08293450
               9.88821863                6.77287200               93.20020339                0.85863664                0.01452510                0.00137095                0.07838214                0.05446952               -0.00616778                0.13075601
              -0.09320944                7.81241332               93.12521365                0.96294467               -0.01942826               -0.03989640                0.05490844               -0.01087226                0.01675083               -0.12571326
               0.90659627                7.80433572               93.13295192                0.76781120               -0.03171729               -0.02228956                0.10207140               -0.00353670                0.04013395               -0.01336087
               1.90615621                7.79638203               93.14109587                0.19717649                0.03415477               -0.02133118                0.14323102                0.07397997                0.27461581                0.04909612
               2.90727937                7.78974695               93.15337110                0.01581930               -0.04763850               -0.21329133                0.16190556                0.55115787                0.32578182               -0.10693932
               3.90520344                7.78821260               93.16080619                0.01000000               -0.18643224               -0.39043743                0.20447940                0.88107620                0.12702712               -0.02393716
               4.90355072                7.78683453               93.16957730                0.01000001               -0.13446170               -0.21870196                0.16452240                0.97011667                0.07169935                0.23162570
               5.90251421                7.78722318               93.17836690                0.01589210               -0.12041600               -0.16960881                0.20451276                1.05334524                0.04491143                0.21805833
               6.90114240                7.78750599               93.18665102                0.01448460               -0.18346947               -0.07798839                0.18811331                0.89235140               -0.02705776                0.02104726
               7.89884482                7.78522683               93.19403676                0.29623464               -0.15143803               -0.15129214                0.13811399                0.59796923               -0.05340389               -0.04352156
               8.89811364                7.78128103               93.20112405                0.84924177               -0.04191100               -0.18056587                0.09746300                0.29038320               -0.02286067               -0.08856026
               9.89800660                7.77326314               93.20876069                0.99999999               -0.01070468                0.03357859                0.09704699                0.05141886               -0.00808373                0.00462374
              -0.08533890                8.81212811               93.12795538                0.89529896               -0.01995500               -0.02208688                0.05269880               -0.01300309               -0.00281857               -0.09533949
               0.91446155                8.80405987               93.13610046                0.84601165               -0.02272672               -0.02507257                0.08750999               -0.00772640                0.01965963               -0.01829987
               1.91420656                8.79621357               93.14472617                0.95202690               -0.02018471               -0.02219222                0.12824198                0.04310702                0.07560362                0.04143688
               2.91405785                8.78954456               93.15410139                0.67380550               -0.00167231               -0.03046532                0.14434404                0.07604374                0.12631055               -0.07949027
               3.91417312                8.78469744               93.16402122                0.46032845               -0.00190726               -0.17779041                0.11432384                0.35763500                0.18200233                0.05233013
               4.91401971                8.78397365               93.17525101                0.46586906               -0.09819582               -0.11570098                0.07997958                0.56164521                0.11700305                0.11523235
               5.91220920                8.78585060               93.18526851                0.49936093               -0.22696867               -0.04649029                0.08823855                0.57396978                0.00875692                0.07757000
               6.90948033                8.78661394               93.19380204                0.62457564               -0.25147190               -0.03649044                0.08954520                0.42167553               -0.08062511                0.02062386
               7.90717976                8.78445971               93.20137836                0.84064538               -0.18178006               -0.04277363                0.09199789                0.29421458               -0.09452314               -0.01619519
               8.90584473                8.77996220               93.20877529                0.99999999               -0.09484859               -0.09402670                0.11705264                0.13362172               -0.04503335               -0.04056446
               9.90528279                8.77354357               93.21652032                0.99999999               -0.05619425               -0.00094399                0.14178357                0.02840553               -0.01708966               -0.04096465
              -0.07733304                9.81197158               93.13118117                0.94091477               -0.03106762               -0.01565280                0.05226094               -0.01314531               -0.05165808               -0.07180277
               0.92235628                9.80383426               93.13939110                0.99376701               -0.05666473               -0.02256094                0.08850392               -0.01219644               -0.04992274               -0.01121570
               1.92153366                9.79593818               93.14775655                0.99999998               -0.10199550               -0.02753885                0.14612643               -0.00212091               -0.02858555                0.01278472
               2.92031637                9.78913765               93.15665223                0.99999999               -0.18033047               -0.04069149                0.19482118                0.06178227                0.05497196                0.01806404
               3.91792705                9.78465679               93.16654305                0.99999999               -0.33429524               -0.00406518                0.20266004                0.14453681                0.26223294                0.01817097
               4.91363047                9.78452051               93.17913464                0.99898249               -0.32868732                0.05468613                0.13046615                0.04290496                0.41298377                0.01134148
               5.91135331                9.78629337               93.19082360                0.93233533               -0.13318306                0.04427687                0.07259291                0.02719437                0.30789156               -0.01032381
               6.91096681                9.78677618               93.20075152                0.85542659                0.00137711                0.01622407                0.07490122                0.05254657                0.13881009               -0.00561591
               7.91138085                9.78437136               93.20916623                0.99580677                0.03677061               -0.00883506                0.09017596                0.05132471                0.00914552               -0.00846902
               8.91170222                9.77940050               93.21672010                0.99999999                0.00155568               -0.05616978                0.13718327                0.02939364               -0.04211979               -0.01609258
               9.91141196                9.77324426               93.22435954                0.99941903               -0.02902544               -0.02993066                0.17067485               -0.00270644               -0.02379867               -0.02218417
              -0.17242111               -0.18840157               94.09786599                0.81127058               -0.00396897               -0.00399261                0.09383394                0.00478564                0.00767732                0.00710005
               0.82753920               -0.19451160               94.10169197                0.64701671                0.03592492               -0.05111347                0.09715805                0.04252452                0.01964541                0.00744498
               1.82829739               -0.19892318               94.10577591                0.59708948                0.05682577               -0.03321237                0.10527459                0.05730788                0.03611328                0.00835749
               2.82867572               -0.20035870               94.11002978                0.59476400               -0.03066766               -0.01308499                0.10604557                0.03965693                0.00010959                0.01627379
               3.82768404               -0.20067874               94.11377731                0.74509811               -0.11270002               -0.02076554                0.08897816                0.05798664               -0.08015510                0.02640123
               4.82642172               -0.20243353               94.11677492                0.91072572               -0.10794052               -0.02395047                0.06918876                0.04338691               -0.12412400                0.01984279
               5.82552523               -0.20580770               94.11942447                0.96348352               -0.07463661               -0.01953373                0.05879103                0.00953863               -0.12962764                0.02467739
               6.82492899               -0.21012379               94.12202438                0.91829608               -0.05021128               -0.02052413                0.05197647               -0.01263338               -0.12546386                0.02343761
               7.82452100               -0.21487850               94.12453509                0.84446209               -0.03380208               -0.01566716                0.05111504               -0.01989658               -0.11960678                0.01658919
               8.82425294               -0.21974088               94.12712603                0.79379446               -0.02346452               -0.02219809                0.05758015               -0.01894720               -0.09080384               -0.00247771
               9.82405171               -0.22444078               94.13025803                0.89454666               -0.02012324               -0.03758485                0.06963424               -0.01471036               -0.06945928               -0.04322101
              -0.16626322                0.81155850               94.10183948                0.64698930               -0.05115276                0.03581585                0.09715099                0.04249396                0.00718362                0.01882956
               0.83322526                0.80497726               94.10566006                0.34815928               -0.09713810               -0.09697800                0.10073891                0.14530516                0.02172059                0.02221402
               1.83179402                0.80074469               94.10975997                0.08734797               -0.16375944               -0.06768458                0.11153396                0.32355465                0.06038941               -0.00194259
               2.82995007                0.79951045               94.11427051                0.01000000               -0.12463511               -0.11300678                0.13315099                0.41498598                0.10072092               -0.02486925
               3.82930132                0.79911361               94.11887040                0.01000000               -0.02649999               -0.15064638                0.14228842                0.37685980                0.10822526                0.17581203
               4.82942007                0.79732696               94.12288215                0.37718455                0.00822130                0.04105938                0.14562117                0.15467229                0.06872314                0.23939466
               5.82946574                0.79399697               94.12654082                0.72476874               -0.00410059               -0.01762030                0.13430527                0.05475366                0.02710167                0.12146078
               6.82933806                0.78967097               94.12986223                0.81978317               -0.01675812               -0.03295131                0.11137282                0.00318228               -0.01109535                0.06276008
               7.82913058                0.78496483               94.13285930                0.75850022               -0.02467218               -0.02404592                0.09150541               -0.01706010               -0.03607279                0.04023106
               8.82884461                0.78003714               94.13576727                0.73672107               -0.02630385               -0.02690832                0.08968015               -0.02349561               -0.02692449                0.02101979
               9.82860451                0.77518337               94.13897550                0.91079123               -0.02401059               -0.06472018                0.10081890               -0.02327739               -0.01354936               -0.03413708
              -0.15840874                1.81231475               94.10606612                0.59667492               -0.03321386                0.05648680                0.10532444                0.05740799                0.00823304                0.03511528
               0.84125912                1.80354884               94.10991228                0.08692649               -0.06779776               -0.16336074                0.11135430                0.32347185               -0.00279138                0.06117417
               1.84023530                1.79972313               94.11362502                0.01000000               -0.13262954               -0.13224222                0.11020458                0.60966623                0.00983217                0.01169171
               2.83860653                1.79738116               94.11771495                0.01000000               -0.14152919               -0.16448324                0.16148148                0.77937683                0.29255552                0.24825822
               3.83740472                1.79630833               94.12704492                0.01000000               -0.19873612               -0.19679210                0.38560097                0.89947352                0.31874404                0.45911421
               4.83463180                1.79838766               94.13328274                0.01000000               -0.15642093               -0.05282929                0.06897721                0.58692861                0.11716271                0.16608299
               5.83427630                1.79383990               94.13555571                0.01000001               -0.03035166               -0.13697042                0.10744043                0.20508626               -0.04634734                0.15792036
               6.83402477                1.78921718               94.13842848                0.15788352               -0.02313335                0.03753716                0.12703244                0.07509541                0.00912786                0.27427448
               7.83381363                1.78464058               94.14158902                0.47397453               -0.02301421                0.00860973                0.14577614                0.04578480                0.03280480                0.21201822
               8.83356449                1.77972095               94.14495234                0.95999993               -0.02599690               -0.03052679                0.12837419                0.00874788                0.01873516                0.06475335
               9.83329369                1.77426482               94.14799204                0.99999999               -0.02707935               -0.09713244                0.14143289               -0.02360516                0.00268727               -0.00370550
              -0.14758324                2.81268824               94.11046418                0.59471370               -0.01304492               -0.03138965                0.10610659                0.03964486                0.01623805               -0.00088342
               0.85228631                2.80171005               94.11457643                0.01000000               -0.11308706               -0.12379357                0.13282771                0.41428180               -0.02586010                0.10131901
               1.85015502                2.79809985               94.11787331                0.01000000               -0.16669593               -0.13923442                0.16133487                0.77887618                0.24630869                0.29380349
               2.84895240                2.79622078               94.12724761                0.01029587               -0.19353642               -0.18963063                0.28651974                0.93056279                0.43051408                0.43269208
               3.84628429                2.79517776               94.13377414                0.01000000               -0.26626600               -0.13029870                0.24981063                1.06417899                0.31715191                0.20399041
               4.84362708                2.79627038               94.13953734                0.01000000               -0.17731747               -0.39650603                0.25927975                0.94461978                0.24119812               -0.01895445
               5.84273794                2.79125756               94.14415589                0.01000001               -0.17938975               -0.19140933                0.28833428                0.68836634                0.05457171                0.24714173
               6.84003928                2.79042171               94.15047589                0.01000001               -0.15977174               -0.12714522                0.18876630                0.55407727               -0.02827759                0.37024426
               7.83954251                2.78513702               94.15313698                0.01405318               -0.03219744               -0.06434546                0.05526958                0.21228853               -0.08132881                0.17554630
               8.83939533                2.77942660               94.15460130                0.70563936               -0.02489195               -0.02060402                0.13868019                0.06081278               -0.06456440                0.09039235
               9.83904467                2.77324072               94.15742200                1.00000000               -0.03506612               -0.14926743                0.17662289                0.04518838                0.00857275                0.07231329
              -0.13565946                3.81168695               94.11435472                0.74527584               -0.02073939               -0.11344033                0.08911468                0.05830159                0.02631804               -0.08074391
               0.86413314                3.80107297               94.11932576                0.01000000               -0.15192238               -0.02553845                0.14180379                0.37680835                0.17447615                0.10817327
               1.86130209                3.79693844               94.12735325                0.01000000               -0.19966380               -0.19446996                0.38614012                0.89980747                0.45813262                0.32022997
               2.86013987                3.79358855               94.13392972                0.01000000               -0.13316952               -0.26290146                0.24991845                1.06561204                0.20221999                0.31883527
               3.85863870                3.79370236               94.14095432                0.01000000               -0.13477309               -0.13250931                0.23982870                0.91091539                0.16345658                0.16553834
               4.85744441                3.79045754               94.14722195                0.01050937               -0.23732035               -0.37760349                0.27486430                0.92836487                0.05859222                0.15324619
               5.85389229                3.79001171               94.15226939                0.01000000               -0.31087769               -0.17481083                0.27201737                0.90926606                0.01476411                0.18696795
               6.85122685                3.78667428               94.15705039                0.01000003               -0.24188908               -0.33267660                0.25830969                0.82544991                0.00061098                0.13329178
               7.84905451                3.78335367               94.16245507                0.01000000               -0.22749062               -0.19489258                0.26175823                0.67543617               -0.11195284                0.14068512
               8.84667704                3.77930887               94.16452811                0.45043485               -0.12426480               -0.03254649                0.13429664                0.28585974               -0.03571199                0.14189427
               9.84656922                3.77127947               94.16758072                0.99459907               -0.01078245               -0.29199360                0.19390830                0.12524223                0.00312150                0.25324147
              -0.12518923                4.81041943               94.11749968                0.91083007               -0.02397741               -0.10843594                0.06947802                0.04351827                0.01963737               -0.12411954
               0.87457100                4.80119928               94.12348387                0.37584625                0.04124085                0.00888449                0.14510571                0.15569229                0.23879921                0.06827837
               1.87563559                4.79421045               94.13375386                0.01000000               -0.05351418               -0.15377247                0.06842922                0.58814272                0.16420365                0.11678283
               2.87350071                4.79096275               94.13985550                0.01000000               -0.40009874               -0.17414975                0.25982092                0.94419866               -0.02267370                0.24299512
               3.86763361                4.79252758               94.14737966                0.01052438               -0.38078462               -0.23483351                0.27599023                0.92716741                0.15153016                0.05980410
               4.86588502                4.78871831               94.15338686                0.01000000               -0.14635452               -0.14482422                0.27015585                0.74642049                0.14742605                0.14953886
               5.86470652                4.78776134               94.16067189                0.01778209               -0.13393515               -0.19577328                0.31848599                0.83074900                0.19941711                0.14551326
               6.86320632                4.78376818               94.16618929                0.01177604               -0.21449418               -0.22304131                0.27186464                0.80261915                0.15676357                0.05472498
               7.86041664                4.78123917               94.17079611                0.01000001               -0.30097951               -0.15795118                0.23324687                0.87895646               -0.00886948                0.10630683
               8.85718673                4.77877567               94.17557124                0.45964319               -0.14041602               -0.11907155                0.10965869                0.46585960                0.05290283                0.12197882
               9.85760832                4.76740085               94.17971720                1.00000000                0.04215912               -0.29894632                0.14978322                0.03802292                0.01003702                0.36597041
              -0.11634879                5.80951823               94.12030116                0.96358367               -0.01952398               -0.07513447                0.05909343                0.00968074                0.02431116               -0.12927492
               0.88345597                5.80125066               94.12728994                0.72277331               -0.01748709               -0.00362328                0.13398625                0.05539775                0.12109106                0.02671226
               1.88330147                5.79386299               94.13617677                0.01000001               -0.13746295               -0.02968973                0.10705412                0.20495578                0.15595094               -0.04782788
               2.88070671                5.79010555               94.14462144                0.01000001               -0.19374895               -0.17656362                0.28792722                0.68567540                0.24531918                0.05409466
               3.87942649                5.78900569               94.15258630                0.01000000               -0.17838306               -0.30775626                0.27319844                0.90627837                0.18509036                0.01522807
               4.87713905                5.78756105               94.16083240                0.01776556               -0.19845445               -0.13188690                0.31847327                0.82899057                0.14268434                0.20049421
               5.87545740                5.78609624               94.16834734                0.01673591               -0.16688231               -0.16640700                0.26035816                0.68758482                0.09444979                0.09740591
               6.87380141                5.78221345               94.17473881                0.01000001               -0.19156277               -0.09276469                0.26055887                0.71758824                0.02407264                0.03941159
               7.87162615                5.78019465               94.18018424                0.03453577               -0.19844284               -0.15598222                0.23240145                0.83714781               -0.02556247                0.03156423
               8.86983255                5.77692744               94.18567413                0.51604614               -0.07734173               -0.21985692                0.10656671                0.46539436                0.01403194               -0.00212583
               9.87007931                5.76530054               94.19117202                0.90660169                0.02467632               -0.12833210                0.12270187                0.02634006               -0.00115907                0.27555328
              -0.10846045                6.80891674               94.12305535                0.91862796               -0.02053461               -0.05075943                0.05235981               -0.01256047                0.02318869               -0.12477221
               0.89133420                6.80112681               94.13076263                0.81867462               -0.03298696               -0.01648882                0.11133120                0.00328175                0.06260550               -0.01138224
               1.89087981                6.79361666               94.13920067                0.15588527                0.03686604               -0.02254157                0.12652122                0.07494863                0.27253199                0.00736651
               2.89207152                6.78743148               94.15108769                0.01000001               -0.12880617               -0.15806137                0.18975142                0.55184977                0.36836909               -0.03043200
               3.88830368                6.78637245               94.15751171                0.01000003               -0.33486215               -0.23810361                0.25869871                0.81956727                0.13236275               -0.00079530
               4.88537428                6.78608057               94.16650346                0.01183591               -0.22489319               -0.21151772                0.27114623                0.79780802                0.05310397                0.15790651
               5.88380582                6.78443320               94.17489562                0.01000001               -0.09572982               -0.19051339                0.25965697                0.71769251                0.03778271                0.02753471
               6.88345968                6.78191288               94.18265312                0.03413458               -0.06801059               -0.06513786                0.27890868                0.58882214               -0.00136001                0.00339040
               7.88244561                6.77811952               94.18838195                0.18493834               -0.10354803               -0.14950152                0.18600873                0.59125812               -0.10734259               -0.11411450
               8.88138872                6.77437853               94.19434208                0.67289636               -0.05283459               -0.22338852                0.10936293                0.36712218               -0.03322431               -0.09455092
               9.88138892                6.76483421               94.20121469                0.85314232                0.00001955               -0.01158060                0.10859410                0.05239424               -0.00255741                0.12688645
              -0.10102013                7.80850305               94.12572419                0.84487439               -0.01581693               -0.03429402                0.05173821               -0.01990119                0.01666100               -0.11835022
               0.89882170                7.80092088               94.13391390                0.75896934               -0.02420446               -0.02457690                0.09169867               -0.01710989                0.04022727               -0.03623479
               1.89849578                7.79341216               94.14250791                0.47205048                0.00831080               -0.02245773                0.14502471                0.04538591                0.21098764                0.03075337
               2.89898791                7.78694433               94.15390164                0.01391598               -0.06635148               -0.03143764                0.05584103                0.21125779                0.17369934               -0.08400451
               3.89716875                7.78424362               94.16305082                0.01000000               -0.19767238               -0.22513368                0.26229365                0.67082975                0.14180436               -0.11368681
               4.89503447                7.78333070               94.17126921                0.01000001               -0.15949037               -0.29844704                0.23261399                0.87320090                0.11005456               -0.00768449
               5.89397894                7.78228598               94.18052559                0.03395483               -0.15714699               -0.19727679                0.23131136                0.83798855                0.03340235               -0.01862368
               6.89189153                7.78091069               94.18855159                0.18388618               -0.14966389               -0.10457238                0.18015265                0.59517949               -0.11678161               -0.09811464
               7.89098566                7.77720462               94.19545631                0.50819965               -0.07156079               -0.07256672                0.13890313                0.38082996               -0.10735944               -0.10475475
               8.89046031                7.77245967               94.20214720                0.89389535               -0.03849085               -0.14101034                0.11036350                0.20429150               -0.05564716               -0.09828707
               9.89021585                7.76506893               94.20976556                0.97179634               -0.02444645                0.01809380                0.09564374                0.05078727               -0.01897050                0.00800511
              -0.09369414                8.80823086               94.12847997                0.79390066               -0.02229651               -0.02376852                0.05805071               -0.01898570               -0.00218244               -0.08945186
               0.90608289                8.80063527               94.13697966                0.73757144               -0.02708894               -0.02627249                0.08975586               -0.02348467                0.02124366               -0.02699875
               1.90576408                8.79316750               94.14602075                0.96055518               -0.03088379               -0.02576487                0.12845800                0.00858371                0.06458855                0.01764998
               2.90546522                8.78680273               94.15551530                0.70732745               -0.02150856               -0.02458550                0.13913976                0.05952471                0.09000763               -0.06642736
               3.90533391                8.78186978               94.16528590                0.45198566               -0.03346403               -0.12397525                0.13432026                0.28320356                0.14387130               -0.03714464
               4.90479594                8.78011163               94.17619832                0.45977155               -0.11741571               -0.14009082                0.10846556                0.46348370                0.12861506                0.05249612
               5.90298559                8.78048766               94.18618939                0.51308673               -0.21756521               -0.07743416                0.10419600                0.46612976                0.00372548                0.01670305
               6.90044463                8.77982144               94.19473277                0.66743937               -0.22361805               -0.05392483                0.10579199                0.37061667               -0.09404410               -0.02767653
               7.89851323                8.77666819               94.20235843                0.88733685               -0.14171971               -0.03874043                0.10707497                0.20658374               -0.10208120               -0.05205278
               8.89761024                8.77155833               94.20989776                0.99999998               -0.06635458               -0.06635925                0.10639686                0.07967465               -0.05355232               -0.05085294
               9.89718614                8.76519608               94.21773599                0.99954472               -0.04240969               -0.00244556                0.10122860                0.02064803               -0.02487387               -0.03321705
              -0.08620867                9.80802768               94.13177230                0.89444542               -0.03759634               -0.02031874                0.07008240               -0.01467747               -0.04206131               -0.06825683
               0.91341537                9.80039543               94.14034603                0.91082020               -0.06456655               -0.02398456                0.10080213               -0.02329345               -0.03217946               -0.01365623
               1.91250000                9.79289686               94.14923168                0.99999999               -0.09696185               -0.02706415                0.14165268               -0.02354866               -0.00138649                0.00260835
               2.91147613                9.78645262               94.15851668                1.00000000               -0.14880414               -0.03501115                0.17640450                0.04445390                0.07402433                0.00813979
               3.90952392                9.78176411               94.16852575                0.99420748               -0.28949381               -0.01056668                0.19298381                0.12281410                0.25487304                0.00253834
               4.90568625                9.78052888               94.18050480                1.00000000               -0.29660942                0.04172508                0.14831718                0.03769082                0.36736409                0.00956182
               5.90359173                9.78073729               94.19181583                0.90685313               -0.12814600                0.02496288                0.12179352                0.02577931                0.27925768               -0.00113229
               6.90312333                9.77983220               94.20173857                0.84990194               -0.01056401                0.00107609                0.10693466                0.05249586                0.13146213               -0.00207630
               7.90338045                9.77642981               94.21013146                0.96589958                0.02012874               -0.02383826                0.09290853                0.05173588                0.00878527               -0.01909082
               8.90352591                9.77113248               94.21791206                0.99950884               -0.00135803               -0.04258415                0.09970799                0.02107759               -0.03493808               -0.02402298
               9.90335329                9.76502002               94.22573033                1.00000000               -0.01726209               -0.01760665                0.10523857                0.00546808               -0.02344758               -0.02203939
              -0.17618175               -0.19231496               95.09879511                0.78014929               -0.00545169               -0.00547841                0.09199025                0.00649477                0.00845330                0.00795598
               0.82376374               -0.19841267               95.10266451                0.61206739                0.03143718               -0.05079505                0.09832606                0.04537494                0.02188702                0.00925504
               1.82444700               -0.20282524               95.10684485                0.58418518                0.04092807               -0.03697775                0.10866023                0.05754329                0.02828860                0.01448809
               2.82458230               -0.20452368               95.11107670                0.62486860               -0.04952192               -0.01539058                0.10255108                0.03960639               -0.03316118                0.02590675
               3.82345656               -0.20576552               95.11461869                0.79180564               -0.11113736               -0.02726406                0.07482411                0.05728766               -0.11233247                0.02276692
               4.82235955               -0.20872076               95.11738926                0.89247851               -0.09064022               -0.01742776                0.05739019                0.02768459               -0.13738356                0.02624333
               5.82164375               -0.21304825               95.11997074                0.86254437               -0.05952253               -0.02001495                0.05382572               -0.00831857               -0.12937483                0.02918627
               6.82116910               -0.21802192               95.12251755                0.78158761               -0.04278867               -0.01642014                0.05216286               -0.02502648               -0.12220856                0.02453930
               7.82078798               -0.22325201               95.12505339                0.71669552               -0.03539716               -0.01266956                0.05876338               -0.03048372               -0.11552188                0.01215085
               8.82046116               -0.22857648               95.12775726                0.69948988               -0.02969512               -0.02724233                0.07599577               -0.02362719               -0.08380032               -0.00307003
               9.82019408               -0.23371217               95.13106526                0.85619971               -0.02670784               -0.04258562                0.09549816               -0.01330687               -0.06135484               -0.03719968
              -0.17001909                0.80763026               95.10281179                0.61187783               -0.05082866                0.03132491                0.09832038                0.04536054                0.00906764                0.02119229
               0.82947263                0.80107938               95.10667537                0.34021142               -0.09514910               -0.09500645                0.10448361                0.14341679                0.02677656                0.02713692
               1.82807793                0.79680498               95.11089818                0.09050220               -0.15120624               -0.07012539                0.12023889                0.31093160                0.07300952                0.00193431
               2.82644850                0.79532242               95.11565019                0.01000000               -0.09749771               -0.10737844                0.14419038                0.36796548                0.12507312               -0.02179273
               3.82612798                0.79396184               95.12029986                0.18250207               -0.00853710                0.07572827                0.15078526                0.21012374                0.12029500                0.31899095
               4.82627776                0.79110496               95.12435099                0.63542004                0.00415854                0.00048317                0.14371078                0.09786827                0.05476546                0.16144589
               5.82621115                0.78675160               95.12783196                0.84425941               -0.01285230               -0.03225753                0.12035302                0.01444184               -0.00593054                0.07584993
               6.82602071                0.78181388               95.13089389                0.80948779               -0.02253616               -0.02534087                0.09544019               -0.01355939               -0.04396610                0.05119519
               7.82576042                0.77662130               95.13372963                0.67512852               -0.02828744               -0.01773061                0.08679480               -0.03529027               -0.05341100                0.04413467
               8.82545497                0.77115109               95.13668251                0.60350000               -0.02818649               -0.03279278                0.09749316               -0.04051446               -0.03005182                0.02050264
               9.82519670                0.76586197               95.14003735                0.82395732               -0.02582700               -0.06746979                0.11494732               -0.03176548               -0.01440799               -0.02466662
              -0.16217278                1.80831154               95.10713550                0.58396032               -0.03698742                0.04057588                0.10870552                0.05762191                0.01440167                0.02745767
               0.83745735                1.79968720               95.11104897                0.09005654               -0.07023170               -0.15083456                0.12012938                0.31083312                0.00130857                0.07357115
               1.83642259                1.79577225               95.11473497                0.01000000               -0.13362982               -0.13350359                0.11317365                0.59008232                0.03451056                0.03592658
               2.83478475                1.79332876               95.11940274                0.01000000               -0.22730491               -0.12524313                0.19538632                0.96062548                0.44285644                0.31727930
               3.83187649                1.79574904               95.13189801                0.01000000               -0.16287996               -0.19088755                0.27934143                0.81607489                0.28821126                0.43028533
               4.83152715                1.79128890               95.13395839                0.01150700               -0.03264077               -0.18827633                0.07856346                0.32148213               -0.08148059                0.15660374
               5.83122367                1.78630660               95.13661258                0.14979370               -0.02494680                0.02900288                0.11665495                0.05928658               -0.02173377                0.26601021
               6.83102822                1.78147126               95.13973230                0.52917196               -0.02393570                0.01596475                0.14023706                0.03837705                0.00992892                0.22252904
               7.83074496                1.77639338               95.14308222                0.70178281               -0.03090136               -0.02028838                0.14673989               -0.00244813                0.00352792                0.14519535
               8.83041019                1.77076766               95.14622396                0.92033121               -0.03039773               -0.03760702                0.12224815               -0.02678667               -0.01325661                0.05434578
               9.83013701                1.76493843               95.14934862                1.00000000               -0.02731832               -0.08801317                0.13095695               -0.03920508               -0.01499899                0.01352287
              -0.15161797                2.80844178               95.11151175                0.62490839               -0.01534535               -0.05013311                0.10257773                0.03964137                0.02588155               -0.03398981
               0.84822858                2.79806269               95.11595321                0.01000000               -0.10720047               -0.09682152                0.14392541                0.36707172               -0.02250822                0.12549293
               1.84623802                2.79413491               95.11955980                0.01000000               -0.12721791               -0.22416082                0.19523567                0.96129105                0.31569686                0.44414936
               2.84568422                2.79281756               95.13044788                0.01594644               -0.08743470               -0.08406849                0.27216398                0.82344461                0.42782656                0.43097205
               3.84448933                2.79014409               95.13614055                0.01197004               -0.17671866               -0.35621532                0.24839655                0.81677540                0.25527631                0.03494215
               4.84214985                2.78733944               95.14225945                0.01000001               -0.36374037               -0.29409527                0.35112709                0.90029409                0.14707737                0.22771715
               5.83721452                2.78733166               95.14846647                0.01215268               -0.27241857               -0.14234903                0.26220441                0.67856273                0.00134691                0.33273733
               6.83670148                2.78213317               95.15131662                0.01000000               -0.03997281               -0.11890282                0.07005106                0.24563805               -0.07095615                0.17224934
               7.83641506                2.77621553               95.15371889                0.07642946               -0.01636491                0.01486504                0.06762948                0.03409544               -0.08302389                0.22184903
               8.83637418                2.77039895               95.15596603                0.74843893               -0.01720091               -0.02954302                0.13301656                0.04730940               -0.04777269                0.07303773
               9.83607105                2.76410171               95.15908948                0.99999998               -0.03031308               -0.11582202                0.16181949                0.02446410               -0.00272109                0.08290854
              -0.14062177                3.80730888               95.11519755                0.79208305               -0.02725777               -0.11171413                0.07498840                0.05750850                0.02269257               -0.11270745
               0.85910565                3.79775077               95.12075075                0.18151009                0.07576572               -0.00783632                0.15036709                0.21128449                0.31850636                0.12013437
               1.86089354                3.79128904               95.13221309                0.01000000               -0.19305902               -0.15939837                0.27959688                0.81600215                0.42983640                0.28979562
               2.85524447                3.79164739               95.13629889                0.01197155               -0.36017106               -0.17296479                0.24857580                0.81530391                0.03444560                0.25660999
               3.85369012                3.78862474               95.14398088                0.01648881               -0.14495026               -0.14329493                0.22997319                0.59979794                0.15091803                0.15170545
               4.85234546                3.78540700               95.15030731                0.01442057               -0.18444638               -0.17817913                0.25153384                0.68767982                0.04470285                0.17890105
               5.85000119                3.78345962               95.15538411                0.01000001               -0.26441776               -0.30192438                0.30711626                0.78927012                0.04318003                0.03411029
               6.84705711                3.77909321               95.16048225                0.01000001               -0.34200504               -0.32895975                0.33650963                0.74359164               -0.05632612                0.21248857
               7.84316109                3.77669068               95.16545271                0.01495441               -0.17934560               -0.09591397                0.20011398                0.44453417               -0.19450401                0.21425057
               8.84347020                3.77017680               95.16595045                0.46075583                0.00298406               -0.04565914                0.15038129                0.12900845               -0.14158517                0.11943547
               9.84322077                3.76262199               95.16946743                0.99999998               -0.02494234               -0.24310997                0.18156437                0.10805264               -0.00060941                0.23403561
              -0.13135158                4.80620749               95.11811710                0.89270649               -0.01743072               -0.09109052                0.05766346                0.02782484                0.02596032               -0.13730276
               0.86847411                4.79790596               95.12494835                0.63419724                0.00065154                0.00460616                0.14338552                0.09857920                0.16111196                0.05449953
               1.86866145                4.79094694               95.13442373                0.01138331               -0.19097572               -0.03209487                0.07813962                0.32258865                0.15524429               -0.08226560
               2.86465460                4.78935826               95.14257691                0.01000001               -0.29678866               -0.36099727                0.35103900                0.89981776                0.22659033                0.14776126
               3.86272568                4.78727819               95.15048468                0.01443202               -0.17930176               -0.18329241                0.25417191                0.68640135                0.17613646                0.04703296
               4.86106856                4.78377585               95.15715278                0.01000000               -0.17059802               -0.16926622                0.31922670                0.62411342                0.07293574                0.07360492
               5.85931371                4.78129317               95.16319889                0.01000001               -0.13631572               -0.20123592                0.30086004                0.53626896               -0.06991804                0.08102446
               6.85834225                4.77555398               95.16835688                0.01000001               -0.25457805               -0.22047446                0.29214975                0.65383072               -0.10800726                0.14849751
               7.85422215                4.77429725               95.17375896                0.05174909               -0.26596072               -0.23766973                0.24481169                0.78982918               -0.11540235                0.05416301
               8.85302303                4.76948577               95.17680278                0.45648698               -0.04402212               -0.13267781                0.13149976                0.29220911               -0.05953746                0.12186234
               9.85334171                4.75923951               95.18132209                0.96200750                0.03186791               -0.26863444                0.16274085                0.03909614                0.00271052                0.34690077
              -0.12346221                5.80548707               95.12085036                0.86288121               -0.02000040               -0.05999662                0.05412043               -0.00821004                0.02891196               -0.12894504
               0.87633778                5.79784289               95.12857916                0.84325283               -0.03223866               -0.01259489                0.12026319                0.01468701                0.07566374               -0.00605821
               1.87589301                5.79064714               95.13722973                0.14835255                0.02858976               -0.02452782                0.11620521                0.05934402                0.26462346               -0.02283284
               2.87690958                5.78442744               95.14893097                0.01216187               -0.14462300               -0.27183545                0.26221971                0.67893833                0.33198679                0.00027555
               3.87300055                5.78495889               95.15572166                0.01000001               -0.30484149               -0.26262106                0.31035402                0.78696042                0.03407189                0.03875328
               4.87081275                5.78202167               95.16336837                0.01000001               -0.20260540               -0.13534267                0.30087744                0.53567865                0.07942168               -0.06994221
               5.86894845                5.77943490               95.16996552                0.01000001               -0.18415524               -0.18389741                0.40607036                0.48840393               -0.04480288               -0.04235527
               6.86712964                5.77468372               95.17648118                0.01076974               -0.19612812               -0.05626214                0.32980482                0.51417846               -0.03930928                0.05649837
               7.86502588                5.77193728               95.18267037                0.12649915               -0.13787639               -0.21830322                0.23117912                0.68884903               -0.10108640               -0.04254813
               8.86437212                5.76752324               95.18685543                0.55468688               -0.02653357               -0.21381672                0.13092915                0.34325727               -0.06171036                0.00463530
               9.86449521                5.75724930               95.19261496                0.86974189                0.01230962               -0.12116601                0.14556783                0.02663420                0.00463639                0.25372903
              -0.11622743                6.80500756               95.12355254                0.78181323               -0.01647856               -0.04326880                0.05257743               -0.02502169                0.02449774               -0.12132331
               0.88360778                6.79765406               95.13179461                0.80907929               -0.02543925               -0.02244521                0.09551726               -0.01359316                0.05112240               -0.04399465
               1.88326378                6.79045639               95.14049837                0.52711434                0.01569158               -0.02350623                0.13969948                0.03813494                0.22164081                0.00853855
               2.88392161                6.78392155               95.15193202                0.01000000               -0.11965650               -0.03940954                0.07040404                0.24351244                0.17161550               -0.07276696
               3.88087065                6.78202577               95.16095502                0.01000001               -0.33077449               -0.33971098                0.33630321                0.74094237                0.21162447               -0.05929451
               4.87730612                6.78106900               95.16866573                0.01000001               -0.22254504               -0.25178479                0.29166445                0.65268746                0.14690998               -0.10766224
               5.87641975                6.77761522               95.17663665                0.01065688               -0.05913458               -0.19389830                0.33014931                0.51555842                0.05482466               -0.03623293
               6.87612343                6.77442874               95.18448786                0.08800679               -0.06300714               -0.06098340                0.19349382                0.45311838               -0.07250913               -0.07192856
               7.87515961                6.76993118               95.19008054                0.41083696               -0.07736363               -0.13910103                0.16087937                0.44284174               -0.16791087               -0.10065592
               8.87457616                6.76520943               95.19555698                0.71148834               -0.03686671               -0.18818150                0.13160424                0.26021732               -0.07105385               -0.07629437
               9.87442227                6.75681619               95.20237527                0.82121980               -0.01538850               -0.01736798                0.10863072                0.05543799               -0.01755369                0.11012323
              -0.10925565                7.80462169               95.12624842                0.71685304               -0.01272538               -0.03583010                0.05932842               -0.03049489                0.01236671               -0.11414056
               0.89061709                7.79739399               95.13478590                0.67545879               -0.01780620               -0.02831459                0.08693857               -0.03534094                0.04427032               -0.05339863
               1.89038822                7.79017701               95.14399636                0.70102885               -0.02033238               -0.03067956                0.14652345               -0.00279128                0.14513797                0.00225302
               2.89021045                7.78363925               95.15448792                0.07643855                0.01418647               -0.01602880                0.06788380                0.03294493                0.22063967               -0.08527450
               3.89067195                7.77816467               95.16605207                0.01491645               -0.09667026               -0.17730731                0.20055405                0.44217995                0.21517358               -0.19826872
               4.88827704                7.77698598               95.17422958                0.05140160               -0.23860376               -0.26405091                0.24466163                0.78873326                0.05774141               -0.11600387
               5.88589988                7.77555693               95.18299312                0.12568527               -0.22004961               -0.13604003                0.23032009                0.69037905               -0.04022257               -0.09854985
               6.88387605                7.77346405               95.19025407                0.40945991               -0.13989299               -0.07776556                0.16101900                0.44526581               -0.09952818               -0.16638197
               7.88310202                7.76915526               95.19681482                0.72203989               -0.05922967               -0.05938381                0.13039878                0.25545508               -0.12432173               -0.12295315
               8.88269146                7.76375961               95.20333132                0.88615540               -0.03557790               -0.10145774                0.11869085                0.12833230               -0.07778922               -0.08076815
               9.88239046                7.75690194               95.21067356                0.89109104               -0.03009954                0.00491343                0.08379186                0.04856259               -0.03909009                0.00306662
              -0.10238193                8.80429096               95.12911639                0.69937700               -0.02724339               -0.02999482                0.07648326               -0.02362268               -0.00266599               -0.08245665
               0.89734564                8.79708777               95.13789558                0.60402804               -0.03276900               -0.02827915                0.09755725               -0.04059767                0.02119593               -0.03008529
               1.89696269                8.78984279               95.14729533                0.92153005               -0.03763926               -0.03042635                0.12251596               -0.02698678                0.05496714               -0.01370269
               2.89659286                8.78360098               95.15688418                0.75002013               -0.02975858               -0.01707806                0.13327455                0.04645868                0.07296704               -0.04932720
               3.89636752                8.77847962               95.16670763                0.46152004               -0.04521664                0.00316002                0.15042024                0.12757218                0.12080078               -0.14274775
               4.89568852                8.77578798               95.17742032                0.45582164               -0.13091313               -0.04435966                0.13082617                0.29127110                0.12624464               -0.06035782
               5.89374926                8.77489442               95.18735243                0.55197509               -0.21290528               -0.02695477                0.12951669                0.34451267                0.00807086               -0.06000016
               6.89143042                8.77287342               95.19591788                0.70666531               -0.18880579               -0.03704995                0.12939502                0.26267288               -0.07612431               -0.06880039
               7.88997314                8.76874351               95.20351986                0.88127743               -0.10171465               -0.03558958                0.11701982                0.12939547               -0.08263245               -0.07638759
               8.88939612                8.76318028               95.21090323                0.95352414               -0.04321413               -0.04340782                0.09394925                0.04420422               -0.05352876               -0.05202729
               9.88910886                8.75691446               95.21854489                0.94945611               -0.02872620               -0.00435743                0.06753451                0.01921815               -0.03016186               -0.02417152
              -0.09532173                9.80402180               95.13258282                0.85611587               -0.04249647               -0.02691634                0.09579378               -0.01331948               -0.03598455               -0.06027346
               0.90425330                9.79682841               95.14140715                0.82384918               -0.06714925               -0.02593656                0.11482462               -0.03189905               -0.02244372               -0.01451073
               1.90333528                9.78956849               95.15058960                1.00000000               -0.08752547               -0.02743088                0.13086234               -0.03927686                0.01586902               -0.01486278
               2.90250280                9.78329769               95.16018032                0.99999998               -0.11494465               -0.03032868                0.16129176                0.02396315                0.08422504               -0.00316238
               3.90103639                9.77822787               95.17040272                0.99999998               -0.24075665               -0.02517508                0.18075761                0.10694163                0.23512424               -0.00103532
               4.89768766                9.77609878               95.18210099                0.96254387               -0.26658513                0.03108030                0.16224833                0.03941244                0.34834407                0.00239179
               5.89570469                9.77501784               95.19325947                0.86926744               -0.12036208                0.01234171                0.14578029                0.02675611                0.25676829                0.00484273
               6.89528042                9.77272305               95.20289022                0.81868526               -0.01608084               -0.01503744                0.10789039                0.05628207                0.11241350               -0.01748537
               7.89538307                9.76844347               95.21102440                0.88793078                0.00620842               -0.03000349                0.08270549                0.04941312                0.00229939               -0.03931242
               8.89540459                9.76289146               95.21871426                0.94824443               -0.00383034               -0.02888228                0.06710894                0.01941269               -0.02578803               -0.02959601
               9.89530647                9.75681480               95.22646431                0.96918619               -0.00981236               -0.00996624                0.05424170                0.01209430               -0.01770846               -0.01660431
              -0.17999085               -0.19627582               96.09970580                0.74482281               -0.00819538               -0.00822225                0.08917051                0.01094256                0.00923240                0.00883596
               0.81992720               -0.20234822               96.10365849                0.56717719                0.02209123               -0.05162323                0.10151253                0.05150809                0.02255221                0.01126736
               1.82045098               -0.20674007               96.10794912                0.56296239                0.01557299               -0.03666670                0.11149744                0.05087527                0.00941369                0.02182513
               2.82023866               -0.20898755               96.11208080                0.65438215               -0.06630765               -0.02638970                0.09448639                0.03883381               -0.08324980                0.03002019
               3.81912482               -0.21158575               96.11527379                0.79219554               -0.09583326               -0.02001428                0.05898080                0.04593025               -0.14112284                0.03007537
               4.81832199               -0.21583213               96.11792272                0.79308203               -0.06576892               -0.01811239                0.05439344               -0.00190326               -0.14141838                0.03490791
               5.81780945               -0.22094640               96.12050099                0.71302900               -0.04599144               -0.01814777                0.05773459               -0.02819950               -0.12775613                0.03030996
               6.81740217               -0.22638570               96.12306763                0.63987118               -0.04192958               -0.01341858                0.06600850               -0.03618932               -0.12185455                0.01725693
               7.81697085               -0.23198797               96.12571036                0.61380937               -0.04185492               -0.01933419                0.08419417               -0.03306592               -0.11037747                0.00393786
               8.81656507               -0.23765279               96.12864595                0.63538017               -0.03811267               -0.03667252                0.10640635               -0.01996977               -0.07313253               -0.00546939
               9.81620860               -0.24312895               96.13216799                0.83080896               -0.03564652               -0.04643729                0.12186778               -0.00780941               -0.05059638               -0.03223784
              -0.17380902                0.80364195               96.10380589                0.56710369               -0.05165763                0.02198844                0.10150982                0.05151919                0.01109519                0.02197417
               0.82567440                0.79713554               96.10774973                0.27471909               -0.09557927               -0.09546799                0.11480288                0.15049659                0.03355689                0.03385697
               1.82427939                0.79289326               96.11216475                0.05383495               -0.13122819               -0.07399493                0.14073850                0.28668856                0.08757447               -0.00100988
               2.82304984                0.79074855               96.11715432                0.01543834               -0.06364899               -0.10416952                0.16413807                0.26913967                0.15090817               -0.01094753
               3.82300641                0.78821410               96.12188610                0.48692215               -0.00332775                0.03295533                0.16256758                0.13633294                0.10680035                0.24086619
               4.82298328                0.78398675               96.12575636                0.80828346               -0.01010898               -0.02783008                0.13198061                0.03118212                0.01267169                0.09657304
               5.82280424                0.77887212               96.12894789                0.82119686               -0.02111145               -0.02640039                0.10079432               -0.01241785               -0.04700354                0.05565382
               6.82256106                0.77348012               96.13177103                0.68189940               -0.02652460               -0.01846358                0.08687620               -0.03509426               -0.06811365                0.05078094
               7.82227374                0.76781869               96.13459520                0.52675417               -0.03125988               -0.02284024                0.09730905               -0.05389816               -0.05713076                0.04415678
               8.82193586                0.76198048               96.13771713                0.47340748               -0.03335395               -0.04114325                0.11658646               -0.04720612               -0.02703719                0.01506704
               9.82160666                0.75640668               96.14127444                0.75780098               -0.03291939               -0.06939559                0.13337886               -0.03059110               -0.01258215               -0.02396177
              -0.16594764                1.80416395               96.10824023                0.56286466               -0.03665366                0.01522208                0.11148986                0.05087100                0.02174941                0.00865560
               0.83368582                1.79574242               96.11231487                0.05356338               -0.07403086               -0.13087104                0.14067085                0.28648889               -0.00152138                0.08800143
               1.83257174                1.79178003               96.11588849                0.01000001               -0.16926046               -0.16942732                0.11411228                0.54407718                0.07538096                0.07638551
               2.83030061                1.78892906               96.12162267                0.01307508               -0.19792282               -0.14022435                0.58551617                0.75858276                0.38465046                0.46150141
               3.82861329                1.78907335               96.13263175                0.01000000               -0.10064978               -0.22101818                0.06517153                0.56270218                0.33204877                0.11365164
               4.82828762                1.78361127               96.13485401                0.10436844               -0.02727833                0.02445295                0.10634798                0.03558317               -0.06375323                0.26335651
               5.82806772                1.77852559               96.13788881                0.56405496               -0.02669531                0.01343304                0.13756739                0.02686207               -0.00968221                0.21981619
               6.82775371                1.77324503               96.14123322                0.80342917               -0.03375963               -0.01816865                0.14554318               -0.00818452               -0.00555024                0.15346645
               7.82739253                1.76755523               96.14452381                0.76750312               -0.03603790               -0.03075889                0.12751793               -0.03809060               -0.03327940                0.09551517
               8.82703295                1.76152434               96.14739730                0.82442176               -0.03240687               -0.04098114                0.11458367               -0.04693277               -0.04122060                0.04450428
               9.82674439                1.75548314               96.15061118                0.99619947               -0.02885648               -0.08132945                0.12676567               -0.04728638               -0.02785876                0.01756642
              -0.15594854                2.80394640               96.11251573                0.65451485               -0.02633641               -0.06682453                0.09447191                0.03895407                0.03002933               -0.08387068
               0.84378810                2.79451812               96.11745494                0.01511333               -0.10385814               -0.06309488                0.16389003                0.26801156               -0.01149629                0.15113077
               1.84197430                2.78950472               96.12177802                0.01303661               -0.14299605               -0.19548065                0.58563644                0.76024359                0.45984496                0.38778351
               2.84092818                2.78794406               96.13269089                0.01251719               -0.11980261               -0.11686706                0.14445323                0.65246991                0.33199367                0.33440375
               3.83957825                2.78379374               96.13874207                0.01000000               -0.33427328               -0.33405077                0.34533307                0.77835539                0.09542656                0.12309081
               4.83424271                2.78447581               96.14655988                0.01000001               -0.29352653               -0.22345199                0.26770471                0.69973296               -0.03962762                0.32128009
               5.83370771                2.77914078               96.14939997                0.01000000               -0.04374897               -0.12820479                0.07525265                0.25770860               -0.07613156                0.16531256
               6.83336773                2.77311675               96.15187691                0.10915045               -0.02375471                0.03193756                0.06672373                0.01703710               -0.07216711                0.22741404
               7.83323262                2.76720351               96.15448957                0.33327146               -0.01492209                0.00216958                0.09462963                0.01739071               -0.05722138                0.19435207
               8.83306929                2.76116086               96.15726163                0.80124754               -0.02446378               -0.03317561                0.13264183                0.01871245               -0.03411811                0.07537297
               9.83274334                2.75478009               96.16065839                0.99999999               -0.03259438               -0.08777833                0.14833177                0.00085764               -0.00457869                0.08848079
              -0.14631201                3.80282746               96.11585448                0.79244839               -0.02002543               -0.09629168                0.05914398                0.04610705                0.02989371               -0.14130261
               0.85348773                3.79448052               96.12233310                0.48620826                0.03313427               -0.00286338                0.16227775                0.13707347                0.24071307                0.10667217
               1.85435067                3.78787042               96.13294519                0.01000000               -0.22133716               -0.09781096                0.06493337                0.56244079                0.11252668                0.33192695
               2.84906099                3.78659172               96.13890123                0.01000000               -0.33510118               -0.33290806                0.34401715                0.77826556                0.11949409                0.10087900
               3.84764865                3.78239234               96.14555378                0.01000002               -0.10628778               -0.10331425                0.28943800                0.47763724                0.11073861                0.11194947
               4.84693523                3.77914223               96.15225262                0.01000001               -0.15338485               -0.36732316                0.30586649                0.69779914                0.01780077                0.05848157
               5.84458095                3.77596149               96.15841172                0.01000001               -0.34517550               -0.21701835                0.34224398                0.65689472               -0.08293262                0.23457114
               6.84003172                3.77388378               96.16378059                0.01000000               -0.24423636               -0.11887737                0.22075176                0.43777478               -0.13641366                0.28597811
               7.83969623                3.76759862               96.16645735                0.02161164               -0.01005506               -0.10493700                0.09523040                0.17035629               -0.17310283                0.13654546
               8.83983062                3.76086083               96.16753573                0.52225195               -0.00865708               -0.04264584                0.15622940                0.07462579               -0.13680046                0.10907327
               9.83952308                3.75372757               96.17121201                0.98154542               -0.03075396               -0.17943800                0.15736916                0.08070238               -0.00601757                0.21235059
              -0.13833253                4.80202056               96.11865295                0.79341652               -0.01808728               -0.06617828                0.05460242               -0.00177743                0.03462965               -0.14122376
               0.86148660                4.79446086               96.12635158                0.80748196               -0.02777797               -0.00986436                0.13189477                0.03150436                0.09641086                0.01261840
               1.86111192                4.78754850               96.13531665                0.10347146                0.02424832               -0.02693614                0.10605546                0.03582539                0.26241599               -0.06456383
               2.86197157                4.78128590               96.14687628                0.01000001               -0.22657204               -0.29178815                0.26762528                0.69862417                0.32443326               -0.04053243
               3.85658047                4.78172745               96.15246310                0.01000001               -0.36710173               -0.15409583                0.32141194                0.69326620                0.09756963               -0.00968048
               4.85462953                4.77712934               96.15977139                0.01000001               -0.22382096               -0.22464902                0.48790111                0.53106757                0.07111862                0.07448430
               5.85210406                4.77480041               96.16668910                0.01000000               -0.20717155               -0.20750584                0.53846528                0.52387195                0.00072403                0.01431932
               6.85048610                4.77073920               96.17203228                0.01090288               -0.12206787               -0.33356727                0.38068485                0.52915022               -0.29379359                0.20954177
               7.84966270                4.76510477               96.17569235                0.06694738               -0.10266277               -0.22882584                0.24102398                0.45513456               -0.24741042                0.08623852
               8.84843285                4.76030794               96.17820123                0.45482388               -0.05193948               -0.12974460                0.14483833                0.24548440               -0.10502945                0.11532485
               9.84862391                4.75119133               96.18297202                0.96363832                0.01910609               -0.22028152                0.15213020                0.04483297               -0.01028755                0.33678494
              -0.13122815                5.80150389               96.12138357                0.71324117               -0.01819685               -0.04641698                0.05803751               -0.02817125                0.03021206               -0.12716317
               0.86858989                5.79428323               96.12969521                0.82075746               -0.02648600               -0.02103348                0.10086981               -0.01239867                0.05553969               -0.04691673
               1.86824213                5.78733170               96.13850088                0.56249764                0.01323161               -0.02638528                0.13715767                0.02680095                0.21911031               -0.01054679
               2.86885452                5.78075595               96.14986584                0.01000000               -0.12858010               -0.04333585                0.07540588                0.25271673                0.16758743               -0.07733867
               3.86567053                5.77931042               96.15879338                0.01000001               -0.21854461               -0.34356498                0.34103748                0.65576412                0.23454866               -0.08568173
               4.86448363                5.77464925               96.16684994                0.01000000               -0.21109972               -0.20316138                0.53788173                0.52511362                0.00960404                0.00151406
               5.86144854                5.77181138               96.17646875                0.04209202               -0.20866265               -0.20597383                0.44692563                0.47696576               -0.00238670               -0.00061365
               6.86031037                5.76721244               96.18133490                0.08234132               -0.11091835               -0.20188914                0.33156648                0.46451128               -0.25275880               -0.01287535
               7.85923017                5.76302210               96.18480782                0.31985157               -0.08283102               -0.15714064                0.19458415                0.47045366               -0.23818547               -0.05718523
               8.85865375                5.75826594               96.18829272                0.56250083               -0.02885996               -0.19655976                0.15535838                0.27699561               -0.11399524                0.03164584
               9.85865297                5.74932194               96.19408338                0.81536666               -0.00007805               -0.11066290                0.13897429                0.04446859               -0.01480224                0.24027586
              -0.12445463                6.80109222               96.12410690                0.63999628               -0.01345443               -0.04237537                0.06644866               -0.03618426                0.01741248               -0.12079372
               0.87541082                6.79404019               96.13267297                0.68182447               -0.01850771               -0.02656481                0.08698525               -0.03510775                0.05082240               -0.06797992
               1.87517521                6.78702079               96.14199466                0.80213639               -0.01818217               -0.03357224                0.14530588               -0.00833128                0.15331915               -0.00642247
               2.87504718                6.78041919               96.15249577                0.10876711                0.03136233               -0.02346412                0.06688534                0.01629223                0.22639506               -0.07356065
               3.87580246                6.77485615               96.16423778                0.01000000               -0.12081654               -0.23923921                0.22016188                0.43534832                0.28465279               -0.14070003
               4.87263085                6.77306612               96.17233675                0.01084548               -0.33611385               -0.11966117                0.38057003                0.52946971                0.21001942               -0.29333159
               5.86908018                6.77068094               96.18149861                0.08210054               -0.20326212               -0.11060912                0.33186184                0.46683768               -0.01286418               -0.25075524
               6.86856561                6.76670142               96.18652300                0.33688493               -0.05309561               -0.05297002                0.17735459                0.35249582               -0.22859060               -0.22886600
               7.86801827                6.76196196               96.19159954                0.61870887               -0.04463445               -0.08579333                0.14554118                0.29335712               -0.18017642               -0.12660574
               8.86767292                6.75637675               96.19697417                0.68870619               -0.03084983               -0.13839392                0.13989752                0.17040717               -0.09804232               -0.04066662
               9.86740127                6.74897807               96.20338730                0.77035806               -0.02716432               -0.01806534                0.09712205                0.06496185               -0.05390524                0.09491013
              -0.11784776                7.80065638               96.12691075                0.61382060               -0.01930823               -0.04224470                0.08470480               -0.03300475                0.00423001               -0.10893031
               0.88195916                7.79375193               96.13565267                0.52715290               -0.02278674               -0.03139335                0.09741062               -0.05395408                0.04448739               -0.05701844
               1.88169651                7.78666025               96.14543838                0.76781995               -0.03070804               -0.03602941                0.12762945               -0.03828297                0.09586272               -0.03385261
               2.88134500                7.78028667               96.15525931                0.33374403                0.00170293               -0.01476978                0.09460571                0.01652352                0.19358223               -0.05893084
               3.88173057                7.77452564               96.16706190                0.02181438               -0.10483822               -0.00959935                0.09572939                0.16903401                0.13685407               -0.17505441
               4.87924824                7.77225603               96.17616244                0.06659902               -0.22902877               -0.10165275                0.24043740                0.45593670                0.08800779               -0.24857597
               5.87714999                7.76959920               96.18513199                0.31891618               -0.15844837               -0.08298109                0.19472842                0.47331424               -0.05577681               -0.23853315
               6.87607927                7.76615304               96.19177197                0.61712243               -0.08640062               -0.04460648                0.14536092                0.29480751               -0.12584641               -0.17983870
               7.87542198                7.76130623               96.19806429                0.84606057               -0.05167437               -0.05155517                0.12249104                0.16009936               -0.11881814               -0.11816541
               8.87504578                7.75549806               96.20452101                0.79330811               -0.03362085               -0.06209522                0.11216941                0.07480574               -0.08190520               -0.06254752
               9.87474956                7.74896064               96.21144140                0.80420007               -0.02962188               -0.00280822                0.07449878                0.04117244               -0.05685986                0.00581916
              -0.11130583                8.80024733               96.13000964                0.63536998               -0.03662942               -0.03835136                0.10678174               -0.01996396               -0.00509178               -0.07183656
               0.88832787                8.79341232               96.13893081                0.47365046               -0.04096744               -0.03349277                0.11659738               -0.04732888                0.01597805               -0.02700860
               1.88787482                8.78630020               96.14847107                0.82533656               -0.04078038               -0.03245947                0.11468388               -0.04704146                0.04538545               -0.04126904
               2.88751226                8.78012379               96.15818079                0.80260866               -0.03305175               -0.02447862                0.13266482                0.01832370                0.07537464               -0.03528969
               3.88721378                8.77466417               96.16829431                0.52336620               -0.04181213               -0.00862130                0.15644631                0.07422179                0.10982946               -0.13784985
               4.88667602                8.77103306               96.17881484                0.45436746               -0.12821635               -0.05203201                0.14453667                0.24526505                0.11765783               -0.10627446
               5.88464946                8.76902132               96.18877972                0.56031148               -0.19606523               -0.02895619                0.15458685                0.27820493                0.03385268               -0.11389142
               6.88275472                8.76580929               96.19732067                0.68474635               -0.13871107               -0.03076119                0.13880022                0.17184707               -0.04031432               -0.09776072
               7.88187523                8.76093085               96.20469882                0.78996516               -0.06200443               -0.03358796                0.11133768                0.07529874               -0.06354031               -0.08149230
               8.88151463                8.75513484               96.21177675                0.73342376               -0.02878309               -0.02897779                0.08535569                0.02577564               -0.05070641               -0.04977918
               9.88129957                8.74892191               96.21908668                0.80388664               -0.02150564               -0.00557681                0.05565298                0.01617885               -0.03555244               -0.01506955
              -0.10457702                9.79988936               96.13368817                0.83066359               -0.04632763               -0.03579738                0.12203314               -0.00784577               -0.03121650               -0.04957441
               0.89495971                9.79308208               96.14264252                0.75764499               -0.06893881               -0.03302392                0.13315883               -0.03073109               -0.02184215               -0.01261857
               1.89404421                9.78601106               96.15184893                0.99614753               -0.08060987               -0.02891425                0.12633736               -0.04731000                0.01979917               -0.02763849
               2.89334751                9.77979710               96.16174251                0.99999999               -0.08692387               -0.03266915                0.14774354                0.00063200                0.08955815               -0.00500632
               3.89230573                9.77435321               96.17214090                0.98225599               -0.17755615               -0.03109579                0.15685474                0.08010927                0.21322390               -0.00624475
               4.88979639                9.77121539               96.18374977                0.96357930               -0.21839327                0.01823257                0.15185913                0.04537968                0.33815355               -0.01042314
               5.88793787                9.76902007               96.19473144                0.81472180               -0.10948582               -0.00012444                0.13899906                0.04496235                0.24268448               -0.01488955
               6.88760667                9.76553781               96.20389638                0.76856093               -0.01677352               -0.02714714                0.09654256                0.06591553                0.09581846               -0.05440718
               7.88760240                9.76063447               96.21178557                0.80244633               -0.00182154               -0.02963798                0.07395108                0.04175063                0.00459702               -0.05709706
               8.88757024                9.75491851               96.21925424                0.80337915               -0.00516910               -0.02163390                0.05555623                0.01629243               -0.01659923               -0.03513297
               9.88749901                9.74884910               96.22681516                0.88557549               -0.00712274               -0.00728075                0.03784425                0.01300350               -0.01332351               -0.01225081
              -0.18390248               -0.20033842               97.10057852                0.70618317               -0.01260554               -0.01262702                0.08303699                0.01862141                0.00994276                0.00960510
               0.81597146               -0.20636981               97.10469476                0.51360984                0.00577198               -0.05300498                0.10681506                0.05726463                0.01627537                0.01392188
               1.81621296               -0.21082001               97.10907480                0.54754137               -0.01894198               -0.03345869                0.11480081                0.03616348               -0.03239675                0.03070585
               2.81559262               -0.21407030               97.11296642                0.66416806               -0.07103876               -0.03681005                0.07413147                0.03683729               -0.13155503                0.02742671
               3.81479218               -0.21838864               97.11579830                0.70704426               -0.06443187               -0.01901564                0.05678842                0.00599652               -0.15636167                0.04838494
               4.81430399               -0.22368989               97.11847713                0.63954826               -0.04242328               -0.02049788                0.06444779               -0.03081772               -0.13713678                0.03889507
               5.81394372               -0.22933584               97.12112543                0.56774219               -0.03906749               -0.01873028                0.07996081               -0.03841532               -0.12521795                0.02022720
               6.81352264               -0.23508357               97.12383772                0.54435252               -0.04708009               -0.02525130                0.10207351               -0.03150442               -0.11654673                0.00342095
               7.81300212               -0.24094292               97.12673727                0.56455718               -0.04908813               -0.03661019                0.12175007               -0.02027357               -0.09878522               -0.00509626
               8.81254087               -0.24682823               97.12988538                0.59997450               -0.04320266               -0.04706877                0.13268832               -0.01193553               -0.06350562               -0.00657192
               9.81213806               -0.25256983               97.13350262                0.80944469               -0.04028117               -0.04906190                0.13495405               -0.00492316               -0.04151172               -0.02147715
              -0.17768487                0.79953531               97.10484199                0.51348530               -0.05302229                0.00566133                0.10680553                0.05725316                0.01377121                0.01574641
               0.82178490                0.79310014               97.10897143                0.14920248               -0.09451442               -0.09440803                0.13594471                0.15586441                0.04527835                0.04553308
               1.82042484                0.78884541               97.11371295                0.01152270               -0.10197961               -0.07466508                0.17956284                0.24354530                0.11648491               -0.04587416
               2.81974531                0.78556160               97.11893295                0.28732783               -0.03814490                0.05462574                0.20240587                0.13588425                0.15047988                0.33839985
               3.81966194                0.78142121               97.12355122                0.72297974               -0.01379495               -0.02226252                0.15591648                0.05187431                0.05099654                0.14085050
               4.81946941                0.77610514               97.12699060                0.80375082               -0.02027655               -0.02787986                0.10958567               -0.01266581               -0.04425557                0.06241072
               5.81925641                0.77047685               97.12984784                0.64908239               -0.02291407               -0.02066621                0.09005567               -0.03670609               -0.07635882                0.04896746
               6.81901113                0.76466391               97.13263141                0.47918574               -0.02923496               -0.02408579                0.10583374               -0.05131519               -0.06932760                0.04580516
               7.81867171                0.75869098               97.13567581                0.37955643               -0.03880790               -0.03238885                0.13272667               -0.05248316               -0.04871403                0.02997238
               8.81823497                0.75270108               97.13901424                0.37731946               -0.04206423               -0.05292619                0.14528073               -0.03969437               -0.02408662                0.00390109
               9.81783042                0.74693955               97.14270493                0.71088606               -0.04045481               -0.07621756                0.14930568               -0.02545161               -0.01249742               -0.02477061
              -0.16988707                1.79977481               97.10936530                0.54740946               -0.03342724               -0.01926021                0.11475265                0.03617619                0.03065423               -0.03308089
               0.82977866                1.79174203               97.11386238                0.01127383               -0.07452619               -0.10165329                0.17951362                0.24316726               -0.04633002                0.11681761
               1.82862240                1.78768669               97.11701721                0.01000000               -0.20220741               -0.20057596                0.13802930                0.75271582                0.44472688                0.44578236
               2.82573451                1.78702221               97.13111306                0.01000000               -0.16681369               -0.16672633                0.51222051                0.45470784                0.40464644                0.23839770
               3.82528613                1.78116611               97.13320144                0.01866010               -0.03697424               -0.08686691                0.08776744                0.07986175               -0.09088863                0.18645852
               4.82499502                1.77575252               97.13608535                0.54635568               -0.03176558                0.01306430                0.13303246                0.01573466               -0.03235648                0.22127503
               5.82465082                1.77025083               97.13936393                0.83010828               -0.03564070               -0.01809248                0.13751493               -0.00996806               -0.01836983                0.14868557
               6.82428221                1.76443471               97.14264316                0.81243108               -0.03677663               -0.02649135                0.11905289               -0.03420636               -0.03377669                0.10201126
               7.82391529                1.75840930               97.14563258                0.68395735               -0.03918982               -0.02609729                0.10683665               -0.05536315               -0.05717719                0.07129534
               8.82349841                1.75211324               97.14851563                0.69262697               -0.03816026               -0.04665470                0.12396724               -0.06077263               -0.04590424                0.03324512
               9.82315208                1.74590582               97.15188394                0.89841158               -0.03463312               -0.08345284                0.13735758               -0.05296497               -0.02818301                0.00847423
              -0.16089579                2.79915011               97.11340118                0.66430396               -0.03678469               -0.07146014                0.07414910                0.03699343                0.02737725               -0.13195813
               0.83873636                2.79106707               97.11923101                0.28710612                0.05473782               -0.03772284                0.20216317                0.13671659                0.33825212                0.15060940
               1.84019897                2.78483389               97.13127253                0.01000000               -0.16881593               -0.16488750                0.51230153                0.45567678                0.23691823                0.40733461
               2.83536005                2.78222707               97.13333694                0.01000000               -0.38350491               -0.37713179                0.38145323                0.70706152                0.07343903                0.07357717
               3.83252887                2.77968387               97.14304721                0.01515911               -0.23303304               -0.20117086                0.36397483                0.57033611                0.12265524                0.33032541
               4.83069939                2.77636642               97.14761355                0.01000001               -0.10770074               -0.11937020                0.08268272                0.26398274                0.00174616                0.15574576
               5.83037486                2.77011500               97.14997152                0.17812051               -0.02654260                0.03055440                0.07396028               -0.00342904               -0.07879528                0.24476634
               6.83016853                2.76413409               97.15265109                0.45161779               -0.02444705                0.01113433                0.10179216                0.00275086               -0.05139218                0.21490581
               7.82988591                2.75816903               97.15561149                0.60006403               -0.03227651               -0.00952438                0.12676540               -0.01687493               -0.04872803                0.16731895
               8.82952300                2.75176798               97.15861887                0.80868752               -0.03499729               -0.03472884                0.13219783               -0.02087107               -0.03361727                0.07823308
               9.82918597                2.74527050               97.16205612                0.99723682               -0.03370347               -0.06752246                0.12919986               -0.01995964               -0.01218759                0.08114398
              -0.15298113                3.79834560               97.11638043                0.70734067               -0.01896593               -0.06480853                0.05690373                0.00617393                0.04815856               -0.15637509
               0.84682921                3.79098757               97.12399630                0.72271417               -0.02214626               -0.01354246                0.15581226                0.05228003                0.14075174                0.05099159
               1.84657594                3.78438894               97.13351175                0.01804627               -0.09017256               -0.03669564                0.08744177                0.08390540                0.18407620               -0.09126090
               2.84502576                3.77947958               97.14317924                0.01513297               -0.20112196               -0.23220312                0.36422522                0.56952627                0.32853307                0.12401225
               3.84255350                3.77714270               97.14976964                0.01000001               -0.25911070               -0.29194470                0.43109474                0.65693094                0.07242365                0.08843407
               4.83984354                3.77336511               97.15642464                0.01045260               -0.28694637               -0.28491023                0.43976769                0.56423871               -0.03931617                0.40117850
               5.83681457                3.77086192               97.16222899                0.01000000               -0.17801717               -0.32962411                0.25718354                0.39923663               -0.15740422                0.48858623
               6.83628320                3.76465740               97.16489728                0.06647548               -0.04353426               -0.09717937                0.10932063                0.03257416               -0.12059055                0.24019739
               7.83594389                3.75821882               97.16735732                0.23689064               -0.01518354               -0.02487401                0.08298564               -0.00098253               -0.15519250                0.20389699
               8.83597953                3.75141866               97.16907504                0.59476868               -0.00980121               -0.03663511                0.13879691                0.02281616               -0.11283029                0.10454462
               9.83574786                3.74455537               97.17261481                0.98094653               -0.02316628               -0.10833278                0.12868866                0.03409157               -0.02145902                0.19024233
              -0.14605624                4.79785394               97.11920914                0.63976355               -0.02051311               -0.04278751                0.06463829               -0.03077739                0.03880014               -0.13680076
               0.85373863                4.79079622               97.12758624                0.80362587               -0.02793453               -0.02022038                0.10965660               -0.01259522                0.06231361               -0.04414045
               1.85338507                4.78409997               97.13654484                0.54513370                0.01290941               -0.03153756                0.13275073                0.01577171                0.22074628               -0.03289683
               2.85399682                4.77758301               97.14792941                0.01521793               -0.08015585               -0.11092004                0.08274003                0.23440335                0.17091032                0.00266509
               3.85178195                4.77384498               97.15691292                0.01049583               -0.28659413               -0.28360609                0.43749320                0.56195630                0.40168882               -0.03855963
               4.84826493                4.77066822               97.16691080                0.05007653               -0.23573237               -0.19392573                0.44838081                0.15817335                0.14658163                0.16716595
               5.84706730                4.76352252               97.17396819                0.04752779               -0.24009062               -0.31244036                0.42260717                0.45617299               -0.20806579                0.17234053
               6.84346312                4.76219050               97.17597058                0.08238084               -0.19811551               -0.23609506                0.29082825                0.58006150               -0.35836614                0.14112509
               7.84310499                4.75767155               97.17857944                0.19658821                0.00898244               -0.16662141                0.21717571                0.31026273               -0.36085095                0.14141281
               8.84364277                4.75103528               97.17969955                0.44869590                0.02446965               -0.10177199                0.15615934                0.11347049               -0.18365074                0.11139341
               9.84359439                4.74310384               97.18436469                0.86105337               -0.00483831               -0.14579162                0.12310815                0.05035468               -0.02885178                0.31290160
              -0.13948125                5.79748985               97.12201111                0.56787046               -0.01874810               -0.03947196                0.08030029               -0.03842361                0.02033983               -0.12446672
               0.86033126                5.79058316               97.13059656                0.64902608               -0.02070779               -0.02296114                0.09015568               -0.03669129                0.04897640               -0.07618304
               1.86010459                5.78375819               97.13997288                0.82904491               -0.01812213               -0.03547699                0.13735636               -0.00998429                0.14852148               -0.01885860
               2.85996882                5.77726118               97.15043909                0.17759314                0.03014147               -0.02630739                0.07402892               -0.00390160                0.24397374               -0.07970098
               3.86070742                5.77147057               97.16254241                0.01000000               -0.33196802               -0.14508639                0.25383930                0.35830985                0.48704665               -0.17039153
               4.85332946                5.76948660               97.17412600                0.04751441               -0.31458329               -0.23891751                0.42247893                0.45616417                0.17144225               -0.20690515
               5.85441575                5.76461311               97.17890403                0.12614527                0.02029687                0.02071748                0.23825494                0.26789044               -0.22709529               -0.22762823
               6.85373540                5.75993549               97.18311251                0.30229545               -0.05556967               -0.13880739                0.17375920                0.41304188               -0.26160326               -0.12152524
               7.85330436                5.75488639               97.18656205                0.45278472               -0.04593745               -0.17644779                0.17135514                0.37238216               -0.25590234               -0.07404857
               8.85281665                5.74938323               97.18996259                0.50296988               -0.03432590               -0.14337384                0.16794907                0.19689649               -0.14585005                0.07485953
               9.85261784                5.74163954               97.19539445                0.75124061               -0.01988080               -0.08737324                0.13039855                0.07180695               -0.06957441                0.23467798
              -0.13301133                6.79706450               97.12488151                0.54438339               -0.02522048               -0.04747529                0.10251407               -0.03143126                0.00362360               -0.11536952
               0.86673647                6.79033700               97.13353431                0.47931277               -0.02406512               -0.02936871                0.10592657               -0.05130548                0.04600046               -0.06914106
               1.86650737                6.78339043               97.14340448                0.81217257               -0.02650331               -0.03673195                0.11913469               -0.03429470                0.10215745               -0.03412043
               2.86620640                6.77705686               97.15326973                0.45128571                0.01076785               -0.02427831                0.10169248                0.00212807                0.21420097               -0.05248387
               3.86672273                6.77094325               97.16535826                0.06647186               -0.09803615               -0.04317634                0.10968241                0.03157459                0.23941792               -0.12207392
               4.86424568                6.76588987               97.17627713                0.08227826               -0.23732547               -0.19751181                0.29100670                0.58156330                0.14208759               -0.35904043
               5.86197622                6.76393687               97.18327388                0.30194547               -0.13974959               -0.05539798                0.17367095                0.41417747               -0.12003103               -0.26213200
               6.86145069                6.75941435               97.18803495                0.58553581               -0.04356549               -0.04329467                0.14339434                0.24485749               -0.21551864               -0.21589849
               7.86110491                6.75414260               97.19299136                0.73108306               -0.03115684               -0.05968569                0.13257798                0.17128521               -0.16717866               -0.13032747
               8.86082755                6.74816780               97.19835493                0.59436687               -0.02935040               -0.08385712                0.12896377                0.10366874               -0.10936471               -0.00884975
               9.86051790                6.74135638               97.20431771                0.71865512               -0.03096497               -0.01602936                0.10354203                0.05858977               -0.08636719                0.08789328
              -0.12665489                7.79654035               97.12794251                0.56459432               -0.03658974               -0.04938435                0.12215716               -0.02019446               -0.00487973               -0.09735394
               0.87297922                7.78999579               97.13673411                0.37988337               -0.03231397               -0.03896246                0.13279261               -0.05247490                0.03043498               -0.04853003
               1.87269884                7.78302355               97.14654895                0.68438441               -0.02603233               -0.03917862                0.10695958               -0.05535653                0.07175004               -0.05730812
               2.87245857                7.77677561               97.15638004                0.60061127               -0.00964652               -0.03224383                0.12659012               -0.01728967                0.16694295               -0.04997504
               3.87250590                7.77060705               97.16796665                0.23763226               -0.02457339               -0.01498120                0.08339059               -0.00159576                0.20389700               -0.15660852
               4.87196710                7.76553636               97.17903832                0.19646433               -0.16655425                0.00926514                0.21645713                0.31043458                0.14211750               -0.36185934
               5.86917482                7.76350515               97.18688769                0.45167576               -0.17701390               -0.04598625                0.17133784                0.37387544               -0.07254282               -0.25660039
               6.86842682                7.75906960               97.19316129                0.72940109               -0.05991050               -0.03102771                0.13231612                0.17209325               -0.13010991               -0.16710077
               7.86797661                7.75369267               97.19926464                0.83003052               -0.03752894               -0.03751081                0.11385214                0.08889163               -0.10806009               -0.10761826
               8.86767625                7.74770608               97.20557471                0.63963961               -0.02820563               -0.03581654                0.09995198                0.03964335               -0.07593078               -0.04631347
               9.86741250                7.74131895               97.21216354                0.73200670               -0.02637489               -0.00585373                0.08365946                0.02428943               -0.06400923                0.01624364
              -0.12032610                8.79607681               97.13125203                0.59991792               -0.04701376               -0.04335545                0.13288008               -0.01189952               -0.00632235               -0.06235716
               0.87920377                8.78955775               97.14022753                0.37735899               -0.05267436               -0.04215915                0.14523897               -0.03967313                0.00483255               -0.02401902
               1.87862042                8.78260686               97.14958901                0.69278053               -0.04633275               -0.03817760                0.12386393               -0.06066631                0.03419014               -0.04582312
               2.87827711                8.77641198               97.15953748                0.80980362               -0.03451791               -0.03507449                0.13213997               -0.02099098                0.07837464               -0.03438032
               3.87793006                8.77064362               97.16983655                0.59645915               -0.03604246               -0.00986274                0.13901682                0.02254477                0.10492612               -0.11366761
               4.87755626                8.76607517               97.18031106                0.44895917               -0.10047861                0.02420561                0.15592897                0.11333070                0.11259796               -0.18448445
               5.87592049                8.76301715               97.19044417                0.50131026               -0.14256154               -0.03442685                0.16740313                0.19777857                0.07643663               -0.14662770
               6.87470503                8.75879380               97.19869388                0.59138912               -0.08371139               -0.02930582                0.12832556                0.10455328               -0.00845421               -0.10963015
               7.87424626                8.75339238               97.20574661                0.63760227               -0.03554466               -0.02823199                0.09951045                0.03991133               -0.04712641               -0.07568667
               8.87399414                8.74745147               97.21261034                0.53588082               -0.02341543               -0.02361286                0.08610468                0.01068436               -0.04091962               -0.04009201
               9.87377795                8.74123930               97.21965795                0.71219166               -0.02161878               -0.01030691                0.07549749                0.00406468               -0.03822644               -0.00284272
              -0.11385476                9.79567324               97.13502348                0.80935879               -0.04895407               -0.04035699                0.13499934               -0.00492964               -0.02072474               -0.04067388
               0.88565570                9.78915261               97.14407032                0.71069456               -0.07569838               -0.04051453                0.14914200               -0.02546850               -0.02292367               -0.01256721
               1.88463128                9.78226000               97.15311635                0.89811026               -0.08268563               -0.03468626                0.13688439               -0.05283845                0.01043709               -0.02801898
               2.88400199                9.77607412               97.16313519                0.99749214               -0.06688306               -0.03378636                0.12876244               -0.02002258                0.08196181               -0.01242074
               3.88329361                9.77040979               97.17353982                0.98156303               -0.10708985               -0.02338309                0.12830876                0.03367320                0.19085061               -0.02159889
               4.88186019                9.76602047               97.18513817                0.86135687               -0.14409248               -0.00546950                0.12257572                0.05073424                0.31393658               -0.02888477
               5.88041176                9.76281662               97.19603945                0.75070375               -0.08587676               -0.02005299                0.12974469                0.07227828                0.23650555               -0.07011195
               6.88014266                9.75848349               97.20482107                0.71736658               -0.01473034               -0.03103107                0.10304098                0.05933339                0.08817152               -0.08701967
               7.88011716                9.75312803               97.21250342                0.73097600               -0.00498224               -0.02643463                0.08335897                0.02460686                0.01491365               -0.06406291
               8.88004301                9.74723383               97.21982538                0.71193506               -0.00995100               -0.02176487                0.07552678                0.00412638               -0.00447641               -0.03765665
               9.87991814                9.74111281               97.22722119                0.84023775               -0.01248747               -0.01264871                0.06876032                0.00191750               -0.01264137               -0.01123953
              -0.18802448               -0.20461066               98.10136654                0.66835164               -0.02190979               -0.02192338                0.06818761                0.02195470                0.00608179                0.00582357
               0.81175642               -0.21062312               98.10579479                0.45139558               -0.02220709               -0.04982956                0.11606489                0.05568010                0.00005108                0.01914926
               1.81153138               -0.21540224               98.11024513                0.54430016               -0.04361843               -0.05643889                0.10031318                0.02417197               -0.09363480                0.02015973
               2.81088405               -0.22037207               98.11356343                0.61103102               -0.05222468               -0.02580203                0.06890655               -0.00237068               -0.15388997                0.06263832
               3.81048689               -0.22612388               98.11640956                0.56173864               -0.03159629               -0.02481430                0.07824000               -0.03727484               -0.14280542                0.05513194
               4.81025213               -0.23208118               98.11921168                0.50345957               -0.02711925               -0.02920854                0.10230595               -0.03819793               -0.12420739                0.02570584
               5.80994450               -0.23798668               98.12210021                0.49254309               -0.03963701               -0.04003529                0.12718221               -0.02200019               -0.11122324               -0.00391712
               6.80945939               -0.24390467               98.12510910                0.51920869               -0.04985089               -0.05045495                0.13771281               -0.01030057               -0.10139337               -0.01444742
               7.80894748               -0.24996697               98.12814536                0.54884685               -0.04648892               -0.05101959                0.13963066               -0.00994786               -0.08676814               -0.00461112
               8.80852961               -0.25604194               98.13129972                0.56549372               -0.04017938               -0.05298043                0.13923534               -0.01026652               -0.05490293               -0.00011328
               9.80814390               -0.26196311               98.13486707                0.78333198               -0.03857150               -0.05069424                0.13379993               -0.00897244               -0.03208573               -0.00511271
              -0.18179247                0.79517010               98.10594200                0.45143844               -0.04985119               -0.02231015                0.11604563                0.05563572                0.01899694               -0.00042093
               0.81770901                0.78887858               98.11046863                0.03698137               -0.07799767               -0.07788480                0.16595419                0.11070752                0.06012833                0.06036519
               1.81664757                0.78403337               98.11575601                0.04560713               -0.07439236               -0.07308306                0.26777012                0.15877764                0.14838406               -0.12178708
               2.81622117                0.77936991               98.12120243                0.59382771               -0.03394407               -0.01674562                0.20377317                0.04599346                0.08987245                0.21610936
               3.81596869                0.77362798               98.12500443                0.76620557               -0.02098096               -0.02847972                0.12427823               -0.02034188               -0.03901462                0.08308624
               4.81580155                0.76762674               98.12794807                0.59903556               -0.01662213               -0.02524977                0.09884624               -0.03945689               -0.08207134                0.04498766
               5.81563625                0.76161297               98.13074900                0.41298275               -0.02275078               -0.03188492                0.12704355               -0.04189746               -0.06870945                0.03102649
               6.81534653                0.75559078               98.13388770                0.32952335               -0.03598051               -0.04148740                0.16782364               -0.03699998               -0.04409287                0.01296637
               7.81491664                0.74952283               98.13724973                0.31097334               -0.04607596               -0.04937830                0.17910027               -0.03667478               -0.03566346               -0.00037950
               8.81442501                0.74342825               98.14062274                0.33192697               -0.04706498               -0.06867209                0.17560015               -0.03294893               -0.02522154               -0.00876654
               9.81397534                0.73752995               98.14426056                0.67976013               -0.04496741               -0.08677291                0.16809375               -0.02481912               -0.01871645               -0.02372282
              -0.17432873                1.79494313               98.11053528                0.54419690               -0.05639665               -0.04389985                0.10035238                0.02419599                0.02018221               -0.09425812
               0.82510731                1.78781918               98.11590514                0.04503827               -0.07278355               -0.07410961                0.26762143                0.15828715               -0.12223161                0.14862137
               1.82421560                1.78313609               98.11864908                0.01000001               -0.14489962               -0.14382496                0.66404986                0.37165003                0.29000922                0.29179465
               2.82220932                1.77929302               98.13186708                0.02593666               -0.11961915               -0.10102411                0.09479566                0.22857670                0.40540267                0.18201226
               3.82182322                1.77330652               98.13438710                0.51614527               -0.03656594                0.01020370                0.12225727               -0.00465677               -0.07677286                0.23792386
               4.82147800                1.76741383               98.13751466                0.78312957               -0.03403529               -0.01876501                0.12467399               -0.01895596               -0.03992037                0.14073672
               5.82114251                1.76137563               98.14063911                0.75277214               -0.03342335               -0.02209582                0.10999777               -0.03451195               -0.04343268                0.09348016
               6.82080953                1.75526558               98.14361428                0.64194286               -0.03830024               -0.02150184                0.10917570               -0.04883887               -0.04996002                0.06649308
               7.82037651                1.74904546               98.14666055                0.56410133               -0.04730082               -0.03488403                0.13745616               -0.06536567               -0.04339283                0.03670985
               8.81986351                1.74258462               98.14987665                0.57050847               -0.04661927               -0.06310700                0.16707134               -0.06083647               -0.02384014                0.00956621
               9.81944412                1.73630143               98.15335833                0.80615543               -0.04193891               -0.09289262                0.17058730               -0.04583077               -0.01780248               -0.00725187
              -0.16706065                2.79429210               98.11399871                0.61109587               -0.02575522               -0.05255690                0.06899825               -0.00216484                0.06246332               -0.15416268
               0.83268179                2.78739639               98.12149820                0.59368522               -0.01663052               -0.03370303                0.20363638                0.04644491                0.21593754                0.08992982
               1.83260674                2.78115687               98.13202405                0.02583908               -0.10297613               -0.11816029                0.09455339                0.22933497                0.18074305                0.40554461
               2.83062227                2.77734943               98.14031995                0.01000000               -0.24259952               -0.24067652                0.46580355                0.49198176                0.18517766                0.18592253
               3.82775475                2.77383205               98.14602156                0.01355637               -0.16344718               -0.15056079                0.19514714                0.19652572               -0.01391450                0.26070986
               4.82735333                2.76725144               98.14821353                0.23020730               -0.03302425                0.02273594                0.08484031               -0.02247150               -0.09393848                0.27178945
               5.82709426                2.76117105               98.15087918                0.58910645               -0.03267041                0.01804602                0.10563345               -0.01364961               -0.05795105                0.24125942
               6.82669992                2.75516074               98.15391275                0.74113092               -0.04019873                0.00513335                0.12410297               -0.03319275               -0.04359525                0.18726764
               7.82629029                2.74882515               98.15702488                0.68122174               -0.03738045               -0.01684272                0.12415415               -0.04782591               -0.04991175                0.11131039
               8.82595231                2.74216611               98.15990559                0.68591373               -0.03325974               -0.03567852                0.12563663               -0.03500188               -0.03739630                0.05748358
               9.82562509                2.73567210               98.16324238                0.87312961               -0.03272194               -0.05387938                0.12266753               -0.02088955               -0.01973497                0.06640590
              -0.16058059                3.79389199               98.11699256                0.56179760               -0.02479641               -0.03191213                0.07836576               -0.03719061                0.05502441               -0.14272627
               0.83917144                3.78714512               98.12544935                0.76618670               -0.02850713               -0.02092991                0.12430927               -0.02018602                0.08297102               -0.03892459
               1.83884926                3.78077289               98.13469402                0.51545963                0.01011632               -0.03637165                0.12202441               -0.00443485                0.23747805               -0.07705816
               2.83937377                3.77447949               98.14618574                0.01338058               -0.14987696               -0.16350371                0.19676789                0.19609206                0.26232462               -0.01719694
               3.83585172                3.77029531               98.15417567                0.01734991               -0.28421032               -0.28242804                0.51485083                0.56335902                0.07745206                0.08144947
               4.83368956                3.76786855               98.16104798                0.01883854               -0.14457515               -0.22400713                0.33183538                0.22969032               -0.08383464                0.29885451
               5.83296022                3.76173655               98.16355539                0.27470363               -0.05989917                0.02005614                0.11606057               -0.03558026               -0.14375357                0.29642704
               6.83249158                3.75536825               98.16596700                0.41106356               -0.02728025                0.00928683                0.08073489               -0.05101617               -0.12595040                0.24104213
               7.83241462                3.74870861               98.16811706                0.44615741               -0.00875252               -0.00484280                0.07188102               -0.05353848               -0.12121853                0.18029729
               8.83231653                3.74187105               98.17031167                0.61270288               -0.02001239               -0.02589274                0.12021337               -0.02312471               -0.07664230                0.11344927
               9.83201437                3.73522385               98.17378578                0.89191249               -0.03021598               -0.05011866                0.11790949               -0.01014583               -0.02727845                0.17834340
              -0.15431072                4.79365386               98.11994572                0.50359596               -0.02921014               -0.02749040                0.10252076               -0.03818932                0.02578250               -0.12377235
               0.84539718                4.78697779               98.12854471                0.59886441               -0.02528041               -0.01668100                0.09893779               -0.03941108                0.04501066               -0.08193971
               1.84518367                4.78042944               98.13797167                0.78232617               -0.01877426               -0.03390045                0.12459229               -0.01888327                0.14069368               -0.04015463
               2.84502169                4.77407935               98.14853108                0.22957890                0.02245973               -0.03289336                0.08489685               -0.02276255                0.27109976               -0.09445981
               3.84563287                4.76818349               98.16121296                0.01867312               -0.22578981               -0.14190265                0.31572500                0.22823833                0.25706852               -0.05128275
               4.84050590                4.76277130               98.16873901                0.03828533               -0.33749542               -0.33618673                0.24558069                0.56249856                0.08946742                0.09070533
               5.83888296                4.76157218               98.17514124                0.14464740               -0.08991806               -0.18917124                0.13190863                0.37675433               -0.13255474                0.34402759
               6.83870754                4.75534648               98.17784885                0.21773635               -0.00831215               -0.13253426                0.14659166                0.10424129               -0.17493435                0.12943267
               7.83871671                4.74872829               98.18003586                0.29562655                0.01335204               -0.07897022                0.11371399                0.05746015               -0.23119455                0.07777600
               8.83897458                4.74164826               98.18132442                0.47222852               -0.00000689               -0.03816524                0.15530866                0.02646289               -0.17366903                0.13150915
               9.83871658                4.73466972               98.18543418                0.81115444               -0.02579998               -0.05806792                0.10260612                0.02131678               -0.05391570                0.28859158
              -0.14799224                5.79334219               98.12298957                0.49255098               -0.04001129               -0.04002147                0.12752313               -0.02192039               -0.00379219               -0.11041188
               0.85160765                5.78681150               98.13149832                0.41307700               -0.03188624               -0.02289886                0.12712863               -0.04183111                0.03117717               -0.06854601
               1.85137004                5.78009488               98.14124800                0.75248690               -0.02215917               -0.03335605                0.11009240               -0.03453010                0.09358437               -0.04354160
               2.85116446                5.77382162               98.15134641                0.58841118                0.01772571               -0.03253992                0.10557317               -0.01409455                0.24071460               -0.05870134
               3.85172455                5.76745726               98.16387017                0.27439840                0.01931911               -0.05965295                0.11626982               -0.03631317                0.29550574               -0.14463038
               4.85155085                5.76114481               98.17529952                0.14467446               -0.19022107               -0.08991552                0.13206671                0.37734701                0.34453063               -0.13284740
               5.84792013                5.75795312               98.18123385                0.35781312               -0.20652790               -0.20587693                0.23489418                0.38057645               -0.16768118               -0.16790294
               6.84742029                5.75271756               98.18481009                0.50512165               -0.03290460               -0.15059081                0.16023122                0.25031492               -0.26494409               -0.13522579
               7.84726204                5.74712920               98.18823492                0.48438516               -0.02579656               -0.10377356                0.15045739                0.20140927               -0.25270287               -0.05530337
               8.84690436                5.74110774               98.19165170                0.42976151               -0.04321295               -0.05303108                0.16475341                0.10589936               -0.16251596                0.08149696
               9.84639778                5.73406249               98.19669135                0.70816566               -0.05065796               -0.03514384                0.12351717                0.04706465               -0.09888825                0.23264533
              -0.14168776                6.79285343               98.12615718                0.51930199               -0.05043797               -0.05016985                0.13804938               -0.01017685               -0.01431151               -0.10026229
               0.85780786                6.78651981               98.13479151                0.32964599               -0.04146459               -0.03616905                0.16790054               -0.03686700                0.01330722               -0.04389462
               1.85748295                6.77976231               98.14437736                0.64201324               -0.02152174               -0.03826588                0.10930913               -0.04878568                0.06680359               -0.04999013
               2.85737743                6.77342856               98.15452962                0.74084373                0.00502305               -0.04011029                0.12395514               -0.03350966                0.18703822               -0.04442460
               3.85758341                6.76699043               98.16643142                0.41131601                0.00897725               -0.02710428                0.08096355               -0.05149491                0.24067146               -0.12697610
               4.85755697                6.76097299               98.17815688                0.21770128               -0.13308353               -0.00799486                0.14677509                0.10414550                0.12978073               -0.17601857
               5.85492174                6.75745464               98.18497203                0.50459958               -0.15096092               -0.03281087                0.16020343                0.25088573               -0.13452371               -0.26516877
               6.85453775                6.75233466               98.18939088                0.75858065               -0.02835110               -0.02827327                0.12108164                0.14390106               -0.20162347               -0.20156345
               7.85435472                6.74665282               98.19425110                0.69497312               -0.01892375               -0.03652910                0.11167153                0.09191508               -0.14439532               -0.11872020
               8.85415928                6.74058764               98.19955344                0.48678313               -0.03031694               -0.03956787                0.12325001                0.05189670               -0.09495065               -0.01067215
               9.85374838                6.73396685               98.20545814                0.68973787               -0.04108989               -0.00586107                0.14245572                0.03261809               -0.08269568                0.08184365
              -0.13552854                7.79233879               98.12935390                0.54889476               -0.05100335               -0.04671074                0.13981952               -0.00984277               -0.00451882               -0.08557078
               0.86396143                7.78608812               98.13830852                0.31094068               -0.04929395               -0.04620451                0.17915806               -0.03647728                0.00014967               -0.03547359
               1.86348558                7.77932956               98.14757757                0.56418701               -0.03476354               -0.04729868                0.13745764               -0.06514931                0.03726917               -0.04341487
               2.86326615                7.77301942               98.15779112                0.68160780               -0.01676792               -0.03737613                0.12401182               -0.04798014                0.11132929               -0.05068794
               3.86315022                7.76691517               98.16872971                0.44734753               -0.00483035               -0.00863890                0.07206057               -0.05395911                0.18015144               -0.12226188
               4.86316955                7.76098492               98.18049159                0.29593578               -0.07870266                0.01352703                0.11347339                0.05725630                0.07831722               -0.23217910
               5.86157617                7.75729690               98.18855875                0.48321855               -0.10347115               -0.02588171                0.15014193                0.20204007               -0.05414829               -0.25341163
               6.86110012                7.75215209               98.19441829                0.69354655               -0.03644043               -0.01888762                0.11141263                0.09235759               -0.11884668               -0.14421728
               7.86084736                7.74639862               98.20034133                0.66313288               -0.02359291               -0.02372430                0.09836917                0.04129099               -0.08587541               -0.08533094
               8.86062827                7.74031638               98.20652005                0.49498244               -0.02778190               -0.02526523                0.10286221                0.00861326               -0.05268815               -0.03468205
               9.86029172                7.73394527               98.21311459                0.70080479               -0.03365448               -0.00797247                0.12962158               -0.00253978               -0.05055422                0.02444662
              -0.12938328                8.79191922               98.13266724                0.56544008               -0.05291811               -0.04029094                0.13923390               -0.01018188                0.00000365               -0.05402743
               0.87008754                8.78559572               98.14183559                0.33180275               -0.06840276               -0.04714891                0.17563040               -0.03279678               -0.00794787               -0.02515468
               1.86924867                8.77881634               98.15094835                0.57034076               -0.06276628               -0.04667811                0.16693780               -0.06060926                0.01043544               -0.02379714
               2.86883222                8.77268103               98.16082359                0.68644899               -0.03549702               -0.03330752                0.12558096               -0.03507812                0.05763870               -0.03775648
               3.86853873                8.76681765               98.17107465                0.61421491               -0.02559262               -0.02002355                0.12024599               -0.02339834                0.11355493               -0.07720870
               4.86832036                8.76124353               98.18193342                0.47336449               -0.03716825               -0.00007254                0.15496602                0.02626454                0.13239286               -0.17411917
               5.86779536                8.75693700               98.19212779                0.42902082               -0.05185876               -0.04348177                0.16408466                0.10611465                0.08253761               -0.16335809
               6.86728319                8.75195691               98.19988718                0.48495427               -0.03895574               -0.03045208                0.12287189                0.05236690               -0.01058906               -0.09502814
               7.86701625                8.74617834               98.20668903                0.49407456               -0.02491457               -0.02795115                0.10273942                0.00872105               -0.03567875               -0.05220286
               8.86678490                8.74008233               98.21349884                0.42983498               -0.02882133               -0.02905455                0.11495210               -0.01181318               -0.02162944               -0.02057187
               9.86643982                8.73380740               98.22059663                0.68914390               -0.03450761               -0.02237194                0.13859363               -0.01935168               -0.02453362                0.01605140
              -0.12308519                9.79153297               98.13638816                0.78323903               -0.05064411               -0.03862474                0.13378771               -0.00897435               -0.00463575               -0.03147302
               0.87640837                9.78514514               98.14562536                0.67959125               -0.08633614               -0.04505821                0.16816096               -0.02476603               -0.02227400               -0.01878203
               1.87518808                9.77839600               98.15458662                0.80585133               -0.09225431               -0.04203399                0.17027683               -0.04565215               -0.00579391               -0.01770703
               2.87456328                9.77235327               98.16431776                0.87309280               -0.05341618               -0.03277686                0.12234404               -0.02095871                0.06685425               -0.01981258
               3.87411976                9.76651470               98.17470707                0.89249790               -0.04938971               -0.03029533                0.11750397               -0.01038661                0.17862341               -0.02735959
               4.87357549                9.76098347               98.18620128                0.81197618               -0.05673408               -0.02600614                0.10199613                0.02114066                0.28938819               -0.05384877
               5.87298508                9.75642727               98.19732633                0.70811682               -0.03346783               -0.05097361                0.12219990                0.04695110                0.23415161               -0.09930789
               6.87290613                9.75154305               98.20595720                0.68896474               -0.00443627               -0.04138549                0.14203262                0.03291050                0.08206201               -0.08293162
               7.87289635                9.74583960               98.21345275                0.70030575               -0.00715939               -0.03387403                0.12965623               -0.00237732                0.02295223               -0.05018607
               8.87276294                9.73973529               98.22076477                0.68900499               -0.02208973               -0.03470402                0.13866583               -0.01928404                0.01417120               -0.02356654
               9.87245456                9.73349783               98.22819037                0.83553377               -0.03083818               -0.03095707                0.14712121               -0.02227280                0.00176343                0.00353265
              -0.19263735               -0.20937287               99.10194227                0.63851367               -0.02687580               -0.02689820                0.05387702                0.03175251                0.00528082                0.00510383
               0.80709389               -0.21533450               99.10701606                0.39156399               -0.03955138               -0.04684080                0.11307292                0.00467246               -0.04405854                0.00881353
               1.80657162               -0.22143856               99.11108106                0.54323724               -0.03717487               -0.05557207                0.10332980               -0.02934292               -0.10765391                0.09342621
               2.80635039               -0.22809554               99.11434455                0.49819697               -0.01418959               -0.03243249                0.10416390               -0.05746500               -0.10541007                0.05173775
               3.80628783               -0.23447574               99.11736310                0.45157812               -0.01105999               -0.04188607                0.14074505               -0.04283356               -0.09044872                0.02967710
               4.80612919               -0.24064857               99.12052325                0.46495513               -0.02330029               -0.06495245                0.15966736               -0.01637894               -0.07498510               -0.01467033
               5.80582182               -0.24671177               99.12366908                0.49788827               -0.03397912               -0.07297488                0.14923318               -0.00198133               -0.08080059               -0.02586711
               6.80544961               -0.25292972               99.12659197                0.51751492               -0.03728415               -0.06522076                0.13912988               -0.00871199               -0.07983086                0.00042024
               7.80507614               -0.25924387               99.12952989                0.52406482               -0.03642540               -0.05879219                0.13249500               -0.01261577               -0.06177002                0.00739989
               8.80472110               -0.26547656               99.13267009                0.52413793               -0.03572556               -0.05746278                0.13303611               -0.01089781               -0.03448732                0.00631845
               9.80436163               -0.27145905               99.13617862                0.75953530               -0.03594739               -0.05671111                0.12919493               -0.01636503               -0.01817652                0.00634711
              -0.18635819                0.79035815               99.10716290                0.39157083               -0.04683447               -0.03971004                0.11305940                0.00460426                0.00872141               -0.04436376
               0.81317346                0.78419709               99.11229051                0.05656889               -0.04915472               -0.04903074                0.21304877               -0.01130483                0.09281874                0.09289425
               1.81265871                0.77800572               99.11906835                0.48760950               -0.04395645               -0.06534485                0.30118729               -0.03639654                0.16958692                0.23938929
               2.81229433                0.77158013               99.12300841                0.70809817               -0.02613529               -0.01797592                0.14003947               -0.05730839               -0.03273830                0.10714618
               3.81213601                0.76510540               99.12603678                0.54861736               -0.01054567               -0.03083992                0.11380912               -0.05314771               -0.07876025                0.04532118
               4.81208342                0.75870191               99.12896753                0.38425829               -0.00967086               -0.05248191                0.15636372               -0.03657560               -0.05042368                0.00836924
               5.81194259                0.75255848               99.13238871                0.34858929               -0.02274383               -0.06489872                0.20990730               -0.02115596               -0.00649605               -0.02069765
               6.81162854                0.74641807               99.13598789                0.34595586               -0.03595947               -0.06653770                0.21591087               -0.02891583               -0.01028429               -0.02897394
               7.81122340                0.74016820               99.13925782                0.34526687               -0.04544150               -0.06938897                0.20880730               -0.03801691               -0.02620736               -0.01942165
               8.81071971                0.73394881               99.14252624                0.35565819               -0.05214650               -0.07508606                0.20507210               -0.02958209               -0.01951865               -0.01453136
               9.81018047                0.72797384               99.14606680                0.68182512               -0.05392429               -0.08809969                0.19977834               -0.02394546               -0.02014893               -0.02283026
              -0.18022315                1.78983293               99.11137235                0.54325607               -0.05566256               -0.03742862                0.10334335               -0.02916956                0.09317254               -0.10810861
               0.81922023                1.78368488               99.11921481                0.48681704               -0.06581018               -0.04378128                0.30123294               -0.03610357                0.23907271                0.16972328
               1.81846065                1.77725454               99.13029821                0.54954993               -0.05578407               -0.05529401                0.57919158                0.00967093                0.13461383                0.13523253
               2.81810454                1.77154494               99.13300897                0.63482577               -0.01787740                0.00233668                0.07222443                0.02123366               -0.12640704                0.16545777
               3.81810310                1.76490746               99.13564659                0.71800300               -0.00799721                0.00020445                0.10283959               -0.05110750               -0.09667845                0.15566641
               4.81794460                1.75830179               99.13857883                0.63556290               -0.02102773               -0.02165089                0.11082589               -0.05188140               -0.05487745                0.06751482
               5.81768255                1.75199025               99.14156389                0.56669160               -0.03415147               -0.02672815                0.13013402               -0.04941259               -0.03131812                0.02601939
               6.81726157                1.74573952               99.14482667                0.54267387               -0.04487444               -0.04456765                0.16543700               -0.05497625               -0.00878199               -0.00171370
               7.81678506                1.73936835               99.14838170                0.52491151               -0.04688725               -0.06147401                0.19191543               -0.05231790                0.00232649               -0.01568134
               8.81632383                1.73302172               99.15185706                0.53960132               -0.04761941               -0.07330894                0.20196504               -0.03757632               -0.00005660               -0.01345856
               9.81583267                1.72677896               99.15529568                0.77475305               -0.04911576               -0.09013389                0.19683737               -0.02741566               -0.00722425               -0.01696624
              -0.17464549                2.78960958               99.11478115                0.49823685               -0.03247292               -0.01444275                0.10427338               -0.05736479                0.05157525               -0.10560964
               0.82502978                2.78332146               99.12330374                0.70786111               -0.01812169               -0.02611583                0.14008756               -0.05714006                0.10701906               -0.03266501
               1.82499208                2.77689984               99.13316360                0.63474575                0.00181534               -0.01771895                0.07208500                0.02169321                0.16464442               -0.12643526
               2.82506609                2.77162687               99.14265301                0.22683897               -0.03175371               -0.03102131                0.09028445                0.04478507                0.05717258                0.05705435
               3.82435700                2.76510949               99.14695016                0.35476818               -0.05515442               -0.06635864                0.07385810               -0.11103856               -0.01637187                0.25425590
               4.82396300                2.75826889               99.14931035                0.66302256               -0.04201949                0.02574658                0.10309504               -0.11215170               -0.06874124                0.25749298
               5.82351661                2.75202392               99.15208419                0.76943042               -0.04060359                0.02690747                0.10865284               -0.07021208               -0.05377228                0.17112124
               6.82315093                2.74552671               99.15513315                0.63125719               -0.03108840               -0.00986880                0.10756163               -0.05721257               -0.03828231                0.08982792
               7.82289484                2.73893872               99.15809457                0.50082426               -0.02966751               -0.02772824                0.11797532               -0.03271442               -0.03227590                0.03582303
               8.82255758                2.73248263               99.16113160                0.50735393               -0.03885799               -0.03764500                0.14249183               -0.01567124               -0.01735330                0.02151611
               9.82211768                2.72617116               99.16450947                0.76521360               -0.04398927               -0.04242590                0.14128496               -0.01007718               -0.00600409                0.03901743
              -0.16879422                3.78954407               99.11794774                0.45157428               -0.04186154               -0.01140502                0.14091455               -0.04280494                0.02969927               -0.09040947
               0.83078716                3.78316257               99.12648249                0.54874010               -0.03083347               -0.01065054                0.11389440               -0.05303991                0.04536011               -0.07869382
               1.83058911                3.77690016               99.13595224                0.71765895                0.00017155               -0.00784693                0.10274715               -0.05087767                0.15566013               -0.09681693
               2.83079060                3.77092451               99.14711460                0.35423371               -0.06744029               -0.05468660                0.07378903               -0.11042210                0.25302684               -0.01620752
               3.82924030                3.76358029               99.16006665                0.67524263               -0.10017292               -0.09923305                0.33577062                0.01253020                0.24229805                0.24511769
               4.82878714                3.75881673               99.16306134                0.68846985               -0.01099124               -0.00190569                0.08166609                0.05555611               -0.17652112                0.20757568
               5.82902048                3.75252840               99.16455020                0.68457396                0.02076880                0.03503478                0.05152679               -0.07424107               -0.16772114                0.21142585
               6.82920251                3.74554215               99.16651198                0.55885983                0.00771843                0.02046749                0.05537608               -0.08978685               -0.09998619                0.16791587
               7.82917485                3.73881378               99.16879494                0.50075720               -0.02122749                0.00852460                0.09689173               -0.05813186               -0.07717467                0.13531939
               8.82877796                3.73226882               99.17147931                0.57633671               -0.04603887               -0.00785987                0.14037991               -0.03349250               -0.04137119                0.10474980
               9.82825407                3.72593044               99.17497300                0.82431081               -0.05238923               -0.01005286                0.12909528               -0.02489487               -0.01428895                0.14171763
              -0.16273857                4.78938148               99.12125956                0.46505526               -0.06485321               -0.02369614                0.15987753               -0.01632106               -0.01454039               -0.07466887
               0.83661289                4.78310845               99.12956500                0.38429365               -0.05244256               -0.00985598                0.15639136               -0.03646839                0.00854704               -0.05036202
               1.83621258                4.77674290               99.13903669                0.63526763               -0.02176880               -0.02092472                0.11091883               -0.05181235                0.06770586               -0.05493576
               2.83617752                4.77053313               99.14962735                0.66220743                0.02514081               -0.04179519                0.10304511               -0.11238584                0.25709498               -0.06907025
               3.83671539                4.76312483               99.16322742                0.68824068               -0.00257570               -0.01103926                0.08173694                0.05608820                0.20663427               -0.17631282
               4.83612600                4.75823078               99.17182241                0.43090908               -0.07045105               -0.07024745                0.14066826                0.18345216                0.11905946                0.11923033
               5.83530637                4.75272461               99.17660636                0.44823099               -0.05280965               -0.05520688                0.06639836                0.01181872               -0.00142957               -0.02364406
               6.83506981                4.74593606               99.17890241                0.44292258               -0.01504198                0.00733990                0.05697447               -0.06912325               -0.10882535                0.00214362
               7.83500553                4.73910922               99.18085372                0.46004033               -0.01493712                0.03756500                0.07127929               -0.06883918               -0.14327947                0.07109141
               8.83477107                4.73232544               99.18280572                0.54028224               -0.03544914                0.02576603                0.12856710               -0.04035862               -0.11360641                0.12845652
               9.83429655                4.72597010               99.18641682                0.79651687               -0.04745205                0.01690228                0.09403588               -0.02019818               -0.05286207                0.21938993
              -0.15657460                5.78907015               99.12456158                0.49794270               -0.07290291               -0.03432759                0.14944447               -0.00185192               -0.02578220               -0.08020107
               0.84269637                5.78296545               99.13313913                0.34864332               -0.06486105               -0.02297749                0.20996149               -0.02094704               -0.02042322               -0.00647680
               1.84212818                5.77648167               99.14217473                0.56673265               -0.02677119               -0.03409164                0.13026674               -0.04920420                0.02631650               -0.03128925
               2.84216095                5.77008861               99.15255055                0.76898026                0.02681219               -0.04047340                0.10858883               -0.07032920                0.17110482               -0.05424102
               3.84266443                5.76335950               99.16486781                0.68452661                0.03477217                0.02096775                0.05161195               -0.07416661                0.21117014               -0.16826579
               4.84285639                5.75741178               99.17676734                0.44840921               -0.05564299               -0.05266730                0.06648292                0.01197242               -0.02398681               -0.00138954
               5.84155157                5.75142427               99.18360192                0.60861860               -0.07104745               -0.07080095                0.12607021                0.05112682               -0.08642343               -0.08618904
               6.84143544                5.74568894               99.18631713                0.61370838               -0.00714373               -0.00805933                0.09512031                0.06050737               -0.20805062               -0.07501651
               7.84140869                5.73956508               99.18957120                0.52163530               -0.01627716                0.02762819                0.09588008                0.00720539               -0.16859486               -0.02766392
               8.84110990                5.73278414               99.19325766                0.47635492               -0.04239596                0.03802845                0.12258757               -0.01730865               -0.11250450                0.03428614
               9.84056077                5.72626848               99.19786479                0.72478320               -0.05491293                0.02999538                0.10028229               -0.01366368               -0.07910537                0.18044007
              -0.15056620                6.78869492               99.12764250                0.51753232               -0.06513600               -0.03756376                0.13930625               -0.00859789                0.00049052               -0.07909935
               0.84878244                6.78264890               99.13689232                0.34614616               -0.06642346               -0.03616051                0.21594065               -0.02858478               -0.02858517               -0.01020618
               1.84810533                6.77606107               99.14559067                0.54259047               -0.04446698               -0.04487039                0.16541792               -0.05458974               -0.00127862               -0.00879588
               2.84789310                6.76972367               99.15574883                0.63118983               -0.00982189               -0.03103653                0.10750576               -0.05724096                0.08994653               -0.03875051
               3.84790889                6.76354418               99.16697753                0.55930265                0.02037951                0.00795428                0.05538857               -0.09010995                0.16780243               -0.10068847
               4.84830069                6.75717743               99.17921263                0.44317128                0.00714249               -0.01477688                0.05703107               -0.06937869                0.00232808               -0.10954824
               5.84805174                6.75130859               99.18647795                0.61355266               -0.00807728               -0.00715523                0.09495182                0.06055162               -0.07479198               -0.20794145
               6.84813914                6.74577488               99.19045659                0.65902427                0.00013501                0.00000079                0.09273517                0.05925249               -0.15364624               -0.15331611
               7.84805444                6.73966178               99.19522480                0.54273621               -0.02088252               -0.00084793                0.09646488                0.00298874               -0.07863296               -0.09571710
               8.84772149                6.73308601               99.20081993                0.46164454               -0.04999272                0.01414513                0.13003514               -0.01762191               -0.02778263               -0.04728855
               9.84705459                6.72657001               99.20716682                0.70582491               -0.06669060                0.02004566                0.15927167               -0.01902066               -0.02296498                0.06512914
              -0.14465451                7.78831888               99.13073890                0.52405299               -0.05869490               -0.03664620                0.13255374               -0.01248955                0.00750750               -0.06104400
               0.85475854                7.78224224               99.14031727                0.34533675               -0.06919306               -0.04555417                0.20882004               -0.03766788               -0.01896759               -0.02609004
               1.85396163                7.77558426               99.14929810                0.52474415               -0.06127610               -0.04695972                0.19187500               -0.05192834               -0.01518182                0.00229478
               2.85353302                7.76946788               99.15886028                0.50094655               -0.02765812               -0.02967279                0.11795736               -0.03275890                0.03591477               -0.03265528
               3.85340846                7.76351859               99.16940787                0.50141093                0.00856962               -0.02110475                0.09680680               -0.05846025                0.13508301               -0.07781804
               4.85370441                7.75711624               99.18130779                0.46078415                0.03783444               -0.01471692                0.07110571               -0.06935691                0.07171645               -0.14400123
               5.85416515                7.75128116               99.18989053                0.52167951                0.02814506               -0.01630955                0.09529107                0.00692295               -0.02705718               -0.16899329
               6.85426731                7.74568896               99.19538954                0.54243455               -0.00039069               -0.02102777                0.09618573                0.00299119               -0.09608095               -0.07814392
               7.85415734                7.73954812               99.20123202                0.49086552               -0.02090391               -0.02124374                0.10377631               -0.03776669               -0.04287556               -0.04207765
               8.85384923                7.73306704               99.20763195                0.46099864               -0.04724953               -0.01453436                0.14228871               -0.04731332               -0.00254520               -0.02726117
               9.85321235                7.72666940               99.21475597                0.71770377               -0.06368834               -0.00427342                0.17679554               -0.03790869                0.00298336                0.02364615
              -0.13866271                8.78796200               99.13403671                0.52413527               -0.05735894               -0.03584675                0.13296610               -0.01078602                0.00643311               -0.03397044
               0.86076370                8.78173782               99.14374013                0.35555581               -0.07480835               -0.05224112                0.20514056               -0.02934523               -0.01395239               -0.01948023
               1.85984112                8.77512187               99.15292777                0.53934125               -0.07300531               -0.04774680                0.20193765               -0.03731194               -0.01289618               -0.00002023
               2.85930359                8.76913021               99.16204910                0.50738074               -0.03748976               -0.03891752                0.14248912               -0.01570907                0.02151820               -0.01751484
               3.85909133                8.76312209               99.17224147                0.57693453               -0.00763072               -0.04604235                0.14021054               -0.03365096                0.10464758               -0.04169835
               4.85915098                8.75688309               99.18341038                0.54157004                0.02630778               -0.03542285                0.12822275               -0.04076971                0.12910655               -0.11383695
               5.85961748                8.75098240               99.19372586                0.47690569                0.03905141               -0.04238976                0.12172058               -0.01775219                0.03503914               -0.11310055
               6.85993201                8.74535432               99.20115132                0.46149224                0.01517710               -0.05020718                0.12951363               -0.01776634               -0.04750837               -0.02746551
               7.85992102                8.73923690               99.20780140                0.46090190               -0.01390269               -0.04756247                0.14225010               -0.04738545               -0.02840387               -0.00174097
               8.85965395                8.73279532               99.21490938                0.45971045               -0.04146595               -0.04182022                0.16905544               -0.05063867                0.00936039                0.01040386
               9.85909170                8.72648454               99.22242983                0.72145914               -0.05622479               -0.03367059                0.18696223               -0.03658448                0.01663001                0.02948936
              -0.13242187                9.78760194               99.13769924                0.75944836               -0.05663635               -0.03600582                0.12914063               -0.01636899                0.00662137               -0.01781714
               0.86701176                9.78119741               99.14743354                0.68166888               -0.08775645               -0.05404061                0.19993593               -0.02382456               -0.02191577               -0.02017116
               1.86582300                9.77462932               99.15652189                0.77450592               -0.08965715               -0.04925475                0.19673683               -0.02720675               -0.01613884               -0.00719214
               2.86521862                9.76868953               99.16558207                0.76510410               -0.04202173               -0.04406823                0.14111932               -0.01007643                0.03909197               -0.00607219
               3.86498256                9.76259774               99.17588990                0.82453931               -0.00949608               -0.05243449                0.12869977               -0.02496363                0.14180901               -0.01436373
               4.86502870                9.75640778               99.18717809                0.79729265                0.01781580               -0.04753096                0.09352093               -0.02044678                0.21984394               -0.05268049
               5.86533888                9.75043337               99.19848345                0.72523226                0.03143914               -0.05490362                0.09890629               -0.01400869                0.18171447               -0.07938372
               6.86565748                9.74468482               99.20766172                0.70575422                0.02148772               -0.06695071                0.15837105               -0.01927721                0.06568362               -0.02278334
               7.86576863                9.73859687               99.21509655                0.71756796               -0.00343310               -0.06400309                0.17665564               -0.03794790                0.02242139                0.00368086
               8.86558882                9.73223064               99.22259870                0.72140468               -0.03332122               -0.05646800                0.18692924               -0.03655777                0.02793661                0.01750720
               9.86510221                9.72599599               99.23016362                0.85638189               -0.04866102               -0.04885577                0.19121371               -0.02241489                0.02057447                0.02186594
              -0.19806644               -0.21494985              100.10244408                1.00000000               -0.01971015               -0.01973973                0.05018094                0.01472683                0.01830810                0.01821240
               0.80173646               -0.22099576              100.10805625                1.00000000                0.00581229               -0.04665275                0.10401909               -0.13557331               -0.04236085                0.10120966
               1.80204981               -0.22950829              100.11231173                1.00000000                0.03786778               -0.08877051                0.12306640               -0.05630291               -0.07265862                0.13982981
               2.80249381               -0.23666503              100.11564671                1.00000000                0.02247065               -0.04865551                0.13021545               -0.05805481               -0.04002126               -0.02129715
               3.80249922               -0.24287769              100.11922446                1.00000000               -0.00236799               -0.08713888                0.18613590               -0.03639051               -0.04094545               -0.03457997
               4.80244645               -0.24926314              100.12240502                1.00000000               -0.01197263               -0.09983181                0.18817750               -0.05381106               -0.07525368                0.00557511
               5.80225977               -0.25594329              100.12508487                1.00000000               -0.02222463               -0.07525018                0.14157921               -0.04862753               -0.08187189                0.06307564
               6.80200196               -0.26268810              100.12789170                1.00000000               -0.03129004               -0.05353057                0.12997301               -0.03959956               -0.05924536                0.05558463
               7.80163396               -0.26927484              100.13079526                1.00000000               -0.04054131               -0.04425790                0.12653752               -0.02497168               -0.04078079                0.05996469
               8.80119113               -0.27562788              100.13396044                1.00000000               -0.04353272               -0.04214676                0.12903483               -0.01343265               -0.02021135                0.06124322
               9.80076331               -0.28161254              100.13745097                1.00000000               -0.04278247               -0.04311846                0.12723561               -0.02567324               -0.01077841                0.06516644
              -0.19187327                0.78485275              100.10820319                1.00000000               -0.04667911                0.00562825                0.10402853               -0.13569189                0.10113429               -0.04263648
               0.80765994                0.77853771              100.11472960                1.00000000                0.05973387                0.05980883                0.24390912               -0.30111513                0.12747628                0.12773988
               1.80932141                0.76960401              100.12177975                1.00000000                0.04690128                0.06268925                0.27114040               -0.23126915                0.12995087                0.05588807
               2.80859797                0.76284842              100.12400322                1.00000000               -0.04435204               -0.01886984                0.09948117               -0.07570515               -0.09459334                0.01007147
               3.80843437                0.75625092              100.12728062                1.00000000               -0.00784132               -0.08079147                0.12438347               -0.06446516               -0.01655738               -0.02447686
               4.80844114                0.74973854              100.13107535                1.00000000                0.00257994               -0.11577778                0.21078210               -0.04650089                0.01909867               -0.03002932
               5.80848597                0.74330421              100.13494714                1.00000000               -0.00847009               -0.09280855                0.25584318               -0.04767002                0.01086660               -0.01758116
               6.80827174                0.73677659              100.13820592                1.00000000               -0.03159163               -0.06129314                0.22180357               -0.06037566               -0.01174383               -0.01258155
               7.80785414                0.73028258              100.14142587                1.00000000               -0.05230414               -0.04150383                0.21680553               -0.05336248               -0.01101316               -0.00338255
               8.80722566                0.72395066              100.14472419                1.00000000               -0.06814488               -0.03310186                0.21979455               -0.02845175               -0.00789312               -0.00204006
               9.80649124                0.71795628              100.14825612                1.00000000               -0.07344184               -0.04340110                0.21893223               -0.01648348               -0.01572940               -0.00955079
              -0.18815021                1.78516271              100.11260215                1.00000000               -0.08868953                0.03758827                0.12298025               -0.05628274                0.14005938               -0.07297211
               0.81096290                1.78020042              100.12192980                1.00000000                0.06319629                0.04688494                0.27149887               -0.23187146                0.05580529                0.13007073
               1.81311372                1.77174550              100.13023291                1.00000000                0.16849507                0.16850623               -0.00652997               -0.50069495                0.03439564                0.03339544
               2.81433280                1.76295757              100.13331157                1.00000000                0.06030364                0.07682384                0.03025983               -0.34289120               -0.06662569                0.04738444
               3.81431979                1.75550648              100.13644389                1.00000000                0.00651733               -0.08769089                0.07973015               -0.11003372               -0.05735067                0.07080708
               4.81446315                1.74842130              100.13973117                1.00000000               -0.00257410               -0.09098761                0.11523416               -0.04513043               -0.00825028               -0.02804508
               5.81426831                1.74220054              100.14324179                1.00000000               -0.03235361               -0.08485191                0.16779032               -0.03126101                0.01816855               -0.07371698
               6.81381607                1.73608604              100.14692302                1.00000000               -0.04378282               -0.07523012                0.20963415               -0.03266512                0.01830354               -0.07244510
               7.81339265                1.72989508              100.15049886                1.00000000               -0.04338355               -0.05771040                0.21171524               -0.02918830                0.01040637               -0.04940051
               8.81294840                1.72371009              100.15391595                1.00000000               -0.04851286               -0.04882341                0.20588896               -0.02054777                0.00226878               -0.02960127
               9.81242240                1.71751944              100.15729508                1.00000000               -0.05260067               -0.05905750                0.19993961               -0.00616292               -0.00311444               -0.03535360
              -0.18307433                2.78560451              100.11608418                1.00000000               -0.04859389                0.02213417                0.13030317               -0.05820498               -0.02130738               -0.04007118
               0.81643973                2.77947541              100.12429995                1.00000000               -0.01876563               -0.04452149                0.09962078               -0.07595680                0.01007325               -0.09473361
               1.81655035                2.77297413              100.13346575                1.00000000                0.07697177                0.06089824                0.03021529               -0.34369388                0.04711253               -0.06676791
               2.81797916                2.76438489              100.14212564                1.00000000                0.21098068                0.21117125               -0.05273699               -0.62449681               -0.00704355               -0.00669999
               3.82076997                2.75449710              100.14749872                1.00000000                0.14326540                0.17069598                0.05485684               -0.30174799                0.04878623                0.16112122
               4.82084447                2.74791879              100.15027543                1.00000000               -0.02869775                0.05433494                0.09650809               -0.08387399               -0.03417702                0.11249589
               5.82019601                2.74160717              100.15305224                1.00000000               -0.04602899               -0.03788265                0.09680496               -0.03799715               -0.04263208                0.02553184
               6.81992389                2.73527199              100.15606399                1.00000000               -0.02748462               -0.05643676                0.09308340               -0.00238788               -0.00609586               -0.01789696
               7.81964632                2.72912837              100.15938439                1.00000000               -0.03667738               -0.06196189                0.12898199                0.01066686                0.00971976               -0.00323285
               8.81919034                2.72297419              100.16275543                1.00000000               -0.04485247               -0.07090812                0.16238271                0.00046994               -0.00253849                0.00932129
               9.81874927                2.71677513              100.16606808                1.00000000               -0.04410729               -0.06842949                0.15586135               -0.00396524               -0.00557567                0.01402724
              -0.17705610                3.78560539              100.11981085                1.00000000               -0.08697531               -0.00289316                0.18631060               -0.03644443               -0.03454967               -0.04091364
               0.82207415                3.77930999              100.12772723                1.00000000               -0.08067691               -0.00807513                0.12447439               -0.06453345               -0.02439613               -0.01662854
               1.82133036                3.77296346              100.13674896                1.00000000               -0.08771255                0.00670515                0.07967222               -0.11019523                0.07083923               -0.05745542
               2.82031989                3.76718100              100.14766152                1.00000000                0.17102886                0.14385508                0.05469224               -0.30246857                0.16003599                0.04896556
               3.82475094                3.75892040              100.16089109                1.00000000                0.26778512                0.26794906                0.08244329               -0.54362384                0.30205230                0.30145956
               4.82567560                3.74950800              100.16268130                1.00000000                0.07021122                0.17655612               -0.03800457               -0.44069196               -0.12641225                0.13297456
               5.82615516                3.74144289              100.16458592                1.00000000                0.02857576                0.02202031                0.00357252               -0.14861733               -0.06687062                0.06229658
               6.82624711                3.73495730              100.16707452                1.00000000               -0.01256837                0.01561031                0.05625405               -0.02136270               -0.02209129                0.08773326
               7.82590379                3.72865585              100.17005490                1.00000000               -0.04680327                0.01227440                0.12599581               -0.01819389               -0.02486801                0.08805942
               8.82531105                3.72229192              100.17311927                1.00000000               -0.05812921               -0.02675757                0.16399591               -0.02779946               -0.03105219                0.05932726
               9.82474121                3.71615085              100.17636769                1.00000000               -0.05698360               -0.03046994                0.13946894               -0.02971384               -0.02644404                0.08438222
              -0.17121241                4.78554665              100.12314327                1.00000000               -0.09966003               -0.01250859                0.18837096               -0.05361884                0.00554344               -0.07510192
               0.82779099                4.77931391              100.13167254                1.00000000               -0.11560775                0.00223268                0.21075383               -0.04632659               -0.02985153                0.01906139
               1.82647544                4.77310823              100.14019004                1.00000000               -0.09090678               -0.00241732                0.11533565               -0.04486643               -0.02774166               -0.00824769
               2.82597286                4.76726199              100.15059198                1.00000000                0.05475259               -0.02828382                0.09646298               -0.08392821                0.11241663               -0.03428030
               3.82757049                4.75985608              100.16284770                1.00000000                0.17676434                0.07107193               -0.03797235               -0.44159283                0.13352949               -0.12630850
               4.82950814                4.75144991              100.17155237                1.00000000                0.21019376                0.21093996               -0.02700379               -0.55735521                0.01928925                0.01930748
               5.83177436                4.74204758              100.17646921                1.00000000                0.13877667                0.24574333               -0.01371592               -0.26895037                0.01859757               -0.10923716
               6.83228368                4.73558420              100.17898834                1.00000000                0.00867279                0.23528768                0.00859241               -0.08154172               -0.02900134               -0.05328801
               7.83194782                4.72937386              100.18146145                1.00000000               -0.05721638                0.17744993                0.06077313               -0.10496745               -0.06039981                0.03134579
               8.83113935                4.72243904              100.18389576                1.00000000               -0.07553400                0.07436622                0.10900445               -0.10792505               -0.07049931                0.06056901
               9.83043714                4.71616573              100.18731490                1.00000000               -0.07022088                0.03852146                0.08980853               -0.08432056               -0.04402697                0.13602793
              -0.16566299                5.78535522              100.12597846                1.00000000               -0.07509745               -0.02262670                0.14168843               -0.04831746                0.06306913               -0.08149097
               0.83358603                5.77935464              100.13569755                1.00000000               -0.09260295               -0.00881785                0.25584185               -0.04715538               -0.01729042                0.01080843
               1.83248495                5.77291511              100.14385334                1.00000000               -0.08462739               -0.03226059                0.16786112               -0.03069415               -0.07329155                0.01812837
               2.83189348                5.76661532              100.15351819                1.00000000               -0.03768903               -0.04590867                0.09676409               -0.03783197                0.02570662               -0.04294095
               3.83173117                5.76034184              100.16490241                1.00000000                0.02217574                0.02902595                0.00346017               -0.14916799                0.06222345               -0.06719195
               4.83233700                5.75372680              100.17662918                1.00000000                0.24553499                0.13958279               -0.01381557               -0.26945597               -0.10929734                0.01875879
               5.83664187                5.74635775              100.18375525                1.00000000                0.24764969                0.24798096                0.01533353               -0.18280806                0.01319548                0.01344146
               6.83728999                5.73966306              100.18671249                1.00000000                0.01538707                0.23058629                0.03953616               -0.18592987               -0.09468187                0.01027380
               7.83694961                5.73220484              100.19015252                1.00000000               -0.04646574                0.18518989                0.05813211               -0.27064575               -0.07636066               -0.00007617
               8.83636068                5.72377925              100.19410345                1.00000000               -0.06740971                0.14142694                0.08457861               -0.23806580               -0.04769886                0.01243010
               9.83560141                5.71692128              100.19869700                1.00000000               -0.07592640                0.11062603                0.08322043               -0.17788881               -0.03658133                0.13171347
              -0.16017759                6.78509412              100.12894331                1.00000000               -0.05344143               -0.03157595                0.13008073               -0.03926289                0.05556185               -0.05875512
               0.83928799                6.77913755              100.13911032                1.00000000               -0.06107673               -0.03180663                0.22179949               -0.05971252               -0.01232422               -0.01176644
               1.83860087                6.77246302              100.14768572                1.00000000               -0.07492479               -0.04383779                0.20950487               -0.03198695               -0.07197495                0.01828225
               2.83778950                6.76634382              100.15667973                1.00000000               -0.05626099               -0.02746420                0.09309051               -0.00226093               -0.01768620               -0.00638087
               3.83747565                6.76043660              100.16753920                1.00000000                0.01568051               -0.01234849                0.05616682               -0.02145285                0.08756465               -0.02258608
               4.83810311                6.75424157              100.17929750                1.00000000                0.23531474                0.00901741                0.00848694               -0.08225960               -0.05316477               -0.02936049
               5.84218195                6.74700719              100.18687106                1.00000000                0.23074396                0.01556885                0.03931105               -0.18671172                0.01042482               -0.09467386
               6.84271799                6.74019592              100.19124559                1.00000000                0.01183824                0.01157134                0.07890004               -0.16912562               -0.07664897               -0.07641974
               7.84241871                6.73307766              100.19618040                1.00000000               -0.05281946                0.03878076                0.09556031               -0.20652583               -0.01814493               -0.04519512
               8.84166160                6.72526758              100.20215415                1.00000000               -0.09117056                0.09512313                0.13342133               -0.20033352                0.01716939               -0.01872410
               9.84059530                6.71837825              100.20864358                1.00000000               -0.10662963                0.11169530                0.14767541               -0.16383527                0.00301441                0.07849894
              -0.15453512                7.78472370              100.13200497                1.00000000               -0.04420017               -0.04073202                0.12660681               -0.02471346                0.05993427               -0.04035463
               0.84502288                7.77871851              100.14248492                1.00000000               -0.04129694               -0.05238525                0.21676543               -0.05279514               -0.00306128               -0.01096896
               1.84463894                7.77203836              100.15141507                1.00000000               -0.05740945               -0.04354355                0.21169685               -0.02857807               -0.04900171                0.01047940
               2.84387469                7.76606604              100.16015026                1.00000000               -0.06172870               -0.03674392                0.12899889                0.01079424               -0.00329407                0.00949805
               3.84340436                7.76009487              100.17066585                1.00000000                0.01232622               -0.04674729                0.12579819               -0.01820714                0.08776202               -0.02538927
               4.84412121                7.75390715              100.18191370                1.00000000                0.17744540               -0.05725392                0.06059091               -0.10553696                0.03161652               -0.06089040
               5.84695327                7.74666913              100.19046457                1.00000000                0.18579020               -0.04625596                0.05740410               -0.27197055                0.00022718               -0.07664649
               6.84783701                7.73989448              100.19634200                1.00000000                0.03970832               -0.05302507                0.09524595               -0.20745869               -0.04541509               -0.01785427
               7.84774744                7.73298046              100.20241686                1.00000000               -0.03918000               -0.03993337                0.11848372               -0.19706877                0.01020122                0.01091550
               8.84705341                7.72568171              100.20936583                1.00000000               -0.08220408                0.00280459                0.17338729               -0.15715945                0.03210022               -0.00224292
               9.84610336                7.71915519              100.21665050                1.00000000               -0.09500576                0.03056429                0.18945263               -0.09584066                0.01756789                0.03319377
              -0.14866147                8.78427948              100.13532656                1.00000000               -0.04210942               -0.04360683                0.12898556               -0.01327566                0.06130755               -0.01995240
               0.85091743                8.77808985              100.14593840                1.00000000               -0.03283744               -0.06818028                0.21982615               -0.02814003               -0.00159922               -0.00783962
               1.85068178                8.77159215              100.15498710                1.00000000               -0.04842796               -0.04872220                0.20593385               -0.02015307               -0.02918520                0.00234224
               2.84994888                8.76560894              100.16367337                1.00000000               -0.07056898               -0.04500795                0.16242743                0.00059635                0.00911594               -0.00263261
               3.84927040                8.75950165              100.17387886                1.00000000               -0.02653857               -0.05821464                0.16373851               -0.02784508                0.05913276               -0.03128208
               4.84941810                8.75309649              100.18449788                1.00000000                0.07424008               -0.07563619                0.10875007               -0.10809881                0.06087981               -0.07076058
               5.85075520                8.74608208              100.19456220                1.00000000                0.14196887               -0.06723549                0.08363373               -0.23892969                0.01275091               -0.04803833
               6.85225748                8.73913542              100.20247745                1.00000000                0.09674528               -0.09139471                0.13261334               -0.20166976               -0.01886067                0.01724093
               7.85269011                8.73227899              100.20953403                1.00000000                0.00431000               -0.08287693                0.17326326               -0.15756948               -0.00296666                0.03265900
               8.85234368                8.72532367              100.21687995                1.00000000               -0.04792851               -0.04874513                0.19705682               -0.10441332                0.00906497                0.00971131
               9.85173154                8.71898954              100.22433587                1.00000000               -0.06121438               -0.03438135                0.19060494               -0.05177055                0.00957567                0.01870670
              -0.14242138                9.78385157              100.13897097                1.00000000               -0.04312222               -0.04279093                0.12717352               -0.02565710                0.06536043               -0.01059653
               0.85714740                9.77735490              100.14962408                1.00000000               -0.04309206               -0.07349444                0.21905361               -0.01638606               -0.00891694               -0.01568291
               1.85671678                9.77106392              100.15852136                1.00000000               -0.05851451               -0.05282359                0.19994685               -0.00595102               -0.03481807               -0.00311571
               2.85597711                9.76516588              100.16714015                1.00000000               -0.06784316               -0.04430627                0.15580779               -0.00384369                0.01383484               -0.00568738
               3.85535992                9.75893057              100.17728107                1.00000000               -0.02991486               -0.05710818                0.13911734               -0.02962102                0.08431327               -0.02649546
               4.85537881                9.75239442              100.18807170                1.00000000                0.03879123               -0.07020626                0.08936071               -0.08423680                0.13618102               -0.04395361
               5.85613574                9.74532442              100.19930446                1.00000000                0.11139451               -0.07576565                0.08210107               -0.17833775                0.13233254               -0.03666866
               6.85760670                9.73806659              100.20912462                1.00000000                0.11360308               -0.10688342                0.14629019               -0.16515274                0.07899252                0.00289408
               7.85840780                9.73132292              100.21698586                1.00000000                0.03239502               -0.09560707                0.18893166               -0.09621933                0.03285389                0.01778780
               8.85825460                9.72470681              100.22450336                1.00000000               -0.03357981               -0.06168584                0.19046580               -0.05167588                0.01801753                0.00995745
               9.85773621                9.71846756              100.23201464                1.00000000               -0.05183956               -0.05219769                0.18510261               -0.02345792                0.01452887                0.01503435
         1          2         13         12        122        123        134        133  
         2          3         14         13        123        124        135        134  
         3          4         15         14        124        125        136        135  
         4          5         16         15        125        126        137        136  
         5          6         17         16        126        127        138        137  
         6          7         18         17        127        128        139        138  
         7          8         19         18        128        129        140        139  
         8          9         20         19        129        130        141        140  
         9         10         21         20        130        131        142        141  
        10         11         22         21        131        132        143        142  
        12         13         24         23        133        134        145        144  
        13         14         25         24        134        135        146        145  
        14         15         26         25        135        136        147        146  
        15         16         27         26        136        137        148        147  
        16         17         28         27        137        138        149        148  
        17         18         29         28        138        139        150        149  
        18         19         30         29        139        140        151        150  
        19         20         31         30        140        141        152        151  
        20         21         32         31        141        142        153        152  
        21         22         33         32        142        143        154        153  
        23         24         35         34        144        145        156        155  
        24         25         36         35        145        146        157        156  
        25         26         37         36        146        147        158        157  
        26         27         38         37        147        148        159        158  
        27         28         39         38        148        149        160        159  
        28         29         40         39        149        150        161        160  
        29         30         41         40        150        151        162        161  
        30         31         42         41        151        152        163        162  
        31         32         43         42        152        153        164        163  
        32         33         44         43        153        154        165        164  
        34         35         46         45        155        156        167        166  
        35         36         47         46        156        157        168        167  
        36         37         48         47        157        158        169        168  
        37         38         49         48        158        159        170        169  
        38         39         50         49        159        160        171        170  
        39         40         51         50        160        161        172        171  
        40         41         52         51        161        162        173        172  
        41         42         53         52        162        163        174        173  
        42         43         54         53        163        164        175        174  
        43         44         55         54        164        165        176        175  
        45         46         57         56        166        167        178        177  
        46         47         58         57        167        168        179        178  
        47         48         59         58        168        169        180        179  
        48         49         60         59        169        170        181        180  
        49         50         61         60        170        171        182        181  
        50         51         62         61        171        172        183        182  
        51         52         63         62        172        173        184        183  
        52         53         64         63        173        174        185        184  
        53         54         65         64        174        175        186        185  
        54         55         66         65        175        176        187        186  
        56         57         68         67        177        178        189        188  
        57         58         69         68        178        179        190        189  
        58         59         70         69        179        180        191        190  
        59         60         71         70        180        181        192        191  
        60         61         72         71        181        182        193        192  
        61         62         73         72        182        183        194        193  
        62         63         74         73        183        184        195        194  
        63         64         75         74        184        185        196        195  
        64         65         76         75        185        186        197        196  
        65         66         77         76        186        187        198        197  
        67         68         79         78        188        189        200        199  
        68         69         80         79        189        190        201        200  
        69         70         81         80        190        191        202        201  
        70         71         82         81        191        192        203        202  
        71         72         83         82        192        193        204        203  
        72         73         84         83        193        194        205        204  
        73         74         85         84        194        195        206        205  
        74         75         86         85        195        196        207        206  
        75         76         87         86        196        197        208        207  
        76         77         88         87        197        198        209        208  
        78         79         90         89        199        200        211        210  
        79         80         91         90        200        201        212        211  
        80         81         92         91        201        202        213        212  
        81         82         93         92        202        203        214        213  
        82         83         94         93        203        204        215        214  
        83         84         95         94        204        205        216        215  
        84         85         96         95        205        206        217        216  
        85         86         97         96        206        207        218        217  
        86         87         98         97        207        208        219        218  
        87         88         99         98        208        209        220        219  
        89         90        101        100        210        211        222        221  
        90         91        102        101        211        212        223        222  
        91         92        103        102        212        213        224        223  
        92         93        104        103        213        214        225        224  
        93         94        105        104        214        215        226        225  
        94         95        106        105        215        216        227        226  
        95         96        107        106        216        217        228        227  
        96         97        108        107        217        218        229        228  
        97         98        109        108        218        219        230        229  
        98         99        110        109        219        220        231        230  
       100        101        112        111        221        222        233        232  
       101        102        113        112        222        223        234        233  
       102        103        114        113        223        224        235        234  
       103        104        115        114        224        225        236        235  
       104        105        116        115        225        226        237        236  
       105        106        117        116        226        227        238        237  
       106        107        118        117        227        228        239        238  
       107        108        119        118        228        229        240        239  
       108        109        120        119        229        230        241        240  
       109        110        121        120        230        231        242        241  
       122        123        134        133        243        244        255        254  
       123        124        135        134        244        245        256        255  
       124        125        136        135        245        246        257        256  
       125        126        137        136        246        247        258        257  
       126        127        138        137        247        248        259        258  
       127        128        139        138        248        249        260        259  
       128        129        140        139        249        250        261        260  
       129        130        141        140        250        251        262        261  
       130        131        142        141        251        252        263        262  
       131        132        143        142        252        253        264        263  
       133        134        145        144        254        255        266        265  
       134        135        146        145        255        256        267        266  
       135        136        147        146        256        257        268        267  
       136        137        148        147        257        258        269        268  
       137        138        149        148        258        259        270        269  
       138        139        150        149        259        260        271        270  
       139        140        151        150        260        261        272        271  
       140        141        152        151        261        262        273        272  
       141        142        153        152        262        263        274        273  
       142        143        154        153        263        264        275        274  
       144        145        156        155        265        266        277        276  
       145        146        157        156        266        267        278        277  
       146        147        158        157        267        268        279        278  
       147        148        159        158        268        269        280        279  
       148        149        160        159        269        270        281        280  
       149        150        161        160        270        271        282        281  
       150        151        162        161        271        272        283        282  
       151        152        163        162        272        273        284        283  
       152        153        164        163        273        274        285        284  
       153        154        165        164        274        275        286        285  
       155        156        167        166        276        277        288        287  
       156        157        168        167        277        278        289        288  
       157        158        169        168        278        279        290        289  
       158        159        170        169        279        280        291        290  
       159        160        171        170        280        281        292        291  
       160        161        172        171        281        282        293        292  
       161        162        173        172        282        283        294        293  
       162        163        174        173        283        284        295        294  
       163        164        175        174        284        285        296        295  
       164        165        176        175        285        286        297        296  
       166        167        178        177        287        288        299        298  
       167        168        179        178        288        289        300        299  
       168        169        180        179        289        290        301        300  
       169        170        181        180        290        291        302        301  
       170        171        182        181        291        292        303        302  
       171        172        183        182        292        293        304        303  
       172        173        184        183        293        294        305        304  
       173        174        185        184        294        295        306        305  
       174        175        186        185        295        296        307        306  
       175        176        187        186        296        297        308        307  
       177        178        189        188        298        299        310        309  
       178        179        190        189        299        300        311        310  
       179        180        191        190        300        301        312        311  
       180        181        192        191        301        302        313        312  
       181        182        193        192        302        303        314        313  
       182        183        194        193        303        304        315        314  
       183        184        195        194        304        305        316        315  
       184        185        196        195        305        306        317        316  
       185        186        197        196        306        307        318        317  
       186        187        198        197        307        308        319        318  
       188        189        200        199        309        310        321        320  
       189        190        201        200        310        311        322        321  
       190        191        202        201        311        312        323        322  
       191        192        203        202        312        313        324        323  
       192        193        204        203        313        314        325        324  
       193        194        205        204        314        315        326        325  
       194        195        206        205        315        316        327        326  
       195        196        207        206        316        317        328        327  
       196        197        208        207        317        318        329        328  
       197        198        209        208        318        319        330        329  
       199        200        211        210        320        321        332        331  
       200        201        212        211        321        322        333        332  
       201        202        213        212        322        323        334        333  
       202        203        214        213        323        324        335        334  
       203        204        215        214        324        325        336        335  
       204        205        216        215        325        326        337        336  
       205        206        217        216        326        327        338        337  
       206        207        218        217        327        328        339        338  
       207        208        219        218        328        329        340        339  
       208        209        220        219        329        330        341        340  
       210        211        222        221        331        332        343        342  
       211        212        223        222        332        333        344        343  
       212        213        224        223        333        334        345        344  
       213        214        225        224        334        335        346        345  
       214        215        226        225        335        336        347        346  
       215        216        227        226        336        337        348        347  
       216        217        228        227        337        338        349        348  
       217        218        229        228        338        339        350        349  
       218        219        230        229        339        340        351        350  
       219        220        231        230        340        341        352        351  
       221        222        233        232        342        343        354        353  
       222        223        234        233        343        344        355        354  
       223        224        235        234        344        345        356        355  
       224        225        236        235        345        346        357        356  
       225        226        237        236        346        347        358        357  
       226        227        238        237        347        348        359        358  
       227        228        239        238        348        349        360        359  
       228        229        240        239        349        350        361        360  
       229        230        241        240        350        351        362        361  
       230        231        242        241        351        352        363        362  
       243        244        255        254        364        365        376        375  
       244        245        256        255        365        366        377        376  
       245        246        257        256        366        367        378        377  
       246        247        258        257        367        368        379        378  
       247        248        259        258        368        369        380        379  
       248        249        260        259        369        370        381        380  
       249        250        261        260        370        371        382        381  
       250        251        262        261        371        372        383        382  
       251        252        263        262        372        373        384        383  
       252        253        264        263        373        374        385        384  
       254        255        266        265        375        376        387        386  
       255        256        267        266        376        377        388        387  
       256        257        268        267        377        378        389        388  
       257        258        269        268        378        379        390        389  
       258        259        270        269        379        380        391        390  
       259        260        271        270        380        381        392        391  
       260        261        272        271        381        382        393        392  
       261        262        273        272        382        383        394        393  
       262        263        274        273        383        384        395        394  
       263        264        275        274        384        385        396        395  
       265        266        277        276        386        387        398        397  
       266        267        278        277        387        388        399        398  
       267        268        279        278        388        389        400        399  
       268        269        280        279        389        390        401        400  
       269        270        281        280        390        391        402        401  
       270        271        282        281        391        392        403        402  
       271        272        283        282        392        393        404        403  
       272        273        284        283        393        394        405        404  
       273        274        285        284        394        395        406        405  
       274        275        286        285        395        396        407        406  
       276        277        288        287        397        398        409        408  
       277        278        289        288        398        399        410        409  
       278        279        290        289        399        400        411        410  
       279        280        291        290        400        401        412        411  
       280        281        292        291        401        402        413        412  
       281        282        293        292        402        403        414        413  
       282        283        294        293        403        404        415        414  
       283        284        295        294        404        405        416        415  
       284        285        296        295        405        406        417        416  
       285        286        297        296        406        407        418        417  
       287        288        299        298        408        409        420        419  
       288        289        300        299        409        410        421        420  
       289        290        301        300        410        411        422        421  
       290        291        302        301        411        412        423        422  
       291        292        303        302        412        413        424        423  
       292        293        304        303        413        414        425        424  
       293        294        305        304        414        415        426        425  
       294        295        306        305        415        416        427        426  
       295        296        307        306        416        417        428        427  
       296        297        308        307        417        418        429        428  
       298        299        310        309        419        420        431        430  
       299        300        311        310        420        421        432        431  
       300        301        312        311        421        422        433        432  
       301        302        313        312        422        423        434        433  
       302        303        314        313        423        424        435        434  
       303        304        315        314        424        425        436        435  
       304        305        316        315        425        426        437        436  
       305        306        317        316        426        427        438        437  
       306        307        318        317        427        428        439        438  
       307        308        319        318        428        429        440        439  
       309        310        321        320        430        431        442        441  
       310        311        322        321        431        432        443        442  
       311        312        323        322        432        433        444        443  
       312        313        324        323        433        434        445        444  
       313        314        325        324        434        435        446        445  
       314        315        326        325        435        436        447        446  
       315        316        327        326        436        437        448        447  
       316        317        328        327        437        438        449        448  
       317        318        329        328        438        439        450        449  
       318        319        330        329        439        440        451        450  
       320        321        332        331        441        442        453        452  
       321        322        333        332        442        443        454        453  
       322        323        334        333        443        444        455        454  
       323        324        335        334        444        445        456        455  
       324        325        336        335        445        446        457        456  
       325        326        337        336        446        447        458        457  
       326        327        338        337        447        448        459        458  
       327        328        339        338        448        449        460        459  
       328        329        340        339        449        450        461        460  
       329        330        341        340        450        451        462        461  
       331        332        343        342        452        453        464        463  
       332        333        344        343        453        454        465        464  
       333        334        345        344        454        455        466        465  
       334        335        346        345        455        456        467        466  
       335        336        347        346        456        457        468        467  
       336        337        348        347        457        458        469        468  
       337        338        349        348        458        459        470        469  
       338        339        350        349        459        460        471        470  
       339        340        351        350        460        461        472        471  
       340        341        352        351        461        462        473        472  
       342        343        354        353        463        464        475        474  
       343        344        355        354        464        465        476        475  
       344        345        356        355        465        466        477        476  
       345        346        357        356        466        467        478        477  
       346        347        358        357        467        468        479        478  
       347        348        359        358        468        469        480        479  
       348        349        360        359        469        470        481        480  
       349        350        361        360        470        471        482        481  
       350        351        362        361        471        472        483        482  
       351        352        363        362        472        473        484        483  
       364        365        376        375        485        486        497        496  
       365        366        377        376        486        487        498        497  
       366        367        378        377        487        488        499        498  
       367        368        379        378        488        489        500        499  
       368        369        380        379        489        490        501        500  
       369        370        381        380        490        491        502        501  
       370        371        382        381        491        492        503        502  
       371        372        383        382        492        493        504        503  
       372        373        384        383        493        494        505        504  
       373        374        385        384        494        495        506        505  
       375        376        387        386        496        497        508        507  
       376        377        388        387        497        498        509        508  
       377        378        389        388        498        499        510        509  
       378        379        390        389        499        500        511        510  
       379        380        391        390        500        501        512        511  
       380        381        392        391        501        502        513        512  
       381        382        393        392        502        503        514        513  
       382        383        394        393        503        504        515        514  
       383        384        395        394        504        505        516        515  
       384        385        396        395        505        506        517        516  
       386        387        398        397        507        508        519        518  
       387        388        399        398        508        509        520        519  
       388        389        400        399        509        510        521        520  
       389        390        401        400        510        511        522        521  
       390        391        402        401        511        512        523        522  
       391        392        403        402        512        513        524        523  
       392        393        404        403        513        514        525        524  
       393        394        405        404        514        515        526        525  
       394        395        406        405        515        516        527        526  
       395        396        407        406        516        517        528        527  
       397        398        409        408        518        519        530        529  
       398        399        410        409        519        520        531        530  
       399        400        411        410        520        521        532        531  
       400        401        412        411        521        522        533        532  
       401        402        413        412        522        523        534        533  
       402        403        414        413        523        524        535        534  
       403        404        415        414        524        525        536        535  
       404        405        416        415        525        526        537        536  
       405        406        417        416        526        527        538        537  
       406        407        418        417        527        528        539        538  
       408        409        420        419        529        530        541        540  
       409        410        421        420        530        531        542        541  
       410        411        422        421        531        532        543        542  
       411        412        423        422        532        533        544        543  
       412        413        424        423        533        534        545        544  
       413        414        425        424        534        535        546        545  
       414        415        426        425        535        536        547        546  
       415        416        427        426        536        537        548        547  
       416        417        428        427        537        538        549        548  
       417        418        429        428        538        539        550        549  
       419        420        431        430        540        541        552        551  
       420        421        432        431        541        542        553        552  
       421        422        433        432        542        543        554        553  
       422        423        434        433        543        544        555        554  
       423        424        435        434        544        545        556        555  
       424        425        436        435        545        546        557        556  
       425        426        437        436        546        547        558        557  
       426        427        438        437        547        548        559        558  
       427        428        439        438        548        549        560        559  
       428        429        440        439        549        550        561        560  
       430        431        442        441        551        552        563        562  
       431        432        443        442        552        553        564        563  
       432        433        444        443        553        554        565        564  
       433        434        445        444        554        555        566        565  
       434        435        446        445        555        556        567        566  
       435        436        447        446        556        557        568        567  
       436        437        448        447        557        558        569        568  
       437        438        449        448        558        559        570        569  
       438        439        450        449        559        560        571        570  
       439        440        451        450        560        561        572        571  
       441        442        453        452        562        563        574        573  
       442        443        454        453        563        564        575        574  
       443        444        455        454        564        565        576        575  
       444        445        456        455        565        566        577        576  
       445        446        457        456        566        567        578        577  
       446        447        458        457        567        568        579        578  
       447        448        459        458        568        569        580        579  
       448        449        460        459        569        570        581        580  
       449        450        461        460        570        571        582        581  
       450        451        462        461        571        572        583        582  
       452        453        464        463        573        574        585        584  
       453        454        465        464        574        575        586        585  
       454        455        466        465        575        576        587        586  
       455        456        467        466        576        577        588        587  
       456        457        468        467        577        578        589        588  
       457        458        469        468        578        579        590        589  
       458        459        470        469        579        580        591        590  
       459        460        471        470        580        581        592        591  
       460        461        472        471        581        582        593        592  
       461        462        473        472        582        583        594        593  
       463        464        475        474        584        585        596        595  
       464        465        476        475        585        586        597        596  
       465        466        477        476        586        587        598        597  
       466        467        478        477        587        588        599        598  
       467        468        479        478        588        589        600        599  
       468        469        480        479        589        590        601        600  
       469        470        481        480        590        591        602        601  
       470        471        482        481        591        592        603        602  
       471        472        483        482        592        593        604        603  
       472        473        484        483        593        594        605        604  
       485        486        497        496        606        607        618        617  
       486        487        498        497        607        608        619        618  
       487        488        499        498        608        609        620        619  
       488        489        500        499        609        610        621        620  
       489        490        501        500        610        611        622        621  
       490        491        502        501        611        612        623        622  
       491        492        503        502        612        613        624        623  
       492        493        504        503        613        614        625        624  
       493        494        505        504        614        615        626        625  
       494        495        506        505        615        616        627        626  
       496        497        508        507        617        618        629        628  
       497        498        509        508        618        619        630        629  
       498        499        510        509        619        620        631        630  
       499        500        511        510        620        621        632        631  
       500        501        512        511        621        622        633        632  
       501        502        513        512        622        623        634        633  
       502        503        514        513        623        624        635        634  
       503        504        515        514        624        625        636        635  
       504        505        516        515        625        626        637        636  
       505        506        517        516        626        627        638        637  
       507        508        519        518        628        629        640        639  
       508        509        520        519        629        630        641        640  
       509        510        521        520        630        631        642        641  
       510        511        522        521        631        632        643        642  
       511        512        523        522        632        633        644        643  
       512        513        524        523        633        634        645        644  
       513        514        525        524        634        635        646        645  
       514        515        526        525        635        636        647        646  
       515        516        527        526        636        637        648        647  
       516        517        528        527        637        638        649        648  
       518        519        530        529        639        640        651        650  
       519        520        531        530        640        641        652        651  
       520        521        532        531        641        642        653        652  
       521        522        533        532        642        643        654        653  
       522        523        534        533        643        644        655        654  
       523        524        535        534        644        645        656        655  
       524        525        536        535        645        646        657        656  
       525        526        537        536        646        647        658        657  
       526        527        538        537        647        648        659        658  
       527        528        539        538        648        649        660        659  
       529        530        541        540        650        651        662        661  
       530        531        542        541        651        652        663        662  
       531        532        543        542        652        653        664        663  
       532        533        544        543        653        654        665        664  
       533        534        545        544        654        655        666        665  
       534        535        546        545        655        656        667        666  
       535        536        547        546        656        657        668        667  
       536        537        548        547        657        658        669        668  
       537        538        549        548        658        659        670        669  
       538        539        550        549        659        660        671        670  
       540        541        552        551        661        662        673        672  
       541        542        553        552        662        663        674        673  
       542        543        554        553        663        664        675        674  
       543        544        555        554        664        665        676        675  
       544        545        556        555        665        666        677        676  
       545        546        557        556        666        667        678        677  
       546        547        558        557        667        668        679        678  
       547        548        559        558        668        669        680        679  
       548        549        560        559        669        670        681        680  
       549        550        561        560        670        671        682        681  
       551        552        563        562        672        673        684        683  
       552        553        564        563        673        674        685        684  
       553        554        565        564        674        675        686        685  
       554        555        566        565        675        676        687        686  
       555        556        567        566        676        677        688        687  
       556        557        568        567        677        678        689        688  
       557        558        569        568        678        679        690        689  
       558        559        570        569        679        680        691        690  
       559        560        571        570        680        681        692        691  
       560        561        572        571        681        682        693        692  
       562        563        574        573        683        684        695        694  
       563        564        575        574        684        685        696        695  
       564        565        576        575        685        686        697        696  
       565        566        577        576        686        687        698        697  
       566        567        578        577        687        688        699        698  
       567        568        579        578        688        689        700        699  
       568        569        580        579        689        690        701        700  
       569        570        581        580        690        691        702        701  
       570        571        582        581        691        692        703        702  
       571        572        583        582        692        693        704        703  
       573        574        585        584        694        695        706        705  
       574        575        586        585        695        696        707        706  
       575        576        587        586        696        697        708        707  
       576        577        588        587        697        698        709        708  
       577        578        589        588        698        699        710        709  
       578        579        590        589        699        700        711        710  
       579        580        591        590        700        701        712        711  
       580        581        592        591        701        702        713        712  
       581        582        593        592        702        703        714        713  
       582        583        594        593        703        704        715        714  
       584        585        596        595        705        706        717        716  
       585        586        597        596        706        707        718        717  
       586        587        598        597        707        708        719        718  
       587        588        599        598        708        709        720        719  
       588        589        600        599        709        710        721        720  
       589        590        601        600        710        711        722        721  
       590        591        602        601        711        712        723        722  
       591        592        603        602        712        713        724        723  
       592        593        604        603        713        714        725        724  
       593        594        605        604        714        715        726        725  
       606        607        618        617        727        728        739        738  
       607        608        619        618        728        729        740        739  
       608        609        620        619        729        730        741        740  
       609        610        621        620        730        731        742        741  
       610        611        622        621        731        732        743        742  
       611        612        623        622        732        733        744        743  
       612        613        624        623        733        734        745        744  
       613        614        625        624        734        735        746        745  
       614        615        626        625        735        736        747        746  
       615        616        627        626        736        737        748        747  
       617        618        629        628        738        739        750        749  
       618        619        630        629        739        740        751        750  
       619        620        631        630        740        741        752        751  
       620        621        632        631        741        742        753        752  
       621        622        633        632        742        743        754        753  
       622        623        634        633        743        744        755        754  
       623        624        635        634        744        745        756        755  
       624        625        636        635        745        746        757        756  
       625        626        637        636        746        747        758        757  
       626        627        638        637        747        748        759        758  
       628        629        640        639        749        750        761        760  
       629        630        641        640        750        751        762        761  
       630        631        642        641        751        752        763        762  
       631        632        643        642        752        753        764        763  
       632        633        644        643        753        754        765        764  
       633        634        645        644        754        755        766        765  
       634        635        646        645        755        756        767        766  
       635        636        647        646        756        757        768        767  
       636        637        648        647        757        758        769        768  
       637        638        649        648        758        759        770        769  
       639        640        651        650        760        761        772        771  
       640        641        652        651        761        762        773        772  
       641        642        653        652        762        763        774        773  
       642        643        654        653        763        764        775        774  
       643        644        655        654        764        765        776        775  
       644        645        656        655        765        766        777        776  
       645        646        657        656        766        767        778        777  
       646        647        658        657        767        768        779        778  
       647        648        659        658        768        769        780        779  
       648        649        660        659        769        770        781        780  
       650        651        662        661        771        772        783        782  
       651        652        663        662        772        773        784        783  
       652        653        664        663        773        774        785        784  
       653        654        665        664        774        775        786        785  
       654        655        666        665        775        776        787        786  
       655        656        667        666        776        777        788        787  
       656        657        668        667        777        778        789        788  
       657        658        669        668        778        779        790        789  
       658        659        670        669        779        780        791        790  
       659        660        671        670        780        781        792        791  
       661        662        673        672        782        783        794        793  
       662        663        674        673        783        784        795        794  
       663        664        675        674        784        785        796        795  
       664        665        676        675        785        786        797        796  
       665        666        677        676        786        787        798        797  
       666        667        678        677        787        788        799        798  
       667        668        679        678        788        789        800        799  
       668        669        680        679        789        790        801        800  
       669        670        681        680        790        791        802        801  
       670        671        682        681        791        792        803        802  
       672        673        684        683        793        794        805        804  
       673        674        685        684        794        795        806        805  
       674        675        686        685        795        796        807        806  
       675        676        687        686        796        797        808        807  
       676        677        688        687        797        798        809        808  
       677        678        689        688        798        799        810        809  
       678        679        690        689        799        800        811        810  
       679        680        691        690        800        801        812        811  
       680        681        692        691        801        802        813        812  
       681        682        693        692        802        803        814        813  
       683        684        695        694        804        805        816        815  
       684        685        696        695        805        806        817        816  
       685        686        697        696        806        807        818        817  
       686        687        698        697        807        808        819        818  
       687        688        699        698        808        809        820        819  
       688        689        700        699        809        810        821        820  
       689        690        701        700        810        811        822        821  
       690        691        702        701        811        812        823        822  
       691        692        703        702        812        813        824        823  
       692        693        704        703        813        814        825        824  
       694        695        706        705        815        816        827        826  
       695        696        707        706        816        817        828        827  
       696        697        708        707        817        818        829        828  
       697        698        709        708        818        819        830        829  
       698        699        710        709        819        820        831        830  
       699        700        711        710        820        821        832        831  
       700        701        712        711        821        822        833        832  
       701        702        713        712        822        823        834        833  
       702        703        714        713        823        824        835        834  
       703        704        715        714        824        825        836        835  
       705        706        717        716        826        827        838        837  
       706        707        718        717        827        828        839        838  
       707        708        719        718        828        829        840        839  
       708        709        720        719        829        830        841        840  
       709        710        721        720        830        831        842        841  
       710        711        722        721        831        832        843        842  
       711        712        723        722        832        833        844        843  
       712        713        724        723        833        834        845        844  
       713        714        725        724        834        835        846        845  
       714        715        726        725        835        836        847        846  
       727        728        739        738        848        849        860        859  
       728        729        740        739        849        850        861        860  
       729        730        741        740        850        851        862        861  
       730        731        742        741        851        852        863        862  
       731        732        743        742        852        853        864        863  
       732        733        744        743        853        854        865        864  
       733        734        745        744        854        855        866        865  
       734        735        746        745        855        856        867        866  
       735        736        747        746        856        857        868        867  
       736        737        748        747        857        858        869        868  
       738        739        750        749        859        860        871        870  
       739        740        751        750        860        861        872        871  
       740        741        752        751        861        862        873        872  
       741        742        753        752        862        863        874        873  
       742        743        754        753        863        864        875        874  
       743        744        755        754        864        865        876        875  
       744        745        756        755        865        866        877        876  
       745        746        757        756        866        867        878        877  
       746        747        758        757        867        868        879        878  
       747        748        759        758        868        869        880        879  
       749        750        761        760        870        871        882        881  
       750        751        762        761        871        872        883        882  
       751        752        763        762        872        873        884        883  
       752        753        764        763        873        874        885        884  
       753        754        765        764        874        875        886        885  
       754        755        766        765        875        876        887        886  
       755        756        767        766        876        877        888        887  
       756        757        768        767        877        878        889        888  
       757        758        769        768        878        879        890        889  
       758        759        770        769        879        880        891        890  
       760        761        772        771        881        882        893        892  
       761        762        773        772        882        883        894        893  
       762        763        774        773        883        884        895        894  
       763        764        775        774        884        885        896        895  
       764        765        776        775        885        886        897        896  
       765        766        777        776        886        887        898        897  
       766        767        778        777        887        888        899        898  
       767        768        779        778        888        889        900        899  
       768        769        780        779        889        890        901        900  
       769        770        781        780        890        891        902        901  
       771        772        783        782        892        893        904        903  
       772        773        784        783        893        894        905        904  
       773        774        785        784        894        895        906        905  
       774        775        786        785        895        896        907        906  
       775        776        787        786        896        897        908        907  
       776        777        788        787        897        898        909        908  
       777        778        789        788        898        899        910        909  
       778        779        790        789        899        900        911        910  
       779        780        791        790        900        901        912        911  
       780        781        792        791        901        902        913        912  
       782        783        794        793        903        904        915        914  
       783        784        795        794        904        905        916        915  
       784        785        796        795        905        906        917        916  
       785        786        797        796        906        907        918        917  
       786        787        798        797        907        908        919        918  
       787        788        799        798        908        909        920        919  
       788        789        800        799        909        910        921        920  
       789        790        801        800        910        911        922        921  
       790        791        802        801        911        912        923        922  
       791        792        803        802        912        913        924        923  
       793        794        805        804        914        915        926        925  
       794        795        806        805        915        916        927        926  
       795        796        807        806        916        917        928        927  
       796        797        808        807        917        918        929        928  
       797        798        809        808        918        919        930        929  
       798        799        810        809        919        920        931        930  
       799        800        811        810        920        921        932        931  
       800        801        812        811        921        922        933        932  
       801        802        813        812        922        923        934        933  
       802        803        814        813        923        924        935        934  
       804        805        816        815        925        926        937        936  
       805        806        817        816        926        927        938        937  
       806        807        818        817        927        928        939        938  
       807        808        819        818        928        929        940        939  
       808        809        820        819        929        930        941        940  
       809        810        821        820        930        931        942        941  
       810        811        822        821        931        932        943        942  
       811        812        823        822        932        933        944        943  
       812        813        824        823        933        934        945        944  
       813        814        825        824        934        935        946        945  
       815        816        827        826        936        937        948        947  
       816        817        828        827        937        938        949        948  
       817        818        829        828        938        939        950        949  
       818        819        830        829        939        940        951        950  
       819        820        831        830        940        941        952        951  
       820        821        832        831        941        942        953        952  
       821        822        833        832        942        943        954        953  
       822        823        834        833        943        944        955        954  
       823        824        835        834        944        945        956        955  
       824        825        836        835        945        946        957        956  
       826        827        838        837        947        948        959        958  
       827        828        839        838        948        949        960        959  
       828        829        840        839        949        950        961        960  
       829        830        841        840        950        951        962        961  
       830        831        842        841        951        952        963        962  
       831        832        843        842        952        953        964        963  
       832        833        844        843        953        954        965        964  
       833        834        845        844        954        955        966        965  
       834        835        846        845        955        956        967        966  
       835        836        847        846        956        957        968        967  
       848        849        860        859        969        970        981        980  
       849        850        861        860        970        971        982        981  
       850        851        862        861        971        972        983        982  
       851        852        863        862        972        973        984        983  
       852        853        864        863        973        974        985        984  
       853        854        865        864        974        975        986        985  
       854        855        866        865        975        976        987        986  
       855        856        867        866        976        977        988        987  
       856        857        868        867        977        978        989        988  
       857        858        869        868        978        979        990        989  
       859        860        871        870        980        981        992        991  
       860        861        872        871        981        982        993        992  
       861        862        873        872        982        983        994        993  
       862        863        874        873        983        984        995        994  
       863        864        875        874        984        985        996        995  
       864        865        876        875        985        986        997        996  
       865        866        877        876        986        987        998        997  
       866        867        878        877        987        988        999        998  
       867        868        879        878        988        989       1000        999  
       868        869        880        879        989        990       1001       1000  
       870        871        882        881        991        992       1003       1002  
       871        872        883        882        992        993       1004       1003  
       872        873        884        883        993        994       1005       1004  
       873        874        885        884        994        995       1006       1005  
       874        875        886        885        995        996       1007       1006  
       875        876        887        886        996        997       1008       1007  
       876        877        888        887        997        998       1009       1008  
       877        878        889        888        998        999       1010       1009  
       878        879        890        889        999       1000       1011       1010  
       879        880        891        890       1000       1001       1012       1011  
       881        882        893        892       1002       1003       1014       1013  
       882        883        894        893       1003       1004       1015       1014  
       883        884        895        894       1004       1005       1016       1015  
       884        885        896        895       1005       1006       1017       1016  
       885        886        897        896       1006       1007       1018       1017  
       886        887        898        897       1007       1008       1019       1018  
       887        888        899        898       1008       1009       1020       1019  
       888        889        900        899       1009       1010       1021       1020  
       889        890        901        900       1010       1011       1022       1021  
       890        891        902        901       1011       1012       1023       1022  
       892        893        904        903       1013       1014       1025       1024  
       893        894        905        904       1014       1015       1026       1025  
       894        895        906        905       1015       1016       1027       1026  
       895        896        907        906       1016       1017       1028       1027  
       896        897        908        907       1017       1018       1029       1028  
       897        898        909        908       1018       1019       1030       1029  
       898        899        910        909       1019       1020       1031       1030  
       899        900        911        910       1020       1021       1032       1031  
       900        901        912        911       1021       1022       1033       1032  
       901        902        913        912       1022       1023       1034       1033  
       903        904        915        914       1024       1025       1036       1035  
       904        905        916        915       1025       1026       1037       1036  
       905        906        917        916       1026       1027       1038       1037  
       906        907        918        917       1027       1028       1039       1038  
       907        908        919        918       1028       1029       1040       1039  
       908        909        920        919       1029       1030       1041       1040  
       909        910        921        920       1030       1031       1042       1041  
       910        911        922        921       1031       1032       1043       1042  
       911        912        923        922       1032       1033       1044       1043  
       912        913        924        923       1033       1034       1045       1044  
       914        915        926        925       1035       1036       1047       1046  
       915        916        927        926       1036       1037       1048       1047  
       916        917        928        927       1037       1038       1049       1048  
       917        918        929        928       1038       1039       1050       1049  
       918        919        930        929       1039       1040       1051       1050  
       919        920        931        930       1040       1041       1052       1051  
       920        921        932        931       1041       1042       1053       1052  
       921        922        933        932       1042       1043       1054       1053  
       922        923        934        933       1043       1044       1055       1054  
       923        924        935        934       1044       1045       1056       1055  
       925        926        937        936       1046       1047       1058       1057  
       926        927        938        937       1047       1048       1059       1058  
       927        928        939        938       1048       1049       1060       1059  
       928        929        940        939       1049       1050       1061       1060  
       929        930        941        940       1050       1051       1062       1061  
       930        931        942        941       1051       1052       1063       1062  
       931        932        943        942       1052       1053       1064       1063  
       932        933        944        943       1053       1054       1065       1064  
       933        934        945        944       1054       1055       1066       1065  
       934        935        946        945       1055       1056       1067       1066  
       936        937        948        947       1057       1058       1069       1068  
       937        938        949        948       1058       1059       1070       1069  
       938        939        950        949       1059       1060       1071       1070  
       939        940        951        950       1060       1061       1072       1071  
       940        941        952        951       1061       1062       1073       1072  
       941        942        953        952       1062       1063       1074       1073  
       942        943        954        953       1063       1064       1075       1074  
       943        944        955        954       1064       1065       1076       1075  
       944        945        956        955       1065       1066       1077       1076  
       945        946        957        956       1066       1067       1078       1077  
       947        948        959        958       1068       1069       1080       1079  
       948        949        960        959       1069       1070       1081       1080  
       949        950        961        960       1070       1071       1082       1081  
       950        951        962        961       1071       1072       1083       1082  
       951        952        963        962       1072       1073       1084       1083  
       952        953        964        963       1073       1074       1085       1084  
       953        954        965        964       1074       1075       1086       1085  
       954        955        966        965       1075       1076       1087       1086  
       955        956        967        966       1076       1077       1088       1087  
       956        957        968        967       1077       1078       1089       1088  
       969        970        981        980       1090       1091       1102       1101  
       970        971        982        981       1091       1092       1103       1102  
       971        972        983        982       1092       1093       1104       1103  
       972        973        984        983       1093       1094       1105       1104  
       973        974        985        984       1094       1095       1106       1105  
       974        975        986        985       1095       1096       1107       1106  
       975        976        987        986       1096       1097       1108       1107  
       976        977        988        987       1097       1098       1109       1108  
       977        978        989        988       1098       1099       1110       1109  
       978        979        990        989       1099       1100       1111       1110  
       980        981        992        991       1101       1102       1113       1112  
       981        982        993        992       1102       1103       1114       1113  
       982        983        994        993       1103       1104       1115       1114  
       983        984        995        994       1104       1105       1116       1115  
       984        985        996        995       1105       1106       1117       1116  
       985        986        997        996       1106       1107       1118       1117  
       986        987        998        997       1107       1108       1119       1118  
       987        988        999        998       1108       1109       1120       1119  
       988        989       1000        999       1109       1110       1121       1120  
       989        990       1001       1000       1110       1111       1122       1121  
       991        992       1003       1002       1112       1113       1124       1123  
       992        993       1004       1003       1113       1114       1125       1124  
       993        994       1005       1004       1114       1115       1126       1125  
       994        995       1006       1005       1115       1116       1127       1126  
       995        996       1007       1006       1116       1117       1128       1127  
       996        997       1008       1007       1117       1118       1129       1128  
       997        998       1009       1008       1118       1119       1130       1129  
       998        999       1010       1009       1119       1120       1131       1130  
       999       1000       1011       1010       1120       1121       1132       1131  
      1000       1001       1012       1011       1121       1122       1133       1132  
      1002       1003       1014       1013       1123       1124       1135       1134  
      1003       1004       1015       1014       1124       1125       1136       1135  
      1004       1005       1016       1015       1125       1126       1137       1136  
      1005       1006       1017       1016       1126       1127       1138       1137  
      1006       1007       1018       1017       1127       1128       1139       1138  
      1007       1008       1019       1018       1128       1129       1140       1139  
      1008       1009       1020       1019       1129       1130       1141       1140  
      1009       1010       1021       1020       1130       1131       1142       1141  
      1010       1011       1022       1021       1131       1132       1143       1142  
      1011       1012       1023       1022       1132       1133       1144       1143  
      1013       1014       1025       1024       1134       1135       1146       1145  
      1014       1015       1026       1025       1135       1136       1147       1146  
      1015       1016       1027       1026       1136       1137       1148       1147  
      1016       1017       1028       1027       1137       1138       1149       1148  
      1017       1018       1029       1028       1138       1139       1150       1149  
      1018       1019       1030       1029       1139       1140       1151       1150  
      1019       1020       1031       1030       1140       1141       1152       1151  
      1020       1021       1032       1031       1141       1142       1153       1152  
      1021       1022       1033       1032       1142       1143       1154       1153  
      1022       1023       1034       1033       1143       1144       1155       1154  
      1024       1025       1036       1035       1145       1146       1157       1156  
      1025       1026       1037       1036       1146       1147       1158       1157  
      1026       1027       1038       1037       1147       1148       1159       1158  
      1027       1028       1039       1038       1148       1149       1160       1159  
      1028       1029       1040       1039       1149       1150       1161       1160  
      1029       1030       1041       1040       1150       1151       1162       1161  
      1030       1031       1042       1041       1151       1152       1163       1162  
      1031       1032       1043       1042       1152       1153       1164       1163  
      1032       1033       1044       1043       1153       1154       1165       1164  
      1033       1034       1045       1044       1154       1155       1166       1165  
      1035       1036       1047       1046       1156       1157       1168       1167  
      1036       1037       1048       1047       1157       1158       1169       1168  
      1037       1038       1049       1048       1158       1159       1170       1169  
      1038       1039       1050       1049       1159       1160       1171       1170  
      1039       1040       1051       1050       1160       1161       1172       1171  
      1040       1041       1052       1051       1161       1162       1173       1172  
      1041       1042       1053       1052       1162       1163       1174       1173  
      1042       1043       1054       1053       1163       1164       1175       1174  
      1043       1044       1055       1054       1164       1165       1176       1175  
      1044       1045       1056       1055       1165       1166       1177       1176  
      1046       1047       1058       1057       1167       1168       1179       1178  
      1047       1048       1059       1058       1168       1169       1180       1179  
      1048       1049       1060       1059       1169       1170       1181       1180  
      1049       1050       1061       1060       1170       1171       1182       1181  
      1050       1051       1062       1061       1171       1172       1183       1182  
      1051       1052       1063       1062       1172       1173       1184       1183  
      1052       1053       1064       1063       1173       1174       1185       1184  
      1053       1054       1065       1064       1174       1175       1186       1185  
      1054       1055       1066       1065       1175       1176       1187       1186  
      1055       1056       1067       1066       1176       1177       1188       1187  
      1057       1058       1069       1068       1178       1179       1190       1189  
      1058       1059       1070       1069       1179       1180       1191       1190  
      1059       1060       1071       1070       1180       1181       1192       1191  
      1060       1061       1072       1071       1181       1182       1193       1192  
      1061       1062       1073       1072       1182       1183       1194       1193  
      1062       1063       1074       1073       1183       1184       1195       1194  
      1063       1064       1075       1074       1184       1185       1196       1195  
      1064       1065       1076       1075       1185       1186       1197       1196  
      1065       1066       1077       1076       1186       1187       1198       1197  
      1066       1067       1078       1077       1187       1188       1199       1198  
      1068       1069       1080       1079       1189       1190       1201       1200  
      1069       1070       1081       1080       1190       1191       1202       1201  
      1070       1071       1082       1081       1191       1192       1203       1202  
      1071       1072       1083       1082       1192       1193       1204       1203  
      1072       1073       1084       1083       1193       1194       1205       1204  
      1073       1074       1085       1084       1194       1195       1206       1205  
      1074       1075       1086       1085       1195       1196       1207       1206  
      1075       1076       1087       1086       1196       1197       1208       1207  
      1076       1077       1088       1087       1197       1198       1209       1208  
      1077       1078       1089       1088       1198       1199       1210       1209  
      1090       1091       1102       1101       1211       1212       1223       1222  
      1091       1092       1103       1102       1212       1213       1224       1223  
      1092       1093       1104       1103       1213       1214       1225       1224  
      1093       1094       1105       1104       1214       1215       1226       1225  
      1094       1095       1106       1105       1215       1216       1227       1226  
      1095       1096       1107       1106       1216       1217       1228       1227  
      1096       1097       1108       1107       1217       1218       1229       1228  
      1097       1098       1109       1108       1218       1219       1230       1229  
      1098       1099       1110       1109       1219       1220       1231       1230  
      1099       1100       1111       1110       1220       1221       1232       1231  
      1101       1102       1113       1112       1222       1223       1234       1233  
      1102       1103       1114       1113       1223       1224       1235       1234  
      1103       1104       1115       1114       1224       1225       1236       1235  
      1104       1105       1116       1115       1225       1226       1237       1236  
      1105       1106       1117       1116       1226       1227       1238       1237  
      1106       1107       1118       1117       1227       1228       1239       1238  
      1107       1108       1119       1118       1228       1229       1240       1239  
      1108       1109       1120       1119       1229       1230       1241       1240  
      1109       1110       1121       1120       1230       1231       1242       1241  
      1110       1111       1122       1121       1231       1232       1243       1242  
      1112       1113       1124       1123       1233       1234       1245       1244  
      1113       1114       1125       1124       1234       1235       1246       1245  
      1114       1115       1126       1125       1235       1236       1247       1246  
      1115       1116       1127       1126       1236       1237       1248       1247  
      1116       1117       1128       1127       1237       1238       1249       1248  
      1117       1118       1129       1128       1238       1239       1250       1249  
      1118       1119       1130       1129       1239       1240       1251       1250  
      1119       1120       1131       1130       1240       1241       1252       1251  
      1120       1121       1132       1131       1241       1242       1253       1252  
      1121       1122       1133       1132       1242       1243       1254       1253  
      1123       1124       1135       1134       1244       1245       1256       1255  
      1124       1125       1136       1135       1245       1246       1257       1256  
      1125       1126       1137       1136       1246       1247       1258       1257  
      1126       1127       1138       1137       1247       1248       1259       1258  
      1127       1128       1139       1138       1248       1249       1260       1259  
      1128       1129       1140       1139       1249       1250       1261       1260  
      1129       1130       1141       1140       1250       1251       1262       1261  
      1130       1131       1142       1141       1251       1252       1263       1262  
      1131       1132       1143       1142       1252       1253       1264       1263  
      1132       1133       1144       1143       1253       1254       1265       1264  
      1134       1135       1146       1145       1255       1256       1267       1266  
      1135       1136       1147       1146       1256       1257       1268       1267  
      1136       1137       1148       1147       1257       1258       1269       1268  
      1137       1138       1149       1148       1258       1259       1270       1269  
      1138       1139       1150       1149       1259       1260       1271       1270  
      1139       1140       1151       1150       1260       1261       1272       1271  
      1140       1141       1152       1151       1261       1262       1273       1272  
      1141       1142       1153       1152       1262       1263       1274       1273  
      1142       1143       1154       1153       1263       1264       1275       1274  
      1143       1144       1155       1154       1264       1265       1276       1275  
      1145       1146       1157       1156       1266       1267       1278       1277  
      1146       1147       1158       1157       1267       1268       1279       1278  
      1147       1148       1159       1158       1268       1269       1280       1279  
      1148       1149       1160       1159       1269       1270       1281       1280  
      1149       1150       1161       1160       1270       1271       1282       1281  
      1150       1151       1162       1161       1271       1272       1283       1282  
      1151       1152       1163       1162       1272       1273       1284       1283  
      1152       1153       1164       1163       1273       1274       1285       1284  
      1153       1154       1165       1164       1274       1275       1286       1285  
      1154       1155       1166       1165       1275       1276       1287       1286  
      1156       1157       1168       1167       1277       1278       1289       1288  
      1157       1158       1169       1168       1278       1279       1290       1289  
      1158       1159       1170       1169       1279       1280       1291       1290  
      1159       1160       1171       1170       1280       1281       1292       1291  
      1160       1161       1172       1171       1281       1282       1293       1292  
      1161       1162       1173       1172       1282       1283       1294       1293  
      1162       1163       1174       1173       1283       1284       1295       1294  
      1163       1164       1175       1174       1284       1285       1296       1295  
      1164       1165       1176       1175       1285       1286       1297       1296  
      1165       1166       1177       1176       1286       1287       1298       1297  
      1167       1168       1179       1178       1288       1289       1300       1299  
      1168       1169       1180       1179       1289       1290       1301       1300  
      1169       1170       1181       1180       1290       1291       1302       1301  
      1170       1171       1182       1181       1291       1292       1303       1302  
      1171       1172       1183       1182       1292       1293       1304       1303  
      1172       1173       1184       1183       1293       1294       1305       1304  
      1173       1174       1185       1184       1294       1295       1306       1305  
      1174       1175       1186       1185       1295       1296       1307       1306  
      1175       1176       1187       1186       1296       1297       1308       1307  
      1176       1177       1188       1187       1297       1298       1309       1308  
      1178       1179       1190       1189       1299       1300       1311       1310  
      1179       1180       1191       1190       1300       1301       1312       1311  
      1180       1181       1192       1191       1301       1302       1313       1312  
      1181       1182       1193       1192       1302       1303       1314       1313  
      1182       1183       1194       1193       1303       1304       1315       1314  
      1183       1184       1195       1194       1304       1305       1316       1315  
      1184       1185       1196       1195       1305       1306       1317       1316  
      1185       1186       1197       1196       1306       1307       1318       1317  
      1186       1187       1198       1197       1307       1308       1319       1318  
      1187       1188       1199       1198       1308       1309       1320       1319  
      1189       1190       1201       1200       1310       1311       1322       1321  
      1190       1191       1202       1201       1311       1312       1323       1322  
      1191       1192       1203       1202       1312       1313       1324       1323  
      1192       1193       1204       1203       1313       1314       1325       1324  
      1193       1194       1205       1204       1314       1315       1326       1325  
      1194       1195       1206       1205       1315       1316       1327       1326  
      1195       1196       1207       1206       1316       1317       1328       1327  
      1196       1197       1208       1207       1317       1318       1329       1328  
      1197       1198       1209       1208       1318       1319       1330       1329  
      1198       1199       1210       1209       1319       1320       1331       1330  
      1211       1212       1223       1222       1332       1333       1344       1343  
      1212       1213       1224       1223       1333       1334       1345       1344  
      1213       1214       1225       1224       1334       1335       1346       1345  
      1214       1215       1226       1225       1335       1336       1347       1346  
      1215       1216       1227       1226       1336       1337       1348       1347  
      1216       1217       1228       1227       1337       1338       1349       1348  
      1217       1218       1229       1228       1338       1339       1350       1349  
      1218       1219       1230       1229       1339       1340       1351       1350  
      1219       1220       1231       1230       1340       1341       1352       1351  
      1220       1221       1232       1231       1341       1342       1353       1352  
      1222       1223       1234       1233       1343       1344       1355       1354  
      1223       1224       1235       1234       1344       1345       1356       1355  
      1224       1225       1236       1235       1345       1346       1357       1356  
      1225       1226       1237       1236       1346       1347       1358       1357  
      1226       1227       1238       1237       1347       1348       1359       1358  
      1227       1228       1239       1238       1348       1349       1360       1359  
      1228       1229       1240       1239       1349       1350       1361       1360  
      1229       1230       1241       1240       1350       1351       1362       1361  
      1230       1231       1242       1241       1351       1352       1363       1362  
      1231       1232       1243       1242       1352       1353       1364       1363  
      1233       1234       1245       1244       1354       1355       1366       1365  
      1234       1235       1246       1245       1355       1356       1367       1366  
      1235       1236       1247       1246       1356       1357       1368       1367  
      1236       1237       1248       1247       1357       1358       1369       1368  
      1237       1238       1249       1248       1358       1359       1370       1369  
      1238       1239       1250       1249       1359       1360       1371       1370  
      1239       1240       1251       1250       1360       1361       1372       1371  
      1240       1241       1252       1251       1361       1362       1373       1372  
      1241       1242       1253       1252       1362       1363       1374       1373  
      1242       1243       1254       1253       1363       1364       1375       1374  
      1244       1245       1256       1255       1365       1366       1377       1376  
      1245       1246       1257       1256       1366       1367       1378       1377  
      1246       1247       1258       1257       1367       1368       1379       1378  
      1247       1248       1259       1258       1368       1369       1380       1379  
      1248       1249       1260       1259       1369       1370       1381       1380  
      1249       1250       1261       1260       1370       1371       1382       1381  
      1250       1251       1262       1261       1371       1372       1383       1382  
      1251       1252       1263       1262       1372       1373       1384       1383  
      1252       1253       1264       1263       1373       1374       1385       1384  
      1253       1254       1265       1264       1374       1375       1386       1385  
      1255       1256       1267       1266       1376       1377       1388       1387  
      1256       1257       1268       1267       1377       1378       1389       1388  
      1257       1258       1269       1268       1378       1379       1390       1389  
      1258       1259       1270       1269       1379       1380       1391       1390  
      1259       1260       1271       1270       1380       1381       1392       1391  
      1260       1261       1272       1271       1381       1382       1393       1392  
      1261       1262       1273       1272       1382       1383       1394       1393  
      1262       1263       1274       1273       1383       1384       1395       1394  
      1263       1264       1275       1274       1384       1385       1396       1395  
      1264       1265       1276       1275       1385       1386       1397       1396  
      1266       1267       1278       1277       1387       1388       1399       1398  
      1267       1268       1279       1278       1388       1389       1400       1399  
      1268       1269       1280       1279       1389       1390       1401       1400  
      1269       1270       1281       1280       1390       1391       1402       1401  
      1270       1271       1282       1281       1391       1392       1403       1402  
      1271       1272       1283       1282       1392       1393       1404       1403  
      1272       1273       1284       1283       1393       1394       1405       1404  
      1273       1274       1285       1284       1394       1395       1406       1405  
      1274       1275       1286       1285       1395       1396       1407       1406  
      1275       1276       1287       1286       1396       1397       1408       1407  
      1277       1278       1289       1288       1398       1399       1410       1409  
      1278       1279       1290       1289       1399       1400       1411       1410  
      1279       1280       1291       1290       1400       1401       1412       1411  
      1280       1281       1292       1291       1401       1402       1413       1412  
      1281       1282       1293       1292       1402       1403       1414       1413  
      1282       1283       1294       1293       1403       1404       1415       1414  
      1283       1284       1295       1294       1404       1405       1416       1415  
      1284       1285       1296       1295       1405       1406       1417       1416  
      1285       1286       1297       1296       1406       1407       1418       1417  
      1286       1287       1298       1297       1407       1408       1419       1418  
      1288       1289       1300       1299       1409       1410       1421       1420  
      1289       1290       1301       1300       1410       1411       1422       1421  
      1290       1291       1302       1301       1411       1412       1423       1422  
      1291       1292       1303       1302       1412       1413       1424       1423  
      1292       1293       1304       1303       1413       1414       1425       1424  
      1293       1294       1305       1304       1414       1415       1426       1425  
      1294       1295       1306       1305       1415       1416       1427       1426  
      1295       1296       1307       1306       1416       1417       1428       1427  
      1296       1297       1308       1307       1417       1418       1429       1428  
      1297       1298       1309       1308       1418       1419       1430       1429  
      1299       1300       1311       1310       1420       1421       1432       1431  
      1300       1301       1312       1311       1421       1422       1433       1432  
      1301       1302       1313       1312       1422       1423       1434       1433  
      1302       1303       1314       1313       1423       1424       1435       1434  
      1303       1304       1315       1314       1424       1425       1436       1435  
      1304       1305       1316       1315       1425       1426       1437       1436  
      1305       1306       1317       1316       1426       1427       1438       1437  
      1306       1307       1318       1317       1427       1428       1439       1438  
      1307       1308       1319       1318       1428       1429       1440       1439  
      1308       1309       1320       1319       1429       1430       1441       1440  
      1310       1311       1322       1321       1431       1432       1443       1442  
      1311       1312       1323       1322       1432       1433       1444       1443  
      1312       1313       1324       1323       1433       1434       1445       1444  
      1313       1314       1325       1324       1434       1435       1446       1445  
      1314       1315       1326       1325       1435       1436       1447       1446  
      1315       1316       1327       1326       1436       1437       1448       1447  
      1316       1317       1328       1327       1437       1438       1449       1448  
      1317       1318       1329       1328       1438       1439       1450       1449  
      1318       1319       1330       1329       1439       1440       1451       1450  
      1319       1320       1331       1330       1440       1441       1452       1451  
      1332       1333       1344       1343       1453       1454       1465       1464  
      1333       1334       1345       1344       1454       1455       1466       1465  
      1334       1335       1346       1345       1455       1456       1467       1466  
      1335       1336       1347       1346       1456       1457       1468       1467  
      1336       1337       1348       1347       1457       1458       1469       1468  
      1337       1338       1349       1348       1458       1459       1470       1469  
      1338       1339       1350       1349       1459       1460       1471       1470  
      1339       1340       1351       1350       1460       1461       1472       1471  
      1340       1341       1352       1351       1461       1462       1473       1472  
      1341       1342       1353       1352       1462       1463       1474       1473  
      1343       1344       1355       1354       1464       1465       1476       1475  
      1344       1345       1356       1355       1465       1466       1477       1476  
      1345       1346       1357       1356       1466       1467       1478       1477  
      1346       1347       1358       1357       1467       1468       1479       1478  
      1347       1348       1359       1358       1468       1469       1480       1479  
      1348       1349       1360       1359       1469       1470       1481       1480  
      1349       1350       1361       1360       1470       1471       1482       1481  
      1350       1351       1362       1361       1471       1472       1483       1482  
      1351       1352       1363       1362       1472       1473       1484       1483  
      1352       1353       1364       1363       1473       1474       1485       1484  
      1354       1355       1366       1365       1475       1476       1487       1486  
      1355       1356       1367       1366       1476       1477       1488       1487  
      1356       1357       1368       1367       1477       1478       1489       1488  
      1357       1358       1369       1368       1478       1479       1490       1489  
      1358       1359       1370       1369       1479       1480       1491       1490  
      1359       1360       1371       1370       1480       1481       1492       1491  
      1360       1361       1372       1371       1481       1482       1493       1492  
      1361       1362       1373       1372       1482       1483       1494       1493  
      1362       1363       1374       1373       1483       1484       1495       1494  
      1363       1364       1375       1374       1484       1485       1496       1495  
      1365       1366       1377       1376       1486       1487       1498       1497  
      1366       1367       1378       1377       1487       1488       1499       1498  
      1367       1368       1379       1378       1488       1489       1500       1499  
      1368       1369       1380       1379       1489       1490       1501       1500  
      1369       1370       1381       1380       1490       1491       1502       1501  
      1370       1371       1382       1381       1491       1492       1503       1502  
      1371       1372       1383       1382       1492       1493       1504       1503  
      1372       1373       1384       1383       1493       1494       1505       1504  
      1373       1374       1385       1384       1494       1495       1506       1505  
      1374       1375       1386       1385       1495       1496       1507       1506  
      1376       1377       1388       1387       1497       1498       1509       1508  
      1377       1378       1389       1388       1498       1499       1510       1509  
      1378       1379       1390       1389       1499       1500       1511       1510  
      1379       1380       1391       1390       1500       1501       1512       1511  
      1380       1381       1392       1391       1501       1502       1513       1512  
      1381       1382       1393       1392       1502       1503       1514       1513  
      1382       1383       1394       1393       1503       1504       1515       1514  
      1383       1384       1395       1394       1504       1505       1516       1515  
      1384       1385       1396       1395       1505       1506       1517       1516  
      1385       1386       1397       1396       1506       1507       1518       1517  
      1387       1388       1399       1398       1508       1509       1520       1519  
      1388       1389       1400       1399       1509       1510       1521       1520  
      1389       1390       1401       1400       1510       1511       1522       1521  
      1390       1391       1402       1401       1511       1512       1523       1522  
      1391       1392       1403       1402       1512       1513       1524       1523  
      1392       1393       1404       1403       1513       1514       1525       1524  
      1393       1394       1405       1404       1514       1515       1526       1525  
      1394       1395       1406       1405       1515       1516       1527       1526  
      1395       1396       1407       1406       1516       1517       1528       1527  
      1396       1397       1408       1407       1517       1518       1529       1528  
      1398       1399       1410       1409       1519       1520       1531       1530  
      1399       1400       1411       1410       1520       1521       1532       1531  
      1400       1401       1412       1411       1521       1522       1533       1532  
      1401       1402       1413       1412       1522       1523       1534       1533  
      1402       1403       1414       1413       1523       1524       1535       1534  
      1403       1404       1415       1414       1524       1525       1536       1535  
      1404       1405       1416       1415       1525       1526       1537       1536  
      1405       1406       1417       1416       1526       1527       1538       1537  
      1406       1407       1418       1417       1527       1528       1539       1538  
      1407       1408       1419       1418       1528       1529       1540       1539  
      1409       1410       1421       1420       1530       1531       1542       1541  
      1410       1411       1422       1421       1531       1532       1543       1542  
      1411       1412       1423       1422       1532       1533       1544       1543  
      1412       1413       1424       1423       1533       1534       1545       1544  
      1413       1414       1425       1424       1534       1535       1546       1545  
      1414       1415       1426       1425       1535       1536       1547       1546  
      1415       1416       1427       1426       1536       1537       1548       1547  
      1416       1417       1428       1427       1537       1538       1549       1548  
      1417       1418       1429       1428       1538       1539       1550       1549  
      1418       1419       1430       1429       1539       1540       1551       1550  
      1420       1421       1432       1431       1541       1542       1553       1552  
      1421       1422       1433       1432       1542       1543       1554       1553  
      1422       1423       1434       1433       1543       1544       1555       1554  
      1423       1424       1435       1434       1544       1545       1556       1555  
      1424       1425       1436       1435       1545       1546       1557       1556  
      1425       1426       1437       1436       1546       1547       1558       1557  
      1426       1427       1438       1437       1547       1548       1559       1558  
      1427       1428       1439       1438       1548       1549       1560       1559  
      1428       1429       1440       1439       1549       1550       1561       1560  
      1429       1430       1441       1440       1550       1551       1562       1561  
      1431       1432       1443       1442       1552       1553       1564       1563  
      1432       1433       1444       1443       1553       1554       1565       1564  
      1433       1434       1445       1444       1554       1555       1566       1565  
      1434       1435       1446       1445       1555       1556       1567       1566  
      1435       1436       1447       1446       1556       1557       1568       1567  
      1436       1437       1448       1447       1557       1558       1569       1568  
      1437       1438       1449       1448       1558       1559       1570       1569  
      1438       1439       1450       1449       1559       1560       1571       1570  
      1439       1440       1451       1450       1560       1561       1572       1571  
      1440       1441       1452       1451       1561       1562       1573       1572  
      1453       1454       1465       1464       1574       1575       1586       1585  
      1454       1455       1466       1465       1575       1576       1587       1586  
      1455       1456       1467       1466       1576       1577       1588       1587  
      1456       1457       1468       1467       1577       1578       1589       1588  
      1457       1458       1469       1468       1578       1579       1590       1589  
      1458       1459       1470       1469       1579       1580       1591       1590  
      1459       1460       1471       1470       1580       1581       1592       1591  
      1460       1461       1472       1471       1581       1582       1593       1592  
      1461       1462       1473       1472       1582       1583       1594       1593  
      1462       1463       1474       1473       1583       1584       1595       1594  
      1464       1465       1476       1475       1585       1586       1597       1596  
      1465       1466       1477       1476       1586       1587       1598       1597  
      1466       1467       1478       1477       1587       1588       1599       1598  
      1467       1468       1479       1478       1588       1589       1600       1599  
      1468       1469       1480       1479       1589       1590       1601       1600  
      1469       1470       1481       1480       1590       1591       1602       1601  
      1470       1471       1482       1481       1591       1592       1603       1602  
      1471       1472       1483       1482       1592       1593       1604       1603  
      1472       1473       1484       1483       1593       1594       1605       1604  
      1473       1474       1485       1484       1594       1595       1606       1605  
      1475       1476       1487       1486       1596       1597       1608       1607  
      1476       1477       1488       1487       1597       1598       1609       1608  
      1477       1478       1489       1488       1598       1599       1610       1609  
      1478       1479       1490       1489       1599       1600       1611       1610  
      1479       1480       1491       1490       1600       1601       1612       1611  
      1480       1481       1492       1491       1601       1602       1613       1612  
      1481       1482       1493       1492       1602       1603       1614       1613  
      1482       1483       1494       1493       1603       1604       1615       1614  
      1483       1484       1495       1494       1604       1605       1616       1615  
      1484       1485       1496       1495       1605       1606       1617       1616  
      1486       1487       1498       1497       1607       1608       1619       1618  
      1487       1488       1499       1498       1608       1609       1620       1619  
      1488       1489       1500       1499       1609       1610       1621       1620  
      1489       1490       1501       1500       1610       1611       1622       1621  
      1490       1491       1502       1501       1611       1612       1623       1622  
      1491       1492       1503       1502       1612       1613       1624       1623  
      1492       1493       1504       1503       1613       1614       1625       1624  
      1493       1494       1505       1504       1614       1615       1626       1625  
      1494       1495       1506       1505       1615       1616       1627       1626  
      1495       1496       1507       1506       1616       1617       1628       1627  
      1497       1498       1509       1508       1618       1619       1630       1629  
      1498       1499       1510       1509       1619       1620       1631       1630  
      1499       1500       1511       1510       1620       1621       1632       1631  
      1500       1501       1512       1511       1621       1622       1633       1632  
      1501       1502       1513       1512       1622       1623       1634       1633  
      1502       1503       1514       1513       1623       1624       1635       1634  
      1503       1504       1515       1514       1624       1625       1636       1635  
      1504       1505       1516       1515       1625       1626       1637       1636  
      1505       1506       1517       1516       1626       1627       1638       1637  
      1506       1507       1518       1517       1627       1628       1639       1638  
      1508       1509       1520       1519       1629       1630       1641       1640  
      1509       1510       1521       1520       1630       1631       1642       1641  
      1510       1511       1522       1521       1631       1632       1643       1642  
      1511       1512       1523       1522       1632       1633       1644       1643  
      1512       1513       1524       1523       1633       1634       1645       1644  
      1513       1514       1525       1524       1634       1635       1646       1645  
      1514       1515       1526       1525       1635       1636       1647       1646  
      1515       1516       1527       1526       1636       1637       1648       1647  
      1516       1517       1528       1527       1637       1638       1649       1648  
      1517       1518       1529       1528       1638       1639       1650       1649  
      1519       1520       1531       1530       1640       1641       1652       1651  
      1520       1521       1532       1531       1641       1642       1653       1652  
      1521       1522       1533       1532       1642       1643       1654       1653  
      1522       1523       1534       1533       1643       1644       1655       1654  
      1523       1524       1535       1534       1644       1645       1656       1655  
      1524       1525       1536       1535       1645       1646       1657       1656  
      1525       1526       1537       1536       1646       1647       1658       1657  
      1526       1527       1538       1537       1647       1648       1659       1658  
      1527       1528       1539       1538       1648       1649       1660       1659  
      1528       1529       1540       1539       1649       1650       1661       1660  
      1530       1531       1542       1541       1651       1652       1663       1662  
      1531       1532       1543       1542       1652       1653       1664       1663  
      1532       1533       1544       1543       1653       1654       1665       1664  
      1533       1534       1545       1544       1654       1655       1666       1665  
      1534       1535       1546       1545       1655       1656       1667       1666  
      1535       1536       1547       1546       1656       1657       1668       1667  
      1536       1537       1548       1547       1657       1658       1669       1668  
      1537       1538       1549       1548       1658       1659       1670       1669  
      1538       1539       1550       1549       1659       1660       1671       1670  
      1539       1540       1551       1550       1660       1661       1672       1671  
      1541       1542       1553       1552       1662       1663       1674       1673  
      1542       1543       1554       1553       1663       1664       1675       1674  
      1543       1544       1555       1554       1664       1665       1676       1675  
      1544       1545       1556       1555       1665       1666       1677       1676  
      1545       1546       1557       1556       1666       1667       1678       1677  
      1546       1547       1558       1557       1667       1668       1679       1678  
      1547       1548       1559       1558       1668       1669       1680       1679  
      1548       1549       1560       1559       1669       1670       1681       1680  
      1549       1550       1561       1560       1670       1671       1682       1681  
      1550       1551       1562       1561       1671       1672       1683       1682  
      1552       1553       1564       1563       1673       1674       1685       1684  
      1553       1554       1565       1564       1674       1675       1686       1685  
      1554       1555       1566       1565       1675       1676       1687       1686  
      1555       1556       1567       1566       1676       1677       1688       1687  
      1556       1557       1568       1567       1677       1678       1689       1688  
      1557       1558       1569       1568       1678       1679       1690       1689  
      1558       1559       1570       1569       1679       1680       1691       1690  
      1559       1560       1571       1570       1680       1681       1692       1691  
      1560       1561       1572       1571       1681       1682       1693       1692  
      1561       1562       1573       1572       1682       1683       1694       1693  
      1574       1575       1586       1585       1695       1696       1707       1706  
      1575       1576       1587       1586       1696       1697       1708       1707  
      1576       1577       1588       1587       1697       1698       1709       1708  
      1577       1578       1589       1588       1698       1699       1710       1709  
      1578       1579       1590       1589       1699       1700       1711       1710  
      1579       1580       1591       1590       1700       1701       1712       1711  
      1580       1581       1592       1591       1701       1702       1713       1712  
      1581       1582       1593       1592       1702       1703       1714       1713  
      1582       1583       1594       1593       1703       1704       1715       1714  
      1583       1584       1595       1594       1704       1705       1716       1715  
      1585       1586       1597       1596       1706       1707       1718       1717  
      1586       1587       1598       1597       1707       1708       1719       1718  
      1587       1588       1599       1598       1708       1709       1720       1719  
      1588       1589       1600       1599       1709       1710       1721       1720  
      1589       1590       1601       1600       1710       1711       1722       1721  
      1590       1591       1602       1601       1711       1712       1723       1722  
      1591       1592       1603       1602       1712       1713       1724       1723  
      1592       1593       1604       1603       1713       1714       1725       1724  
      1593       1594       1605       1604       1714       1715       1726       1725  
      1594       1595       1606       1605       1715       1716       1727       1726  
      1596       1597       1608       1607       1717       1718       1729       1728  
      1597       1598       1609       1608       1718       1719       1730       1729  
      1598       1599       1610       1609       1719       1720       1731       1730  
      1599       1600       1611       1610       1720       1721       1732       1731  
      1600       1601       1612       1611       1721       1722       1733       1732  
      1601       1602       1613       1612       1722       1723       1734       1733  
      1602       1603       1614       1613       1723       1724       1735       1734  
      1603       1604       1615       1614       1724       1725       1736       1735  
      1604       1605       1616       1615       1725       1726       1737       1736  
      1605       1606       1617       1616       1726       1727       1738       1737  
      1607       1608       1619       1618       1728       1729       1740       1739  
      1608       1609       1620       1619       1729       1730       1741       1740  
      1609       1610       1621       1620       1730       1731       1742       1741  
      1610       1611       1622       1621       1731       1732       1743       1742  
      1611       1612       1623       1622       1732       1733       1744       1743  
      1612       1613       1624       1623       1733       1734       1745       1744  
      1613       1614       1625       1624       1734       1735       1746       1745  
      1614       1615       1626       1625       1735       1736       1747       1746  
      1615       1616       1627       1626       1736       1737       1748       1747  
      1616       1617       1628       1627       1737       1738       1749       1748  
      1618       1619       1630       1629       1739       1740       1751       1750  
      1619       1620       1631       1630       1740       1741       1752       1751  
      1620       1621       1632       1631       1741       1742       1753       1752  
      1621       1622       1633       1632       1742       1743       1754       1753  
      1622       1623       1634       1633       1743       1744       1755       1754  
      1623       1624       1635       1634       1744       1745       1756       1755  
      1624       1625       1636       1635       1745       1746       1757       1756  
      1625       1626       1637       1636       1746       1747       1758       1757  
      1626       1627       1638       1637       1747       1748       1759       1758  
      1627       1628       1639       1638       1748       1749       1760       1759  
      1629       1630       1641       1640       1750       1751       1762       1761  
      1630       1631       1642       1641       1751       1752       1763       1762  
      1631       1632       1643       1642       1752       1753       1764       1763  
      1632       1633       1644       1643       1753       1754       1765       1764  
      1633       1634       1645       1644       1754       1755       1766       1765  
      1634       1635       1646       1645       1755       1756       1767       1766  
      1635       1636       1647       1646       1756       1757       1768       1767  
      1636       1637       1648       1647       1757       1758       1769       1768  
      1637       1638       1649       1648       1758       1759       1770       1769  
      1638       1639       1650       1649       1759       1760       1771       1770  
      1640       1641       1652       1651       1761       1762       1773       1772  
      1641       1642       1653       1652       1762       1763       1774       1773  
      1642       1643       1654       1653       1763       1764       1775       1774  
      1643       1644       1655       1654       1764       1765       1776       1775  
      1644       1645       1656       1655       1765       1766       1777       1776  
      1645       1646       1657       1656       1766       1767       1778       1777  
      1646       1647       1658       1657       1767       1768       1779       1778  
      1647       1648       1659       1658       1768       1769       1780       1779  
      1648       1649       1660       1659       1769       1770       1781       1780  
      1649       1650       1661       1660       1770       1771       1782       1781  
      1651       1652       1663       1662       1772       1773       1784       1783  
      1652       1653       1664       1663       1773       1774       1785       1784  
      1653       1654       1665       1664       1774       1775       1786       1785  
      1654       1655       1666       1665       1775       1776       1787       1786  
      1655       1656       1667       1666       1776       1777       1788       1787  
      1656       1657       1668       1667       1777       1778       1789       1788  
      1657       1658       1669       1668       1778       1779       1790       1789  
      1658       1659       1670       1669       1779       1780       1791       1790  
      1659       1660       1671       1670       1780       1781       1792       1791  
      1660       1661       1672       1671       1781       1782       1793       1792  
      1662       1663       1674       1673       1783       1784       1795       1794  
      1663       1664       1675       1674       1784       1785       1796       1795  
      1664       1665       1676       1675       1785       1786       1797       1796  
      1665       1666       1677       1676       1786       1787       1798       1797  
      1666       1667       1678       1677       1787       1788       1799       1798  
      1667       1668       1679       1678       1788       1789       1800       1799  
      1668       1669       1680       1679       1789       1790       1801       1800  
      1669       1670       1681       1680       1790       1791       1802       1801  
      1670       1671       1682       1681       1791       1792       1803       1802  
      1671       1672       1683       1682       1792       1793       1804       1803  
      1673       1674       1685       1684       1794       1795       1806       1805  
      1674       1675       1686       1685       1795       1796       1807       1806  
      1675       1676       1687       1686       1796       1797       1808       1807  
      1676       1677       1688       1687       1797       1798       1809       1808  
      1677       1678       1689       1688       1798       1799       1810       1809  
      1678       1679       1690       1689       1799       1800       1811       1810  
      1679       1680       1691       1690       1800       1801       1812       1811  
      1680       1681       1692       1691       1801       1802       1813       1812  
      1681       1682       1693       1692       1802       1803       1814       1813  
      1682       1683       1694       1693       1803       1804       1815       1814  
      1695       1696       1707       1706       1816       1817       1828       1827  
      1696       1697       1708       1707       1817       1818       1829       1828  
      1697       1698       1709       1708       1818       1819       1830       1829  
      1698       1699       1710       1709       1819       1820       1831       1830  
      1699       1700       1711       1710       1820       1821       1832       1831  
      1700       1701       1712       1711       1821       1822       1833       1832  
      1701       1702       1713       1712       1822       1823       1834       1833  
      1702       1703       1714       1713       1823       1824       1835       1834  
      1703       1704       1715       1714       1824       1825       1836       1835  
      1704       1705       1716       1715       1825       1826       1837       1836  
      1706       1707       1718       1717       1827       1828       1839       1838  
      1707       1708       1719       1718       1828       1829       1840       1839  
      1708       1709       1720       1719       1829       1830       1841       1840  
      1709       1710       1721       1720       1830       1831       1842       1841  
      1710       1711       1722       1721       1831       1832       1843       1842  
      1711       1712       1723       1722       1832       1833       1844       1843  
      1712       1713       1724       1723       1833       1834       1845       1844  
      1713       1714       1725       1724       1834       1835       1846       1845  
      1714       1715       1726       1725       1835       1836       1847       1846  
      1715       1716       1727       1726       1836       1837       1848       1847  
      1717       1718       1729       1728       1838       1839       1850       1849  
      1718       1719       1730       1729       1839       1840       1851       1850  
      1719       1720       1731       1730       1840       1841       1852       1851  
      1720       1721       1732       1731       1841       1842       1853       1852  
      1721       1722       1733       1732       1842       1843       1854       1853  
      1722       1723       1734       1733       1843       1844       1855       1854  
      1723       1724       1735       1734       1844       1845       1856       1855  
      1724       1725       1736       1735       1845       1846       1857       1856  
      1725       1726       1737       1736       1846       1847       1858       1857  
      1726       1727       1738       1737       1847       1848       1859       1858  
      1728       1729       1740       1739       1849       1850       1861       1860  
      1729       1730       1741       1740       1850       1851       1862       1861  
      1730       1731       1742       1741       1851       1852       1863       1862  
      1731       1732       1743       1742       1852       1853       1864       1863  
      1732       1733       1744       1743       1853       1854       1865       1864  
      1733       1734       1745       1744       1854       1855       1866       1865  
      1734       1735       1746       1745       1855       1856       1867       1866  
      1735       1736       1747       1746       1856       1857       1868       1867  
      1736       1737       1748       1747       1857       1858       1869       1868  
      1737       1738       1749       1748       1858       1859       1870       1869  
      1739       1740       1751       1750       1860       1861       1872       1871  
      1740       1741       1752       1751       1861       1862       1873       1872  
      1741       1742       1753       1752       1862       1863       1874       1873  
      1742       1743       1754       1753       1863       1864       1875       1874  
      1743       1744       1755       1754       1864       1865       1876       1875  
      1744       1745       1756       1755       1865       1866       1877       1876  
      1745       1746       1757       1756       1866       1867       1878       1877  
      1746       1747       1758       1757       1867       1868       1879       1878  
      1747       1748       1759       1758       1868       1869       1880       1879  
      1748       1749       1760       1759       1869       1870       1881       1880  
      1750       1751       1762       1761       1871       1872       1883       1882  
      1751       1752       1763       1762       1872       1873       1884       1883  
      1752       1753       1764       1763       1873       1874       1885       1884  
      1753       1754       1765       1764       1874       1875       1886       1885  
      1754       1755       1766       1765       1875       1876       1887       1886  
      1755       1756       1767       1766       1876       1877       1888       1887  
      1756       1757       1768       1767       1877       1878       1889       1888  
      1757       1758       1769       1768       1878       1879       1890       1889  
      1758       1759       1770       1769       1879       1880       1891       1890  
      1759       1760       1771       1770       1880       1881       1892       1891  
      1761       1762       1773       1772       1882       1883       1894       1893  
      1762       1763       1774       1773       1883       1884       1895       1894  
      1763       1764       1775       1774       1884       1885       1896       1895  
      1764       1765       1776       1775       1885       1886       1897       1896  
      1765       1766       1777       1776       1886       1887       1898       1897  
      1766       1767       1778       1777       1887       1888       1899       1898  
      1767       1768       1779       1778       1888       1889       1900       1899  
      1768       1769       1780       1779       1889       1890       1901       1900  
      1769       1770       1781       1780       1890       1891       1902       1901  
      1770       1771       1782       1781       1891       1892       1903       1902  
      1772       1773       1784       1783       1893       1894       1905       1904  
      1773       1774       1785       1784       1894       1895       1906       1905  
      1774       1775       1786       1785       1895       1896       1907       1906  
      1775       1776       1787       1786       1896       1897       1908       1907  
      1776       1777       1788       1787       1897       1898       1909       1908  
      1777       1778       1789       1788       1898       1899       1910       1909  
      1778       1779       1790       1789       1899       1900       1911       1910  
      1779       1780       1791       1790       1900       1901       1912       1911  
      1780       1781       1792       1791       1901       1902       1913       1912  
      1781       1782       1793       1792       1902       1903       1914       1913  
      1783       1784       1795       1794       1904       1905       1916       1915  
      1784       1785       1796       1795       1905       1906       1917       1916  
      1785       1786       1797       1796       1906       1907       1918       1917  
      1786       1787       1798       1797       1907       1908       1919       1918  
      1787       1788       1799       1798       1908       1909       1920       1919  
      1788       1789       1800       1799       1909       1910       1921       1920  
      1789       1790       1801       1800       1910       1911       1922       1921  
      1790       1791       1802       1801       1911       1912       1923       1922  
      1791       1792       1803       1802       1912       1913       1924       1923  
      1792       1793       1804       1803       1913       1914       1925       1924  
      1794       1795       1806       1805       1915       1916       1927       1926  
      1795       1796       1807       1806       1916       1917       1928       1927  
      1796       1797       1808       1807       1917       1918       1929       1928  
      1797       1798       1809       1808       1918       1919       1930       1929  
      1798       1799       1810       1809       1919       1920       1931       1930  
      1799       1800       1811       1810       1920       1921       1932       1931  
      1800       1801       1812       1811       1921       1922       1933       1932  
      1801       1802       1813       1812       1922       1923       1934       1933  
      1802       1803       1814       1813       1923       1924       1935       1934  
      1803       1804       1815       1814       1924       1925       1936       1935  
      1816       1817       1828       1827       1937       1938       1949       1948  
      1817       1818       1829       1828       1938       1939       1950       1949  
      1818       1819       1830       1829       1939       1940       1951       1950  
      1819       1820       1831       1830       1940       1941       1952       1951  
      1820       1821       1832       1831       1941       1942       1953       1952  
      1821       1822       1833       1832       1942       1943       1954       1953  
      1822       1823       1834       1833       1943       1944       1955       1954  
      1823       1824       1835       1834       1944       1945       1956       1955  
      1824       1825       1836       1835       1945       1946       1957       1956  
      1825       1826       1837       1836       1946       1947       1958       1957  
      1827       1828       1839       1838       1948       1949       1960       1959  
      1828       1829       1840       1839       1949       1950       1961       1960  
      1829       1830       1841       1840       1950       1951       1962       1961  
      1830       1831       1842       1841       1951       1952       1963       1962  
      1831       1832       1843       1842       1952       1953       1964       1963  
      1832       1833       1844       1843       1953       1954       1965       1964  
      1833       1834       1845       1844       1954       1955       1966       1965  
      1834       1835       1846       1845       1955       1956       1967       1966  
      1835       1836       1847       1846       1956       1957       1968       1967  
      1836       1837       1848       1847       1957       1958       1969       1968  
      1838       1839       1850       1849       1959       1960       1971       1970  
      1839       1840       1851       1850       1960       1961       1972       1971  
      1840       1841       1852       1851       1961       1962       1973       1972  
      1841       1842       1853       1852       1962       1963       1974       1973  
      1842       1843       1854       1853       1963       1964       1975       1974  
      1843       1844       1855       1854       1964       1965       1976       1975  
      1844       1845       1856       1855       1965       1966       1977       1976  
      1845       1846       1857       1856       1966       1967       1978       1977  
      1846       1847       1858       1857       1967       1968       1979       1978  
      1847       1848       1859       1858       1968       1969       1980       1979  
      1849       1850       1861       1860       1970       1971       1982       1981  
      1850       1851       1862       1861       1971       1972       1983       1982  
      1851       1852       1863       1862       1972       1973       1984       1983  
      1852       1853       1864       1863       1973       1974       1985       1984  
      1853       1854       1865       1864       1974       1975       1986       1985  
      1854       1855       1866       1865       1975       1976       1987       1986  
      1855       1856       1867       1866       1976       1977       1988       1987  
      1856       1857       1868       1867       1977       1978       1989       1988  
      1857       1858       1869       1868       1978       1979       1990       1989  
      1858       1859       1870       1869       1979       1980       1991       1990  
      1860       1861       1872       1871       1981       1982       1993       1992  
      1861       1862       1873       1872       1982       1983       1994       1993  
      1862       1863       1874       1873       1983       1984       1995       1994  
      1863       1864       1875       1874       1984       1985       1996       1995  
      1864       1865       1876       1875       1985       1986       1997       1996  
      1865       1866       1877       1876       1986       1987       1998       1997  
      1866       1867       1878       1877       1987       1988       1999       1998  
      1867       1868       1879       1878       1988       1989       2000       1999  
      1868       1869       1880       1879       1989       1990       2001       2000  
      1869       1870       1881       1880       1990       1991       2002       2001  
      1871       1872       1883       1882       1992       1993       2004       2003  
      1872       1873       1884       1883       1993       1994       2005       2004  
      1873       1874       1885       1884       1994       1995       2006       2005  
      1874       1875       1886       1885       1995       1996       2007       2006  
      1875       1876       1887       1886       1996       1997       2008       2007  
      1876       1877       1888       1887       1997       1998       2009       2008  
      1877       1878       1889       1888       1998       1999       2010       2009  
      1878       1879       1890       1889       1999       2000       2011       2010  
      1879       1880       1891       1890       2000       2001       2012       2011  
      1880       1881       1892       1891       2001       2002       2013       2012  
      1882       1883       1894       1893       2003       2004       2015       2014  
      1883       1884       1895       1894       2004       2005       2016       2015  
      1884       1885       1896       1895       2005       2006       2017       2016  
      1885       1886       1897       1896       2006       2007       2018       2017  
      1886       1887       1898       1897       2007       2008       2019       2018  
      1887       1888       1899       1898       2008       2009       2020       2019  
      1888       1889       1900       1899       2009       2010       2021       2020  
      1889       1890       1901       1900       2010       2011       2022       2021  
      1890       1891       1902       1901       2011       2012       2023       2022  
      1891       1892       1903       1902       2012       2013       2024       2023  
      1893       1894       1905       1904       2014       2015       2026       2025  
      1894       1895       1906       1905       2015       2016       2027       2026  
      1895       1896       1907       1906       2016       2017       2028       2027  
      1896       1897       1908       1907       2017       2018       2029       2028  
      1897       1898       1909       1908       2018       2019       2030       2029  
      1898       1899       1910       1909       2019       2020       2031       2030  
      1899       1900       1911       1910       2020       2021       2032       2031  
      1900       1901       1912       1911       2021       2022       2033       2032  
      1901       1902       1913       1912       2022       2023       2034       2033  
      1902       1903       1914       1913       2023       2024       2035       2034  
      1904       1905       1916       1915       2025       2026       2037       2036  
      1905       1906       1917       1916       2026       2027       2038       2037  
      1906       1907       1918       1917       2027       2028       2039       2038  
      1907       1908       1919       1918       2028       2029       2040       2039  
      1908       1909       1920       1919       2029       2030       2041       2040  
      1909       1910       1921       1920       2030       2031       2042       2041  
      1910       1911       1922       1921       2031       2032       2043       2042  
      1911       1912       1923       1922       2032       2033       2044       2043  
      1912       1913       1924       1923       2033       2034       2045       2044  
      1913       1914       1925       1924       2034       2035       2046       2045  
      1915       1916       1927       1926       2036       2037       2048       2047  
      1916       1917       1928       1927       2037       2038       2049       2048  
      1917       1918       1929       1928       2038       2039       2050       2049  
      1918       1919       1930       1929       2039       2040       2051       2050  
      1919       1920       1931       1930       2040       2041       2052       2051  
      1920       1921       1932       1931       2041       2042       2053       2052  
      1921       1922       1933       1932       2042       2043       2054       2053  
      1922       1923       1934       1933       2043       2044       2055       2054  
      1923       1924       1935       1934       2044       2045       2056       2055  
      1924       1925       1936       1935       2045       2046       2057       2056  
      1937       1938       1949       1948       2058       2059       2070       2069  
      1938       1939       1950       1949       2059       2060       2071       2070  
      1939       1940       1951       1950       2060       2061       2072       2071  
      1940       1941       1952       1951       2061       2062       2073       2072  
      1941       1942       1953       1952       2062       2063       2074       2073  
      1942       1943       1954       1953       2063       2064       2075       2074  
      1943       1944       1955       1954       2064       2065       2076       2075  
      1944       1945       1956       1955       2065       2066       2077       2076  
      1945       1946       1957       1956       2066       2067       2078       2077  
      1946       1947       1958       1957       2067       2068       2079       2078  
      1948       1949       1960       1959       2069       2070       2081       2080  
      1949       1950       1961       1960       2070       2071       2082       2081  
      1950       1951       1962       1961       2071       2072       2083       2082  
      1951       1952       1963       1962       2072       2073       2084       2083  
      1952       1953       1964       1963       2073       2074       2085       2084  
      1953       1954       1965       1964       2074       2075       2086       2085  
      1954       1955       1966       1965       2075       2076       2087       2086  
      1955       1956       1967       1966       2076       2077       2088       2087  
      1956       1957       1968       1967       2077       2078       2089       2088  
      1957       1958       1969       1968       2078       2079       2090       2089  
      1959       1960       1971       1970       2080       2081       2092       2091  
      1960       1961       1972       1971       2081       2082       2093       2092  
      1961       1962       1973       1972       2082       2083       2094       2093  
      1962       1963       1974       1973       2083       2084       2095       2094  
      1963       1964       1975       1974       2084       2085       2096       2095  
      1964       1965       1976       1975       2085       2086       2097       2096  
      1965       1966       1977       1976       2086       2087       2098       2097  
      1966       1967       1978       1977       2087       2088       2099       2098  
      1967       1968       1979       1978       2088       2089       2100       2099  
      1968       1969       1980       1979       2089       2090       2101       2100  
      1970       1971       1982       1981       2091       2092       2103       2102  
      1971       1972       1983       1982       2092       2093       2104       2103  
      1972       1973       1984       1983       2093       2094       2105       2104  
      1973       1974       1985       1984       2094       2095       2106       2105  
      1974       1975       1986       1985       2095       2096       2107       2106  
      1975       1976       1987       1986       2096       2097       2108       2107  
      1976       1977       1988       1987       2097       2098       2109       2108  
      1977       1978       1989       1988       2098       2099       2110       2109  
      1978       1979       1990       1989       2099       2100       2111       2110  
      1979       1980       1991       1990       2100       2101       2112       2111  
      1981       1982       1993       1992       2102       2103       2114       2113  
      1982       1983       1994       1993       2103       2104       2115       2114  
      1983       1984       1995       1994       2104       2105       2116       2115  
      1984       1985       1996       1995       2105       2106       2117       2116  
      1985       1986       1997       1996       2106       2107       2118       2117  
      1986       1987       1998       1997       2107       2108       2119       2118  
      1987       1988       1999       1998       2108       2109       2120       2119  
      1988       1989       2000       1999       2109       2110       2121       2120  
      1989       1990       2001       2000       2110       2111       2122       2121  
      1990       1991       2002       2001       2111       2112       2123       2122  
      1992       1993       2004       2003       2113       2114       2125       2124  
      1993       1994       2005       2004       2114       2115       2126       2125  
      1994       1995       2006       2005       2115       2116       2127       2126  
      1995       1996       2007       2006       2116       2117       2128       2127  
      1996       1997       2008       2007       2117       2118       2129       2128  
      1997       1998       2009       2008       2118       2119       2130       2129  
      1998       1999       2010       2009       2119       2120       2131       2130  
      1999       2000       2011       2010       2120       2121       2132       2131  
      2000       2001       2012       2011       2121       2122       2133       2132  
      2001       2002       2013       2012       2122       2123       2134       2133  
      2003       2004       2015       2014       2124       2125       2136       2135  
      2004       2005       2016       2015       2125       2126       2137       2136  
      2005       2006       2017       2016       2126       2127       2138       2137  
      2006       2007       2018       2017       2127       2128       2139       2138  
      2007       2008       2019       2018       2128       2129       2140       2139  
      2008       2009       2020       2019       2129       2130       2141       2140  
      2009       2010       2021       2020       2130       2131       2142       2141  
      2010       2011       2022       2021       2131       2132       2143       2142  
      2011       2012       2023       2022       2132       2133       2144       2143  
      2012       2013       2024       2023       2133       2134       2145       2144  
      2014       2015       2026       2025       2135       2136       2147       2146  
      2015       2016       2027       2026       2136       2137       2148       2147  
      2016       2017       2028       2027       2137       2138       2149       2148  
      2017       2018       2029       2028       2138       2139       2150       2149  
      2018       2019       2030       2029       2139       2140       2151       2150  
      2019       2020       2031       2030       2140       2141       2152       2151  
      2020       2021       2032       2031       2141       2142       2153       2152  
      2021       2022       2033       2032       2142       2143       2154       2153  
      2022       2023       2034       2033       2143       2144       2155       2154  
      2023       2024       2035       2034       2144       2145       2156       2155  
      2025       2026       2037       2036       2146       2147       2158       2157  
      2026       2027       2038       2037       2147       2148       2159       2158  
      2027       2028       2039       2038       2148       2149       2160       2159  
      2028       2029       2040       2039       2149       2150       2161       2160  
      2029       2030       2041       2040       2150       2151       2162       2161  
      2030       2031       2042       2041       2151       2152       2163       2162  
      2031       2032       2043       2042       2152       2153       2164       2163  
      2032       2033       2044       2043       2153       2154       2165       2164  
      2033       2034       2045       2044       2154       2155       2166       2165  
      2034       2035       2046       2045       2155       2156       2167       2166  
      2036       2037       2048       2047       2157       2158       2169       2168  
      2037       2038       2049       2048       2158       2159       2170       2169  
      2038       2039       2050       2049       2159       2160       2171       2170  
      2039       2040       2051       2050       2160       2161       2172       2171  
      2040       2041       2052       2051       2161       2162       2173       2172  
      2041       2042       2053       2052       2162       2163       2174       2173  
      2042       2043       2054       2053       2163       2164       2175       2174  
      2043       2044       2055       2054       2164       2165       2176       2175  
      2044       2045       2056       2055       2165       2166       2177       2176  
      2045       2046       2057       2056       2166       2167       2178       2177  
      2058       2059       2070       2069       2179       2180       2191       2190  
      2059       2060       2071       2070       2180       2181       2192       2191  
      2060       2061       2072       2071       2181       2182       2193       2192  
      2061       2062       2073       2072       2182       2183       2194       2193  
      2062       2063       2074       2073       2183       2184       2195       2194  
      2063       2064       2075       2074       2184       2185       2196       2195  
      2064       2065       2076       2075       2185       2186       2197       2196  
      2065       2066       2077       2076       2186       2187       2198       2197  
      2066       2067       2078       2077       2187       2188       2199       2198  
      2067       2068       2079       2078       2188       2189       2200       2199  
      2069       2070       2081       2080       2190       2191       2202       2201  
      2070       2071       2082       2081       2191       2192       2203       2202  
      2071       2072       2083       2082       2192       2193       2204       2203  
      2072       2073       2084       2083       2193       2194       2205       2204  
      2073       2074       2085       2084       2194       2195       2206       2205  
      2074       2075       2086       2085       2195       2196       2207       2206  
      2075       2076       2087       2086       2196       2197       2208       2207  
      2076       2077       2088       2087       2197       2198       2209       2208  
      2077       2078       2089       2088       2198       2199       2210       2209  
      2078       2079       2090       2089       2199       2200       2211       2210  
      2080       2081       2092       2091       2201       2202       2213       2212  
      2081       2082       2093       2092       2202       2203       2214       2213  
      2082       2083       2094       2093       2203       2204       2215       2214  
      2083       2084       2095       2094       2204       2205       2216       2215  
      2084       2085       2096       2095       2205       2206       2217       2216  
      2085       2086       2097       2096       2206       2207       2218       2217  
      2086       2087       2098       2097       2207       2208       2219       2218  
      2087       2088       2099       2098       2208       2209       2220       2219  
      2088       2089       2100       2099       2209       2210       2221       2220  
      2089       2090       2101       2100       2210       2211       2222       2221  
      2091       2092       2103       2102       2212       2213       2224       2223  
      2092       2093       2104       2103       2213       2214       2225       2224  
      2093       2094       2105       2104       2214       2215       2226       2225  
      2094       2095       2106       2105       2215       2216       2227       2226  
      2095       2096       2107       2106       2216       2217       2228       2227  
      2096       2097       2108       2107       2217       2218       2229       2228  
      2097       2098       2109       2108       2218       2219       2230       2229  
      2098       2099       2110       2109       2219       2220       2231       2230  
      2099       2100       2111       2110       2220       2221       2232       2231  
      2100       2101       2112       2111       2221       2222       2233       2232  
      2102       2103       2114       2113       2223       2224       2235       2234  
      2103       2104       2115       2114       2224       2225       2236       2235  
      2104       2105       2116       2115       2225       2226       2237       2236  
      2105       2106       2117       2116       2226       2227       2238       2237  
      2106       2107       2118       2117       2227       2228       2239       2238  
      2107       2108       2119       2118       2228       2229       2240       2239  
      2108       2109       2120       2119       2229       2230       2241       2240  
      2109       2110       2121       2120       2230       2231       2242       2241  
      2110       2111       2122       2121       2231       2232       2243       2242  
      2111       2112       2123       2122       2232       2233       2244       2243  
      2113       2114       2125       2124       2234       2235       2246       2245  
      2114       2115       2126       2125       2235       2236       2247       2246  
      2115       2116       2127       2126       2236       2237       2248       2247  
      2116       2117       2128       2127       2237       2238       2249       2248  
      2117       2118       2129       2128       2238       2239       2250       2249  
      2118       2119       2130       2129       2239       2240       2251       2250  
      2119       2120       2131       2130       2240       2241       2252       2251  
      2120       2121       2132       2131       2241       2242       2253       2252  
      2121       2122       2133       2132       2242       2243       2254       2253  
      2122       2123       2134       2133       2243       2244       2255       2254  
      2124       2125       2136       2135       2245       2246       2257       2256  
      2125       2126       2137       2136       2246       2247       2258       2257  
      2126       2127       2138       2137       2247       2248       2259       2258  
      2127       2128       2139       2138       2248       2249       2260       2259  
      2128       2129       2140       2139       2249       2250       2261       2260  
      2129       2130       2141       2140       2250       2251       2262       2261  
      2130       2131       2142       2141       2251       2252       2263       2262  
      2131       2132       2143       2142       2252       2253       2264       2263  
      2132       2133       2144       2143       2253       2254       2265       2264  
      2133       2134       2145       2144       2254       2255       2266       2265  
      2135       2136       2147       2146       2256       2257       2268       2267  
      2136       2137       2148       2147       2257       2258       2269       2268  
      2137       2138       2149       2148       2258       2259       2270       2269  
      2138       2139       2150       2149       2259       2260       2271       2270  
      2139       2140       2151       2150       2260       2261       2272       2271  
      2140       2141       2152       2151       2261       2262       2273       2272  
      2141       2142       2153       2152       2262       2263       2274       2273  
      2142       2143       2154       2153       2263       2264       2275       2274  
      2143       2144       2155       2154       2264       2265       2276       2275  
      2144       2145       2156       2155       2265       2266       2277       2276  
      2146       2147       2158       2157       2267       2268       2279       2278  
      2147       2148       2159       2158       2268       2269       2280       2279  
      2148       2149       2160       2159       2269       2270       2281       2280  
      2149       2150       2161       2160       2270       2271       2282       2281  
      2150       2151       2162       2161       2271       2272       2283       2282  
      2151       2152       2163       2162       2272       2273       2284       2283  
      2152       2153       2164       2163       2273       2274       2285       2284  
      2153       2154       2165       2164       2274       2275       2286       2285  
      2154       2155       2166       2165       2275       2276       2287       2286  
      2155       2156       2167       2166       2276       2277       2288       2287  
      2157       2158       2169       2168       2278       2279       2290       2289  
      2158       2159       2170       2169       2279       2280       2291       2290  
      2159       2160       2171       2170       2280       2281       2292       2291  
      2160       2161       2172       2171       2281       2282       2293       2292  
      2161       2162       2173       2172       2282       2283       2294       2293  
      2162       2163       2174       2173       2283       2284       2295       2294  
      2163       2164       2175       2174       2284       2285       2296       2295  
      2164       2165       2176       2175       2285       2286       2297       2296  
      2165       2166       2177       2176       2286       2287       2298       2297  
      2166       2167       2178       2177       2287       2288       2299       2298  
      2179       2180       2191       2190       2300       2301       2312       2311  
      2180       2181       2192       2191       2301       2302       2313       2312  
      2181       2182       2193       2192       2302       2303       2314       2313  
      2182       2183       2194       2193       2303       2304       2315       2314  
      2183       2184       2195       2194       2304       2305       2316       2315  
      2184       2185       2196       2195       2305       2306       2317       2316  
      2185       2186       2197       2196       2306       2307       2318       2317  
      2186       2187       2198       2197       2307       2308       2319       2318  
      2187       2188       2199       2198       2308       2309       2320       2319  
      2188       2189       2200       2199       2309       2310       2321       2320  
      2190       2191       2202       2201       2311       2312       2323       2322  
      2191       2192       2203       2202       2312       2313       2324       2323  
      2192       2193       2204       2203       2313       2314       2325       2324  
      2193       2194       2205       2204       2314       2315       2326       2325  
      2194       2195       2206       2205       2315       2316       2327       2326  
      2195       2196       2207       2206       2316       2317       2328       2327  
      2196       2197       2208       2207       2317       2318       2329       2328  
      2197       2198       2209       2208       2318       2319       2330       2329  
      2198       2199       2210       2209       2319       2320       2331       2330  
      2199       2200       2211       2210       2320       2321       2332       2331  
      2201       2202       2213       2212       2322       2323       2334       2333  
      2202       2203       2214       2213       2323       2324       2335       2334  
      2203       2204       2215       2214       2324       2325       2336       2335  
      2204       2205       2216       2215       2325       2326       2337       2336  
      2205       2206       2217       2216       2326       2327       2338       2337  
      2206       2207       2218       2217       2327       2328       2339       2338  
      2207       2208       2219       2218       2328       2329       2340       2339  
      2208       2209       2220       2219       2329       2330       2341       2340  
      2209       2210       2221       2220       2330       2331       2342       2341  
      2210       2211       2222       2221       2331       2332       2343       2342  
      2212       2213       2224       2223       2333       2334       2345       2344  
      2213       2214       2225       2224       2334       2335       2346       2345  
      2214       2215       2226       2225       2335       2336       2347       2346  
      2215       2216       2227       2226       2336       2337       2348       2347  
      2216       2217       2228       2227       2337       2338       2349       2348  
      2217       2218       2229       2228       2338       2339       2350       2349  
      2218       2219       2230       2229       2339       2340       2351       2350  
      2219       2220       2231       2230       2340       2341       2352       2351  
      2220       2221       2232       2231       2341       2342       2353       2352  
      2221       2222       2233       2232       2342       2343       2354       2353  
      2223       2224       2235       2234       2344       2345       2356       2355  
      2224       2225       2236       2235       2345       2346       2357       2356  
      2225       2226       2237       2236       2346       2347       2358       2357  
      2226       2227       2238       2237       2347       2348       2359       2358  
      2227       2228       2239       2238       2348       2349       2360       2359  
      2228       2229       2240       2239       2349       2350       2361       2360  
      2229       2230       2241       2240       2350       2351       2362       2361  
      2230       2231       2242       2241       2351       2352       2363       2362  
      2231       2232       2243       2242       2352       2353       2364       2363  
      2232       2233       2244       2243       2353       2354       2365       2364  
      2234       2235       2246       2245       2355       2356       2367       2366  
      2235       2236       2247       2246       2356       2357       2368       2367  
      2236       2237       2248       2247       2357       2358       2369       2368  
      2237       2238       2249       2248       2358       2359       2370       2369  
      2238       2239       2250       2249       2359       2360       2371       2370  
      2239       2240       2251       2250       2360       2361       2372       2371  
      2240       2241       2252       2251       2361       2362       2373       2372  
      2241       2242       2253       2252       2362       2363       2374       2373  
      2242       2243       2254       2253       2363       2364       2375       2374  
      2243       2244       2255       2254       2364       2365       2376       2375  
      2245       2246       2257       2256       2366       2367       2378       2377  
      2246       2247       2258       2257       2367       2368       2379       2378  
      2247       2248       2259       2258       2368       2369       2380       2379  
      2248       2249       2260       2259       2369       2370       2381       2380  
      2249       2250       2261       2260       2370       2371       2382       2381  
      2250       2251       2262       2261       2371       2372       2383       2382  
      2251       2252       2263       2262       2372       2373       2384       2383  
      2252       2253       2264       2263       2373       2374       2385       2384  
      2253       2254       2265       2264       2374       2375       2386       2385  
      2254       2255       2266       2265       2375       2376       2387       2386  
      2256       2257       2268       2267       2377       2378       2389       2388  
      2257       2258       2269       2268       2378       2379       2390       2389  
      2258       2259       2270       2269       2379       2380       2391       2390  
      2259       2260       2271       2270       2380       2381       2392       2391  
      2260       2261       2272       2271       2381       2382       2393       2392  
      2261       2262       2273       2272       2382       2383       2394       2393  
      2262       2263       2274       2273       2383       2384       2395       2394  
      2263       2264       2275       2274       2384       2385       2396       2395  
      2264       2265       2276       2275       2385       2386       2397       2396  
      2265       2266       2277       2276       2386       2387       2398       2397  
      2267       2268       2279       2278       2388       2389       2400       2399  
      2268       2269       2280       2279       2389       2390       2401       2400  
      2269       2270       2281       2280       2390       2391       2402       2401  
      2270       2271       2282       2281       2391       2392       2403       2402  
      2271       2272       2283       2282       2392       2393       2404       2403  
      2272       2273       2284       2283       2393       2394       2405       2404  
      2273       2274       2285       2284       2394       2395       2406       2405  
      2274       2275       2286       2285       2395       2396       2407       2406  
      2275       2276       2287       2286       2396       2397       2408       2407  
      2276       2277       2288       2287       2397       2398       2409       2408  
      2278       2279       2290       2289       2399       2400       2411       2410  
      2279       2280       2291       2290       2400       2401       2412       2411  
      2280       2281       2292       2291       2401       2402       2413       2412  
      2281       2282       2293       2292       2402       2403       2414       2413  
      2282       2283       2294       2293       2403       2404       2415       2414  
      2283       2284       2295       2294       2404       2405       2416       2415  
      2284       2285       2296       2295       2405       2406       2417       2416  
      2285       2286       2297       2296       2406       2407       2418       2417  
      2286       2287       2298       2297       2407       2408       2419       2418  
      2287       2288       2299       2298       2408       2409       2420       2419  
      2300       2301       2312       2311       2421       2422       2433       2432  
      2301       2302       2313       2312       2422       2423       2434       2433  
      2302       2303       2314       2313       2423       2424       2435       2434  
      2303       2304       2315       2314       2424       2425       2436       2435  
      2304       2305       2316       2315       2425       2426       2437       2436  
      2305       2306       2317       2316       2426       2427       2438       2437  
      2306       2307       2318       2317       2427       2428       2439       2438  
      2307       2308       2319       2318       2428       2429       2440       2439  
      2308       2309       2320       2319       2429       2430       2441       2440  
      2309       2310       2321       2320       2430       2431       2442       2441  
      2311       2312       2323       2322       2432       2433       2444       2443  
      2312       2313       2324       2323       2433       2434       2445       2444  
      2313       2314       2325       2324       2434       2435       2446       2445  
      2314       2315       2326       2325       2435       2436       2447       2446  
      2315       2316       2327       2326       2436       2437       2448       2447  
      2316       2317       2328       2327       2437       2438       2449       2448  
      2317       2318       2329       2328       2438       2439       2450       2449  
      2318       2319       2330       2329       2439       2440       2451       2450  
      2319       2320       2331       2330       2440       2441       2452       2451  
      2320       2321       2332       2331       2441       2442       2453       2452  
      2322       2323       2334       2333       2443       2444       2455       2454  
      2323       2324       2335       2334       2444       2445       2456       2455  
      2324       2325       2336       2335       2445       2446       2457       2456  
      2325       2326       2337       2336       2446       2447       2458       2457  
      2326       2327       2338       2337       2447       2448       2459       2458  
      2327       2328       2339       2338       2448       2449       2460       2459  
      2328       2329       2340       2339       2449       2450       2461       2460  
      2329       2330       2341       2340       2450       2451       2462       2461  
      2330       2331       2342       2341       2451       2452       2463       2462  
      2331       2332       2343       2342       2452       2453       2464       2463  
      2333       2334       2345       2344       2454       2455       2466       2465  
      2334       2335       2346       2345       2455       2456       2467       2466  
      2335       2336       2347       2346       2456       2457       2468       2467  
      2336       2337       2348       2347       2457       2458       2469       2468  
      2337       2338       2349       2348       2458       2459       2470       2469  
      2338       2339       2350       2349       2459       2460       2471       2470  
      2339       2340       2351       2350       2460       2461       2472       2471  
      2340       2341       2352       2351       2461       2462       2473       2472  
      2341       2342       2353       2352       2462       2463       2474       2473  
      2342       2343       2354       2353       2463       2464       2475       2474  
      2344       2345       2356       2355       2465       2466       2477       2476  
      2345       2346       2357       2356       2466       2467       2478       2477  
      2346       2347       2358       2357       2467       2468       2479       2478  
      2347       2348       2359       2358       2468       2469       2480       2479  
      2348       2349       2360       2359       2469       2470       2481       2480  
      2349       2350       2361       2360       2470       2471       2482       2481  
      2350       2351       2362       2361       2471       2472       2483       2482  
      2351       2352       2363       2362       2472       2473       2484       2483  
      2352       2353       2364       2363       2473       2474       2485       2484  
      2353       2354       2365       2364       2474       2475       2486       2485  
      2355       2356       2367       2366       2476       2477       2488       2487  
      2356       2357       2368       2367       2477       2478       2489       2488  
      2357       2358       2369       2368       2478       2479       2490       2489  
      2358       2359       2370       2369       2479       2480       2491       2490  
      2359       2360       2371       2370       2480       2481       2492       2491  
      2360       2361       2372       2371       2481       2482       2493       2492  
      2361       2362       2373       2372       2482       2483       2494       2493  
      2362       2363       2374       2373       2483       2484       2495       2494  
      2363       2364       2375       2374       2484       2485       2496       2495  
      2364       2365       2376       2375       2485       2486       2497       2496  
      2366       2367       2378       2377       2487       2488       2499       2498  
      2367       2368       2379       2378       2488       2489       2500       2499  
      2368       2369       2380       2379       2489       2490       2501       2500  
      2369       2370       2381       2380       2490       2491       2502       2501  
      2370       2371       2382       2381       2491       2492       2503       2502  
      2371       2372       2383       2382       2492       2493       2504       2503  
      2372       2373       2384       2383       2493       2494       2505       2504  
      2373       2374       2385       2384       2494       2495       2506       2505  
      2374       2375       2386       2385       2495       2496       2507       2506  
      2375       2376       2387       2386       2496       2497       2508       2507  
      2377       2378       2389       2388       2498       2499       2510       2509  
      2378       2379       2390       2389       2499       2500       2511       2510  
      2379       2380       2391       2390       2500       2501       2512       2511  
      2380       2381       2392       2391       2501       2502       2513       2512  
      2381       2382       2393       2392       2502       2503       2514       2513  
      2382       2383       2394       2393       2503       2504       2515       2514  
      2383       2384       2395       2394       2504       2505       2516       2515  
      2384       2385       2396       2395       2505       2506       2517       2516  
      2385       2386       2397       2396       2506       2507       2518       2517  
      2386       2387       2398       2397       2507       2508       2519       2518  
      2388       2389       2400       2399       2509       2510       2521       2520  
      2389       2390       2401       2400       2510       2511       2522       2521  
      2390       2391       2402       2401       2511       2512       2523       2522  
      2391       2392       2403       2402       2512       2513       2524       2523  
      2392       2393       2404       2403       2513       2514       2525       2524  
      2393       2394       2405       2404       2514       2515       2526       2525  
      2394       2395       2406       2405       2515       2516       2527       2526  
      2395       2396       2407       2406       2516       2517       2528       2527  
      2396       2397       2408       2407       2517       2518       2529       2528  
      2397       2398       2409       2408       2518       2519       2530       2529  
      2399       2400       2411       2410       2520       2521       2532       2531  
      2400       2401       2412       2411       2521       2522       2533       2532  
      2401       2402       2413       2412       2522       2523       2534       2533  
      2402       2403       2414       2413       2523       2524       2535       2534  
      2403       2404       2415       2414       2524       2525       2536       2535  
      2404       2405       2416       2415       2525       2526       2537       2536  
      2405       2406       2417       2416       2526       2527       2538       2537  
      2406       2407       2418       2417       2527       2528       2539       2538  
      2407       2408       2419       2418       2528       2529       2540       2539  
      2408       2409       2420       2419       2529       2530       2541       2540  
      2421       2422       2433       2432       2542       2543       2554       2553  
      2422       2423       2434       2433       2543       2544       2555       2554  
      2423       2424       2435       2434       2544       2545       2556       2555  
      2424       2425       2436       2435       2545       2546       2557       2556  
      2425       2426       2437       2436       2546       2547       2558       2557  
      2426       2427       2438       2437       2547       2548       2559       2558  
      2427       2428       2439       2438       2548       2549       2560       2559  
      2428       2429       2440       2439       2549       2550       2561       2560  
      2429       2430       2441       2440       2550       2551       2562       2561  
      2430       2431       2442       2441       2551       2552       2563       2562  
      2432       2433       2444       2443       2553       2554       2565       2564  
      2433       2434       2445       2444       2554       2555       2566       2565  
      2434       2435       2446       2445       2555       2556       2567       2566  
      2435       2436       2447       2446       2556       2557       2568       2567  
      2436       2437       2448       2447       2557       2558       2569       2568  
      2437       2438       2449       2448       2558       2559       2570       2569  
      2438       2439       2450       2449       2559       2560       2571       2570  
      2439       2440       2451       2450       2560       2561       2572       2571  
      2440       2441       2452       2451       2561       2562       2573       2572  
      2441       2442       2453       2452       2562       2563       2574       2573  
      2443       2444       2455       2454       2564       2565       2576       2575  
      2444       2445       2456       2455       2565       2566       2577       2576  
      2445       2446       2457       2456       2566       2567       2578       2577  
      2446       2447       2458       2457       2567       2568       2579       2578  
      2447       2448       2459       2458       2568       2569       2580       2579  
      2448       2449       2460       2459       2569       2570       2581       2580  
      2449       2450       2461       2460       2570       2571       2582       2581  
      2450       2451       2462       2461       2571       2572       2583       2582  
      2451       2452       2463       2462       2572       2573       2584       2583  
      2452       2453       2464       2463       2573       2574       2585       2584  
      2454       2455       2466       2465       2575       2576       2587       2586  
      2455       2456       2467       2466       2576       2577       2588       2587  
      2456       2457       2468       2467       2577       2578       2589       2588  
      2457       2458       2469       2468       2578       2579       2590       2589  
      2458       2459       2470       2469       2579       2580       2591       2590  
      2459       2460       2471       2470       2580       2581       2592       2591  
      2460       2461       2472       2471       2581       2582       2593       2592  
      2461       2462       2473       2472       2582       2583       2594       2593  
      2462       2463       2474       2473       2583       2584       2595       2594  
      2463       2464       2475       2474       2584       2585       2596       2595  
      2465       2466       2477       2476       2586       2587       2598       2597  
      2466       2467       2478       2477       2587       2588       2599       2598  
      2467       2468       2479       2478       2588       2589       2600       2599  
      2468       2469       2480       2479       2589       2590       2601       2600  
      2469       2470       2481       2480       2590       2591       2602       2601  
      2470       2471       2482       2481       2591       2592       2603       2602  
      2471       2472       2483       2482       2592       2593       2604       2603  
      2472       2473       2484       2483       2593       2594       2605       2604  
      2473       2474       2485       2484       2594       2595       2606       2605  
      2474       2475       2486       2485       2595       2596       2607       2606  
      2476       2477       2488       2487       2597       2598       2609       2608  
      2477       2478       2489       2488       2598       2599       2610       2609  
      2478       2479       2490       2489       2599       2600       2611       2610  
      2479       2480       2491       2490       2600       2601       2612       2611  
      2480       2481       2492       2491       2601       2602       2613       2612  
      2481       2482       2493       2492       2602       2603       2614       2613  
      2482       2483       2494       2493       2603       2604       2615       2614  
      2483       2484       2495       2494       2604       2605       2616       2615  
      2484       2485       2496       2495       2605       2606       2617       2616  
      2485       2486       2497       2496       2606       2607       2618       2617  
      2487       2488       2499       2498       2608       2609       2620       2619  
      2488       2489       2500       2499       2609       2610       2621       2620  
      2489       2490       2501       2500       2610       2611       2622       2621  
      2490       2491       2502       2501       2611       2612       2623       2622  
      2491       2492       2503       2502       2612       2613       2624       2623  
      2492       2493       2504       2503       2613       2614       2625       2624  
      2493       2494       2505       2504       2614       2615       2626       2625  
      2494       2495       2506       2505       2615       2616       2627       2626  
      2495       2496       2507       2506       2616       2617       2628       2627  
      2496       2497       2508       2507       2617       2618       2629       2628  
      2498       2499       2510       2509       2619       2620       2631       2630  
      2499       2500       2511       2510       2620       2621       2632       2631  
      2500       2501       2512       2511       2621       2622       2633       2632  
      2501       2502       2513       2512       2622       2623       2634       2633  
      2502       2503       2514       2513       2623       2624       2635       2634  
      2503       2504       2515       2514       2624       2625       2636       2635  
      2504       2505       2516       2515       2625       2626       2637       2636  
      2505       2506       2517       2516       2626       2627       2638       2637  
      2506       2507       2518       2517       2627       2628       2639       2638  
      2507       2508       2519       2518       2628       2629       2640       2639  
      2509       2510       2521       2520       2630       2631       2642       2641  
      2510       2511       2522       2521       2631       2632       2643       2642  
      2511       2512       2523       2522       2632       2633       2644       2643  
      2512       2513       2524       2523       2633       2634       2645       2644  
      2513       2514       2525       2524       2634       2635       2646       2645  
      2514       2515       2526       2525       2635       2636       2647       2646  
      2515       2516       2527       2526       2636       2637       2648       2647  
      2516       2517       2528       2527       2637       2638       2649       2648  
      2517       2518       2529       2528       2638       2639       2650       2649  
      2518       2519       2530       2529       2639       2640       2651       2650  
      2520       2521       2532       2531       2641       2642       2653       2652  
      2521       2522       2533       2532       2642       2643       2654       2653  
      2522       2523       2534       2533       2643       2644       2655       2654  
      2523       2524       2535       2534       2644       2645       2656       2655  
      2524       2525       2536       2535       2645       2646       2657       2656  
      2525       2526       2537       2536       2646       2647       2658       2657  
      2526       2527       2538       2537       2647       2648       2659       2658  
      2527       2528       2539       2538       2648       2649       2660       2659  
      2528       2529       2540       2539       2649       2650       2661       2660  
      2529       2530       2541       2540       2650       2651       2662       2661  
      2542       2543       2554       2553       2663       2664       2675       2674  
      2543       2544       2555       2554       2664       2665       2676       2675  
      2544       2545       2556       2555       2665       2666       2677       2676  
      2545       2546       2557       2556       2666       2667       2678       2677  
      2546       2547       2558       2557       2667       2668       2679       2678  
      2547       2548       2559       2558       2668       2669       2680       2679  
      2548       2549       2560       2559       2669       2670       2681       2680  
      2549       2550       2561       2560       2670       2671       2682       2681  
      2550       2551       2562       2561       2671       2672       2683       2682  
      2551       2552       2563       2562       2672       2673       2684       2683  
      2553       2554       2565       2564       2674       2675       2686       2685  
      2554       2555       2566       2565       2675       2676       2687       2686  
      2555       2556       2567       2566       2676       2677       2688       2687  
      2556       2557       2568       2567       2677       2678       2689       2688  
      2557       2558       2569       2568       2678       2679       2690       2689  
      2558       2559       2570       2569       2679       2680       2691       2690  
      2559       2560       2571       2570       2680       2681       2692       2691  
      2560       2561       2572       2571       2681       2682       2693       2692  
      2561       2562       2573       2572       2682       2683       2694       2693  
      2562       2563       2574       2573       2683       2684       2695       2694  
      2564       2565       2576       2575       2685       2686       2697       2696  
      2565       2566       2577       2576       2686       2687       2698       2697  
      2566       2567       2578       2577       2687       2688       2699       2698  
      2567       2568       2579       2578       2688       2689       2700       2699  
      2568       2569       2580       2579       2689       2690       2701       2700  
      2569       2570       2581       2580       2690       2691       2702       2701  
      2570       2571       2582       2581       2691       2692       2703       2702  
      2571       2572       2583       2582       2692       2693       2704       2703  
      2572       2573       2584       2583       2693       2694       2705       2704  
      2573       2574       2585       2584       2694       2695       2706       2705  
      2575       2576       2587       2586       2696       2697       2708       2707  
      2576       2577       2588       2587       2697       2698       2709       2708  
      2577       2578       2589       2588       2698       2699       2710       2709  
      2578       2579       2590       2589       2699       2700       2711       2710  
      2579       2580       2591       2590       2700       2701       2712       2711  
      2580       2581       2592       2591       2701       2702       2713       2712  
      2581       2582       2593       2592       2702       2703       2714       2713  
      2582       2583       2594       2593       2703       2704       2715       2714  
      2583       2584       2595       2594       2704       2705       2716       2715  
      2584       2585       2596       2595       2705       2706       2717       2716  
      2586       2587       2598       2597       2707       2708       2719       2718  
      2587       2588       2599       2598       2708       2709       2720       2719  
      2588       2589       2600       2599       2709       2710       2721       2720  
      2589       2590       2601       2600       2710       2711       2722       2721  
      2590       2591       2602       2601       2711       2712       2723       2722  
      2591       2592       2603       2602       2712       2713       2724       2723  
      2592       2593       2604       2603       2713       2714       2725       2724  
      2593       2594       2605       2604       2714       2715       2726       2725  
      2594       2595       2606       2605       2715       2716       2727       2726  
      2595       2596       2607       2606       2716       2717       2728       2727  
      2597       2598       2609       2608       2718       2719       2730       2729  
      2598       2599       2610       2609       2719       2720       2731       2730  
      2599       2600       2611       2610       2720       2721       2732       2731  
      2600       2601       2612       2611       2721       2722       2733       2732  
      2601       2602       2613       2612       2722       2723       2734       2733  
      2602       2603       2614       2613       2723       2724       2735       2734  
      2603       2604       2615       2614       2724       2725       2736       2735  
      2604       2605       2616       2615       2725       2726       2737       2736  
      2605       2606       2617       2616       2726       2727       2738       2737  
      2606       2607       2618       2617       2727       2728       2739       2738  
      2608       2609       2620       2619       2729       2730       2741       2740  
      2609       2610       2621       2620       2730       2731       2742       2741  
      2610       2611       2622       2621       2731       2732       2743       2742  
      2611       2612       2623       2622       2732       2733       2744       2743  
      2612       2613       2624       2623       2733       2734       2745       2744  
      2613       2614       2625       2624       2734       2735       2746       2745  
      2614       2615       2626       2625       2735       2736       2747       2746  
      2615       2616       2627       2626       2736       2737       2748       2747  
      2616       2617       2628       2627       2737       2738       2749       2748  
      2617       2618       2629       2628       2738       2739       2750       2749  
      2619       2620       2631       2630       2740       2741       2752       2751  
      2620       2621       2632       2631       2741       2742       2753       2752  
      2621       2622       2633       2632       2742       2743       2754       2753  
      2622       2623       2634       2633       2743       2744       2755       2754  
      2623       2624       2635       2634       2744       2745       2756       2755  
      2624       2625       2636       2635       2745       2746       2757       2756  
      2625       2626       2637       2636       2746       2747       2758       2757  
      2626       2627       2638       2637       2747       2748       2759       2758  
      2627       2628       2639       2638       2748       2749       2760       2759  
      2628       2629       2640       2639       2749       2750       2761       2760  
      2630       2631       2642       2641       2751       2752       2763       2762  
      2631       2632       2643       2642       2752       2753       2764       2763  
      2632       2633       2644       2643       2753       2754       2765       2764  
      2633       2634       2645       2644       2754       2755       2766       2765  
      2634       2635       2646       2645       2755       2756       2767       2766  
      2635       2636       2647       2646       2756       2757       2768       2767  
      2636       2637       2648       2647       2757       2758       2769       2768  
      2637       2638       2649       2648       2758       2759       2770       2769  
      2638       2639       2650       2649       2759       2760       2771       2770  
      2639       2640       2651       2650       2760       2761       2772       2771  
      2641       2642       2653       2652       2762       2763       2774       2773  
      2642       2643       2654       2653       2763       2764       2775       2774  
      2643       2644       2655       2654       2764       2765       2776       2775  
      2644       2645       2656       2655       2765       2766       2777       2776  
      2645       2646       2657       2656       2766       2767       2778       2777  
      2646       2647       2658       2657       2767       2768       2779       2778  
      2647       2648       2659       2658       2768       2769       2780       2779  
      2648       2649       2660       2659       2769       2770       2781       2780  
      2649       2650       2661       2660       2770       2771       2782       2781  
      2650       2651       2662       2661       2771       2772       2783       2782  
      2663       2664       2675       2674       2784       2785       2796       2795  
      2664       2665       2676       2675       2785       2786       2797       2796  
      2665       2666       2677       2676       2786       2787       2798       2797  
      2666       2667       2678       2677       2787       2788       2799       2798  
      2667       2668       2679       2678       2788       2789       2800       2799  
      2668       2669       2680       2679       2789       2790       2801       2800  
      2669       2670       2681       2680       2790       2791       2802       2801  
      2670       2671       2682       2681       2791       2792       2803       2802  
      2671       2672       2683       2682       2792       2793       2804       2803  
      2672       2673       2684       2683       2793       2794       2805       2804  
      2674       2675       2686       2685       2795       2796       2807       2806  
      2675       2676       2687       2686       2796       2797       2808       2807  
      2676       2677       2688       2687       2797       2798       2809       2808  
      2677       2678       2689       2688       2798       2799       2810       2809  
      2678       2679       2690       2689       2799       2800       2811       2810  
      2679       2680       2691       2690       2800       2801       2812       2811  
      2680       2681       2692       2691       2801       2802       2813       2812  
      2681       2682       2693       2692       2802       2803       2814       2813  
      2682       2683       2694       2693       2803       2804       2815       2814  
      2683       2684       2695       2694       2804       2805       2816       2815  
      2685       2686       2697       2696       2806       2807       2818       2817  
      2686       2687       2698       2697       2807       2808       2819       2818  
      2687       2688       2699       2698       2808       2809       2820       2819  
      2688       2689       2700       2699       2809       2810       2821       2820  
      2689       2690       2701       2700       2810       2811       2822       2821  
      2690       2691       2702       2701       2811       2812       2823       2822  
      2691       2692       2703       2702       2812       2813       2824       2823  
      2692       2693       2704       2703       2813       2814       2825       2824  
      2693       2694       2705       2704       2814       2815       2826       2825  
      2694       2695       2706       2705       2815       2816       2827       2826  
      2696       2697       2708       2707       2817       2818       2829       2828  
      2697       2698       2709       2708       2818       2819       2830       2829  
      2698       2699       2710       2709       2819       2820       2831       2830  
      2699       2700       2711       2710       2820       2821       2832       2831  
      2700       2701       2712       2711       2821       2822       2833       2832  
      2701       2702       2713       2712       2822       2823       2834       2833  
      2702       2703       2714       2713       2823       2824       2835       2834  
      2703       2704       2715       2714       2824       2825       2836       2835  
      2704       2705       2716       2715       2825       2826       2837       2836  
      2705       2706       2717       2716       2826       2827       2838       2837  
      2707       2708       2719       2718       2828       2829       2840       2839  
      2708       2709       2720       2719       2829       2830       2841       2840  
      2709       2710       2721       2720       2830       2831       2842       2841  
      2710       2711       2722       2721       2831       2832       2843       2842  
      2711       2712       2723       2722       2832       2833       2844       2843  
      2712       2713       2724       2723       2833       2834       2845       2844  
      2713       2714       2725       2724       2834       2835       2846       2845  
      2714       2715       2726       2725       2835       2836       2847       2846  
      2715       2716       2727       2726       2836       2837       2848       2847  
      2716       2717       2728       2727       2837       2838       2849       2848  
      2718       2719       2730       2729       2839       2840       2851       2850  
      2719       2720       2731       2730       2840       2841       2852       2851  
      2720       2721       2732       2731       2841       2842       2853       2852  
      2721       2722       2733       2732       2842       2843       2854       2853  
      2722       2723       2734       2733       2843       2844       2855       2854  
      2723       2724       2735       2734       2844       2845       2856       2855  
      2724       2725       2736       2735       2845       2846       2857       2856  
      2725       2726       2737       2736       2846       2847       2858       2857  
      2726       2727       2738       2737       2847       2848       2859       2858  
      2727       2728       2739       2738       2848       2849       2860       2859  
      2729       2730       2741       2740       2850       2851       2862       2861  
      2730       2731       2742       2741       2851       2852       2863       2862  
      2731       2732       2743       2742       2852       2853       2864       2863  
      2732       2733       2744       2743       2853       2854       2865       2864  
      2733       2734       2745       2744       2854       2855       2866       2865  
      2734       2735       2746       2745       2855       2856       2867       2866  
      2735       2736       2747       2746       2856       2857       2868       2867  
      2736       2737       2748       2747       2857       2858       2869       2868  
      2737       2738       2749       2748       2858       2859       2870       2869  
      2738       2739       2750       2749       2859       2860       2871       2870  
      2740       2741       2752       2751       2861       2862       2873       2872  
      2741       2742       2753       2752       2862       2863       2874       2873  
      2742       2743       2754       2753       2863       2864       2875       2874  
      2743       2744       2755       2754       2864       2865       2876       2875  
      2744       2745       2756       2755       2865       2866       2877       2876  
      2745       2746       2757       2756       2866       2867       2878       2877  
      2746       2747       2758       2757       2867       2868       2879       2878  
      2747       2748       2759       2758       2868       2869       2880       2879  
      2748       2749       2760       2759       2869       2870       2881       2880  
      2749       2750       2761       2760       2870       2871       2882       2881  
      2751       2752       2763       2762       2872       2873       2884       2883  
      2752       2753       2764       2763       2873       2874       2885       2884  
      2753       2754       2765       2764       2874       2875       2886       2885  
      2754       2755       2766       2765       2875       2876       2887       2886  
      2755       2756       2767       2766       2876       2877       2888       2887  
      2756       2757       2768       2767       2877       2878       2889       2888  
      2757       2758       2769       2768       2878       2879       2890       2889  
      2758       2759       2770       2769       2879       2880       2891       2890  
      2759       2760       2771       2770       2880       2881       2892       2891  
      2760       2761       2772       2771       2881       2882       2893       2892  
      2762       2763       2774       2773       2883       2884       2895       2894  
      2763       2764       2775       2774       2884       2885       2896       2895  
      2764       2765       2776       2775       2885       2886       2897       2896  
      2765       2766       2777       2776       2886       2887       2898       2897  
      2766       2767       2778       2777       2887       2888       2899       2898  
      2767       2768       2779       2778       2888       2889       2900       2899  
      2768       2769       2780       2779       2889       2890       2901       2900  
      2769       2770       2781       2780       2890       2891       2902       2901  
      2770       2771       2782       2781       2891       2892       2903       2902  
      2771       2772       2783       2782       2892       2893       2904       2903  
      2784       2785       2796       2795       2905       2906       2917       2916  
      2785       2786       2797       2796       2906       2907       2918       2917  
      2786       2787       2798       2797       2907       2908       2919       2918  
      2787       2788       2799       2798       2908       2909       2920       2919  
      2788       2789       2800       2799       2909       2910       2921       2920  
      2789       2790       2801       2800       2910       2911       2922       2921  
      2790       2791       2802       2801       2911       2912       2923       2922  
      2791       2792       2803       2802       2912       2913       2924       2923  
      2792       2793       2804       2803       2913       2914       2925       2924  
      2793       2794       2805       2804       2914       2915       2926       2925  
      2795       2796       2807       2806       2916       2917       2928       2927  
      2796       2797       2808       2807       2917       2918       2929       2928  
      2797       2798       2809       2808       2918       2919       2930       2929  
      2798       2799       2810       2809       2919       2920       2931       2930  
      2799       2800       2811       2810       2920       2921       2932       2931  
      2800       2801       2812       2811       2921       2922       2933       2932  
      2801       2802       2813       2812       2922       2923       2934       2933  
      2802       2803       2814       2813       2923       2924       2935       2934  
      2803       2804       2815       2814       2924       2925       2936       2935  
      2804       2805       2816       2815       2925       2926       2937       2936  
      2806       2807       2818       2817       2927       2928       2939       2938  
      2807       2808       2819       2818       2928       2929       2940       2939  
      2808       2809       2820       2819       2929       2930       2941       2940  
      2809       2810       2821       2820       2930       2931       2942       2941  
      2810       2811       2822       2821       2931       2932       2943       2942  
      2811       2812       2823       2822       2932       2933       2944       2943  
      2812       2813       2824       2823       2933       2934       2945       2944  
      2813       2814       2825       2824       2934       2935       2946       2945  
      2814       2815       2826       2825       2935       2936       2947       2946  
      2815       2816       2827       2826       2936       2937       2948       2947  
      2817       2818       2829       2828       2938       2939       2950       2949  
      2818       2819       2830       2829       2939       2940       2951       2950  
      2819       2820       2831       2830       2940       2941       2952       2951  
      2820       2821       2832       2831       2941       2942       2953       2952  
      2821       2822       2833       2832       2942       2943       2954       2953  
      2822       2823       2834       2833       2943       2944       2955       2954  
      2823       2824       2835       2834       2944       2945       2956       2955  
      2824       2825       2836       2835       2945       2946       2957       2956  
      2825       2826       2837       2836       2946       2947       2958       2957  
      2826       2827       2838       2837       2947       2948       2959       2958  
      2828       2829       2840       2839       2949       2950       2961       2960  
      2829       2830       2841       2840       2950       2951       2962       2961  
      2830       2831       2842       2841       2951       2952       2963       2962  
      2831       2832       2843       2842       2952       2953       2964       2963  
      2832       2833       2844       2843       2953       2954       2965       2964  
      2833       2834       2845       2844       2954       2955       2966       2965  
      2834       2835       2846       2845       2955       2956       2967       2966  
      2835       2836       2847       2846       2956       2957       2968       2967  
      2836       2837       2848       2847       2957       2958       2969       2968  
      2837       2838       2849       2848       2958       2959       2970       2969  
      2839       2840       2851       2850       2960       2961       2972       2971  
      2840       2841       2852       2851       2961       2962       2973       2972  
      2841       2842       2853       2852       2962       2963       2974       2973  
      2842       2843       2854       2853       2963       2964       2975       2974  
      2843       2844       2855       2854       2964       2965       2976       2975  
      2844       2845       2856       2855       2965       2966       2977       2976  
      2845       2846       2857       2856       2966       2967       2978       2977  
      2846       2847       2858       2857       2967       2968       2979       2978  
      2847       2848       2859       2858       2968       2969       2980       2979  
      2848       2849       2860       2859       2969       2970       2981       2980  
      2850       2851       2862       2861       2971       2972       2983       2982  
      2851       2852       2863       2862       2972       2973       2984       2983  
      2852       2853       2864       2863       2973       2974       2985       2984  
      2853       2854       2865       2864       2974       2975       2986       2985  
      2854       2855       2866       2865       2975       2976       2987       2986  
      2855       2856       2867       2866       2976       2977       2988       2987  
      2856       2857       2868       2867       2977       2978       2989       2988  
      2857       2858       2869       2868       2978       2979       2990       2989  
      2858       2859       2870       2869       2979       2980       2991       2990  
      2859       2860       2871       2870       2980       2981       2992       2991  
      2861       2862       2873       2872       2982       2983       2994       2993  
      2862       2863       2874       2873       2983       2984       2995       2994  
      2863       2864       2875       2874       2984       2985       2996       2995  
      2864       2865       2876       2875       2985       2986       2997       2996  
      2865       2866       2877       2876       2986       2987       2998       2997  
      2866       2867       2878       2877       2987       2988       2999       2998  
      2867       2868       2879       2878       2988       2989       3000       2999  
      2868       2869       2880       2879       2989       2990       3001       3000  
      2869       2870       2881       2880       2990       2991       3002       3001  
      2870       2871       2882       2881       2991       2992       3003       3002  
      2872       2873       2884       2883       2993       2994       3005       3004  
      2873       2874       2885       2884       2994       2995       3006       3005  
      2874       2875       2886       2885       2995       2996       3007       3006  
      2875       2876       2887       2886       2996       2997       3008       3007  
      2876       2877       2888       2887       2997       2998       3009       3008  
      2877       2878       2889       2888       2998       2999       3010       3009  
      2878       2879       2890       2889       2999       3000       3011       3010  
      2879       2880       2891       2890       3000       3001       3012       3011  
      2880       2881       2892       2891       3001       3002       3013       3012  
      2881       2882       2893       2892       3002       3003       3014       3013  
      2883       2884       2895       2894       3004       3005       3016       3015  
      2884       2885       2896       2895       3005       3006       3017       3016  
      2885       2886       2897       2896       3006       3007       3018       3017  
      2886       2887       2898       2897       3007       3008       3019       3018  
      2887       2888       2899       2898       3008       3009       3020       3019  
      2888       2889       2900       2899       3009       3010       3021       3020  
      2889       2890       2901       2900       3010       3011       3022       3021  
      2890       2891       2902       2901       3011       3012       3023       3022  
      2891       2892       2903       2902       3012       3013       3024       3023  
      2892       2893       2904       2903       3013       3014       3025       3024  
      2905       2906       2917       2916       3026       3027       3038       3037  
      2906       2907       2918       2917       3027       3028       3039       3038  
      2907       2908       2919       2918       3028       3029       3040       3039  
      2908       2909       2920       2919       3029       3030       3041       3040  
      2909       2910       2921       2920       3030       3031       3042       3041  
      2910       2911       2922       2921       3031       3032       3043       3042  
      2911       2912       2923       2922       3032       3033       3044       3043  
      2912       2913       2924       2923       3033       3034       3045       3044  
      2913       2914       2925       2924       3034       3035       3046       3045  
      2914       2915       2926       2925       3035       3036       3047       3046  
      2916       2917       2928       2927       3037       3038       3049       3048  
      2917       2918       2929       2928       3038       3039       3050       3049  
      2918       2919       2930       2929       3039       3040       3051       3050  
      2919       2920       2931       2930       3040       3041       3052       3051  
      2920       2921       2932       2931       3041       3042       3053       3052  
      2921       2922       2933       2932       3042       3043       3054       3053  
      2922       2923       2934       2933       3043       3044       3055       3054  
      2923       2924       2935       2934       3044       3045       3056       3055  
      2924       2925       2936       2935       3045       3046       3057       3056  
      2925       2926       2937       2936       3046       3047       3058       3057  
      2927       2928       2939       2938       3048       3049       3060       3059  
      2928       2929       2940       2939       3049       3050       3061       3060  
      2929       2930       2941       2940       3050       3051       3062       3061  
      2930       2931       2942       2941       3051       3052       3063       3062  
      2931       2932       2943       2942       3052       3053       3064       3063  
      2932       2933       2944       2943       3053       3054       3065       3064  
      2933       2934       2945       2944       3054       3055       3066       3065  
      2934       2935       2946       2945       3055       3056       3067       3066  
      2935       2936       2947       2946       3056       3057       3068       3067  
      2936       2937       2948       2947       3057       3058       3069       3068  
      2938       2939       2950       2949       3059       3060       3071       3070  
      2939       2940       2951       2950       3060       3061       3072       3071  
      2940       2941       2952       2951       3061       3062       3073       3072  
      2941       2942       2953       2952       3062       3063       3074       3073  
      2942       2943       2954       2953       3063       3064       3075       3074  
      2943       2944       2955       2954       3064       3065       3076       3075  
      2944       2945       2956       2955       3065       3066       3077       3076  
      2945       2946       2957       2956       3066       3067       3078       3077  
      2946       2947       2958       2957       3067       3068       3079       3078  
      2947       2948       2959       2958       3068       3069       3080       3079  
      2949       2950       2961       2960       3070       3071       3082       3081  
      2950       2951       2962       2961       3071       3072       3083       3082  
      2951       2952       2963       2962       3072       3073       3084       3083  
      2952       2953       2964       2963       3073       3074       3085       3084  
      2953       2954       2965       2964       3074       3075       3086       3085  
      2954       2955       2966       2965       3075       3076       3087       3086  
      2955       2956       2967       2966       3076       3077       3088       3087  
      2956       2957       2968       2967       3077       3078       3089       3088  
      2957       2958       2969       2968       3078       3079       3090       3089  
      2958       2959       2970       2969       3079       3080       3091       3090  
      2960       2961       2972       2971       3081       3082       3093       3092  
      2961       2962       2973       2972       3082       3083       3094       3093  
      2962       2963       2974       2973       3083       3084       3095       3094  
      2963       2964       2975       2974       3084       3085       3096       3095  
      2964       2965       2976       2975       3085       3086       3097       3096  
      2965       2966       2977       2976       3086       3087       3098       3097  
      2966       2967       2978       2977       3087       3088       3099       3098  
      2967       2968       2979       2978       3088       3089       3100       3099  
      2968       2969       2980       2979       3089       3090       3101       3100  
      2969       2970       2981       2980       3090       3091       3102       3101  
      2971       2972       2983       2982       3092       3093       3104       3103  
      2972       2973       2984       2983       3093       3094       3105       3104  
      2973       2974       2985       2984       3094       3095       3106       3105  
      2974       2975       2986       2985       3095       3096       3107       3106  
      2975       2976       2987       2986       3096       3097       3108       3107  
      2976       2977       2988       2987       3097       3098       3109       3108  
      2977       2978       2989       2988       3098       3099       3110       3109  
      2978       2979       2990       2989       3099       3100       3111       3110  
      2979       2980       2991       2990       3100       3101       3112       3111  
      2980       2981       2992       2991       3101       3102       3113       3112  
      2982       2983       2994       2993       3103       3104       3115       3114  
      2983       2984       2995       2994       3104       3105       3116       3115  
      2984       2985       2996       2995       3105       3106       3117       3116  
      2985       2986       2997       2996       3106       3107       3118       3117  
      2986       2987       2998       2997       3107       3108       3119       3118  
      2987       2988       2999       2998       3108       3109       3120       3119  
      2988       2989       3000       2999       3109       3110       3121       3120  
      2989       2990       3001       3000       3110       3111       3122       3121  
      2990       2991       3002       3001       3111       3112       3123       3122  
      2991       2992       3003       3002       3112       3113       3124       3123  
      2993       2994       3005       3004       3114       3115       3126       3125  
      2994       2995       3006       3005       3115       3116       3127       3126  
      2995       2996       3007       3006       3116       3117       3128       3127  
      2996       2997       3008       3007       3117       3118       3129       3128  
      2997       2998       3009       3008       3118       3119       3130       3129  
      2998       2999       3010       3009       3119       3120       3131       3130  
      2999       3000       3011       3010       3120       3121       3132       3131  
      3000       3001       3012       3011       3121       3122       3133       3132  
      3001       3002       3013       3012       3122       3123       3134       3133  
      3002       3003       3014       3013       3123       3124       3135       3134  
      3004       3005       3016       3015       3125       3126       3137       3136  
      3005       3006       3017       3016       3126       3127       3138       3137  
      3006       3007       3018       3017       3127       3128       3139       3138  
      3007       3008       3019       3018       3128       3129       3140       3139  
      3008       3009       3020       3019       3129       3130       3141       3140  
      3009       3010       3021       3020       3130       3131       3142       3141  
      3010       3011       3022       3021       3131       3132       3143       3142  
      3011       3012       3023       3022       3132       3133       3144       3143  
      3012       3013       3024       3023       3133       3134       3145       3144  
      3013       3014       3025       3024       3134       3135       3146       3145  
      3026       3027       3038       3037       3147       3148       3159       3158  
      3027       3028       3039       3038       3148       3149       3160       3159  
      3028       3029       3040       3039       3149       3150       3161       3160  
      3029       3030       3041       3040       3150       3151       3162       3161  
      3030       3031       3042       3041       3151       3152       3163       3162  
      3031       3032       3043       3042       3152       3153       3164       3163  
      3032       3033       3044       3043       3153       3154       3165       3164  
      3033       3034       3045       3044       3154       3155       3166       3165  
      3034       3035       3046       3045       3155       3156       3167       3166  
      3035       3036       3047       3046       3156       3157       3168       3167  
      3037       3038       3049       3048       3158       3159       3170       3169  
      3038       3039       3050       3049       3159       3160       3171       3170  
      3039       3040       3051       3050       3160       3161       3172       3171  
      3040       3041       3052       3051       3161       3162       3173       3172  
      3041       3042       3053       3052       3162       3163       3174       3173  
      3042       3043       3054       3053       3163       3164       3175       3174  
      3043       3044       3055       3054       3164       3165       3176       3175  
      3044       3045       3056       3055       3165       3166       3177       3176  
      3045       3046       3057       3056       3166       3167       3178       3177  
      3046       3047       3058       3057       3167       3168       3179       3178  
      3048       3049       3060       3059       3169       3170       3181       3180  
      3049       3050       3061       3060       3170       3171       3182       3181  
      3050       3051       3062       3061       3171       3172       3183       3182  
      3051       3052       3063       3062       3172       3173       3184       3183  
      3052       3053       3064       3063       3173       3174       3185       3184  
      3053       3054       3065       3064       3174       3175       3186       3185  
      3054       3055       3066       3065       3175       3176       3187       3186  
      3055       3056       3067       3066       3176       3177       3188       3187  
      3056       3057       3068       3067       3177       3178       3189       3188  
      3057       3058       3069       3068       3178       3179       3190       3189  
      3059       3060       3071       3070       3180       3181       3192       3191  
      3060       3061       3072       3071       3181       3182       3193       3192  
      3061       3062       3073       3072       3182       3183       3194       3193  
      3062       3063       3074       3073       3183       3184       3195       3194  
      3063       3064       3075       3074       3184       3185       3196       3195  
      3064       3065       3076       3075       3185       3186       3197       3196  
      3065       3066       3077       3076       3186       3187       3198       3197  
      3066       3067       3078       3077       3187       3188       3199       3198  
      3067       3068       3079       3078       3188       3189       3200       3199  
      3068       3069       3080       3079       3189       3190       3201       3200  
      3070       3071       3082       3081       3191       3192       3203       3202  
      3071       3072       3083       3082       3192       3193       3204       3203  
      3072       3073       3084       3083       3193       3194       3205       3204  
      3073       3074       3085       3084       3194       3195       3206       3205  
      3074       3075       3086       3085       3195       3196       3207       3206  
      3075       3076       3087       3086       3196       3197       3208       3207  
      3076       3077       3088       3087       3197       3198       3209       3208  
      3077       3078       3089       3088       3198       3199       3210       3209  
      3078       3079       3090       3089       3199       3200       3211       3210  
      3079       3080       3091       3090       3200       3201       3212       3211  
      3081       3082       3093       3092       3202       3203       3214       3213  
      3082       3083       3094       3093       3203       3204       3215       3214  
      3083       3084       3095       3094       3204       3205       3216       3215  
      3084       3085       3096       3095       3205       3206       3217       3216  
      3085       3086       3097       3096       3206       3207       3218       3217  
      3086       3087       3098       3097       3207       3208       3219       3218  
      3087       3088       3099       3098       3208       3209       3220       3219  
      3088       3089       3100       3099       3209       3210       3221       3220  
      3089       3090       3101       3100       3210       3211       3222       3221  
      3090       3091       3102       3101       3211       3212       3223       3222  
      3092       3093       3104       3103       3213       3214       3225       3224  
      3093       3094       3105       3104       3214       3215       3226       3225  
      3094       3095       3106       3105       3215       3216       3227       3226  
      3095       3096       3107       3106       3216       3217       3228       3227  
      3096       3097       3108       3107       3217       3218       3229       3228  
      3097       3098       3109       3108       3218       3219       3230       3229  
      3098       3099       3110       3109       3219       3220       3231       3230  
      3099       3100       3111       3110       3220       3221       3232       3231  
      3100       3101       3112       3111       3221       3222       3233       3232  
      3101       3102       3113       3112       3222       3223       3234       3233  
      3103       3104       3115       3114       3224       3225       3236       3235  
      3104       3105       3116       3115       3225       3226       3237       3236  
      3105       3106       3117       3116       3226       3227       3238       3237  
      3106       3107       3118       3117       3227       3228       3239       3238  
      3107       3108       3119       3118       3228       3229       3240       3239  
      3108       3109       3120       3119       3229       3230       3241       3240  
      3109       3110       3121       3120       3230       3231       3242       3241  
      3110       3111       3122       3121       3231       3232       3243       3242  
      3111       3112       3123       3122       3232       3233       3244       3243  
      3112       3113       3124       3123       3233       3234       3245       3244  
      3114       3115       3126       3125       3235       3236       3247       3246  
      3115       3116       3127       3126       3236       3237       3248       3247  
      3116       3117       3128       3127       3237       3238       3249       3248  
      3117       3118       3129       3128       3238       3239       3250       3249  
      3118       3119       3130       3129       3239       3240       3251       3250  
      3119       3120       3131       3130       3240       3241       3252       3251  
      3120       3121       3132       3131       3241       3242       3253       3252  
      3121       3122       3133       3132       3242       3243       3254       3253  
      3122       3123       3134       3133       3243       3244       3255       3254  
      3123       3124       3135       3134       3244       3245       3256       3255  
      3125       3126       3137       3136       3246       3247       3258       3257  
      3126       3127       3138       3137       3247       3248       3259       3258  
      3127       3128       3139       3138       3248       3249       3260       3259  
      3128       3129       3140       3139       3249       3250       3261       3260  
      3129       3130       3141       3140       3250       3251       3262       3261  
      3130       3131       3142       3141       3251       3252       3263       3262  
      3131       3132       3143       3142       3252       3253       3264       3263  
      3132       3133       3144       3143       3253       3254       3265       3264  
      3133       3134       3145       3144       3254       3255       3266       3265  
      3134       3135       3146       3145       3255       3256       3267       3266  
      3147       3148       3159       3158       3268       3269       3280       3279  
      3148       3149       3160       3159       3269       3270       3281       3280  
      3149       3150       3161       3160       3270       3271       3282       3281  
      3150       3151       3162       3161       3271       3272       3283       3282  
      3151       3152       3163       3162       3272       3273       3284       3283  
      3152       3153       3164       3163       3273       3274       3285       3284  
      3153       3154       3165       3164       3274       3275       3286       3285  
      3154       3155       3166       3165       3275       3276       3287       3286  
      3155       3156       3167       3166       3276       3277       3288       3287  
      3156       3157       3168       3167       3277       3278       3289       3288  
      3158       3159       3170       3169       3279       3280       3291       3290  
      3159       3160       3171       3170       3280       3281       3292       3291  
      3160       3161       3172       3171       3281       3282       3293       3292  
      3161       3162       3173       3172       3282       3283       3294       3293  
      3162       3163       3174       3173       3283       3284       3295       3294  
      3163       3164       3175       3174       3284       3285       3296       3295  
      3164       3165       3176       3175       3285       3286       3297       3296  
      3165       3166       3177       3176       3286       3287       3298       3297  
      3166       3167       3178       3177       3287       3288       3299       3298  
      3167       3168       3179       3178       3288       3289       3300       3299  
      3169       3170       3181       3180       3290       3291       3302       3301  
      3170       3171       3182       3181       3291       3292       3303       3302  
      3171       3172       3183       3182       3292       3293       3304       3303  
      3172       3173       3184       3183       3293       3294       3305       3304  
      3173       3174       3185       3184       3294       3295       3306       3305  
      3174       3175       3186       3185       3295       3296       3307       3306  
      3175       3176       3187       3186       3296       3297       3308       3307  
      3176       3177       3188       3187       3297       3298       3309       3308  
      3177       3178       3189       3188       3298       3299       3310       3309  
      3178       3179       3190       3189       3299       3300       3311       3310  
      3180       3181       3192       3191       3301       3302       3313       3312  
      3181       3182       3193       3192       3302       3303       3314       3313  
      3182       3183       3194       3193       3303       3304       3315       3314  
      3183       3184       3195       3194       3304       3305       3316       3315  
      3184       3185       3196       3195       3305       3306       3317       3316  
      3185       3186       3197       3196       3306       3307       3318       3317  
      3186       3187       3198       3197       3307       3308       3319       3318  
      3187       3188       3199       3198       3308       3309       3320       3319  
      3188       3189       3200       3199       3309       3310       3321       3320  
      3189       3190       3201       3200       3310       3311       3322       3321  
      3191       3192       3203       3202       3312       3313       3324       3323  
      3192       3193       3204       3203       3313       3314       3325       3324  
      3193       3194       3205       3204       3314       3315       3326       3325  
      3194       3195       3206       3205       3315       3316       3327       3326  
      3195       3196       3207       3206       3316       3317       3328       3327  
      3196       3197       3208       3207       3317       3318       3329       3328  
      3197       3198       3209       3208       3318       3319       3330       3329  
      3198       3199       3210       3209       3319       3320       3331       3330  
      3199       3200       3211       3210       3320       3321       3332       3331  
      3200       3201       3212       3211       3321       3322       3333       3332  
      3202       3203       3214       3213       3323       3324       3335       3334  
      3203       3204       3215       3214       3324       3325       3336       3335  
      3204       3205       3216       3215       3325       3326       3337       3336  
      3205       3206       3217       3216       3326       3327       3338       3337  
      3206       3207       3218       3217       3327       3328       3339       3338  
      3207       3208       3219       3218       3328       3329       3340       3339  
      3208       3209       3220       3219       3329       3330       3341       3340  
      3209       3210       3221       3220       3330       3331       3342       3341  
      3210       3211       3222       3221       3331       3332       3343       3342  
      3211       3212       3223       3222       3332       3333       3344       3343  
      3213       3214       3225       3224       3334       3335       3346       3345  
      3214       3215       3226       3225       3335       3336       3347       3346  
      3215       3216       3227       3226       3336       3337       3348       3347  
      3216       3217       3228       3227       3337       3338       3349       3348  
      3217       3218       3229       3228       3338       3339       3350       3349  
      3218       3219       3230       3229       3339       3340       3351       3350  
      3219       3220       3231       3230       3340       3341       3352       3351  
      3220       3221       3232       3231       3341       3342       3353       3352  
      3221       3222       3233       3232       3342       3343       3354       3353  
      3222       3223       3234       3233       3343       3344       3355       3354  
      3224       3225       3236       3235       3345       3346       3357       3356  
      3225       3226       3237       3236       3346       3347       3358       3357  
      3226       3227       3238       3237       3347       3348       3359       3358  
      3227       3228       3239       3238       3348       3349       3360       3359  
      3228       3229       3240       3239       3349       3350       3361       3360  
      3229       3230       3241       3240       3350       3351       3362       3361  
      3230       3231       3242       3241       3351       3352       3363       3362  
      3231       3232       3243       3242       3352       3353       3364       3363  
      3232       3233       3244       3243       3353       3354       3365       3364  
      3233       3234       3245       3244       3354       3355       3366       3365  
      3235       3236       3247       3246       3356       3357       3368       3367  
      3236       3237       3248       3247       3357       3358       3369       3368  
      3237       3238       3249       3248       3358       3359       3370       3369  
      3238       3239       3250       3249       3359       3360       3371       3370  
      3239       3240       3251       3250       3360       3361       3372       3371  
      3240       3241       3252       3251       3361       3362       3373       3372  
      3241       3242       3253       3252       3362       3363       3374       3373  
      3242       3243       3254       3253       3363       3364       3375       3374  
      3243       3244       3255       3254       3364       3365       3376       3375  
      3244       3245       3256       3255       3365       3366       3377       3376  
      3246       3247       3258       3257       3367       3368       3379       3378  
      3247       3248       3259       3258       3368       3369       3380       3379  
      3248       3249       3260       3259       3369       3370       3381       3380  
      3249       3250       3261       3260       3370       3371       3382       3381  
      3250       3251       3262       3261       3371       3372       3383       3382  
      3251       3252       3263       3262       3372       3373       3384       3383  
      3252       3253       3264       3263       3373       3374       3385       3384  
      3253       3254       3265       3264       3374       3375       3386       3385  
      3254       3255       3266       3265       3375       3376       3387       3386  
      3255       3256       3267       3266       3376       3377       3388       3387  
      3268       3269       3280       3279       3389       3390       3401       3400  
      3269       3270       3281       3280       3390       3391       3402       3401  
      3270       3271       3282       3281       3391       3392       3403       3402  
      3271       3272       3283       3282       3392       3393       3404       3403  
      3272       3273       3284       3283       3393       3394       3405       3404  
      3273       3274       3285       3284       3394       3395       3406       3405  
      3274       3275       3286       3285       3395       3396       3407       3406  
      3275       3276       3287       3286       3396       3397       3408       3407  
      3276       3277       3288       3287       3397       3398       3409       3408  
      3277       3278       3289       3288       3398       3399       3410       3409  
      3279       3280       3291       3290       3400       3401       3412       3411  
      3280       3281       3292       3291       3401       3402       3413       3412  
      3281       3282       3293       3292       3402       3403       3414       3413  
      3282       3283       3294       3293       3403       3404       3415       3414  
      3283       3284       3295       3294       3404       3405       3416       3415  
      3284       3285       3296       3295       3405       3406       3417       3416  
      3285       3286       3297       3296       3406       3407       3418       3417  
      3286       3287       3298       3297       3407       3408       3419       3418  
      3287       3288       3299       3298       3408       3409       3420       3419  
      3288       3289       3300       3299       3409       3410       3421       3420  
      3290       3291       3302       3301       3411       3412       3423       3422  
      3291       3292       3303       3302       3412       3413       3424       3423  
      3292       3293       3304       3303       3413       3414       3425       3424  
      3293       3294       3305       3304       3414       3415       3426       3425  
      3294       3295       3306       3305       3415       3416       3427       3426  
      3295       3296       3307       3306       3416       3417       3428       3427  
      3296       3297       3308       3307       3417       3418       3429       3428  
      3297       3298       3309       3308       3418       3419       3430       3429  
      3298       3299       3310       3309       3419       3420       3431       3430  
      3299       3300       3311       3310       3420       3421       3432       3431  
      3301       3302       3313       3312       3422       3423       3434       3433  
      3302       3303       3314       3313       3423       3424       3435       3434  
      3303       3304       3315       3314       3424       3425       3436       3435  
      3304       3305       3316       3315       3425       3426       3437       3436  
      3305       3306       3317       3316       3426       3427       3438       3437  
      3306       3307       3318       3317       3427       3428       3439       3438  
      3307       3308       3319       3318       3428       3429       3440       3439  
      3308       3309       3320       3319       3429       3430       3441       3440  
      3309       3310       3321       3320       3430       3431       3442       3441  
      3310       3311       3322       3321       3431       3432       3443       3442  
      3312       3313       3324       3323       3433       3434       3445       3444  
      3313       3314       3325       3324       3434       3435       3446       3445  
      3314       3315       3326       3325       3435       3436       3447       3446  
      3315       3316       3327       3326       3436       3437       3448       3447  
      3316       3317       3328       3327       3437       3438       3449       3448  
      3317       3318       3329       3328       3438       3439       3450       3449  
      3318       3319       3330       3329       3439       3440       3451       3450  
      3319       3320       3331       3330       3440       3441       3452       3451  
      3320       3321       3332       3331       3441       3442       3453       3452  
      3321       3322       3333       3332       3442       3443       3454       3453  
      3323       3324       3335       3334       3444       3445       3456       3455  
      3324       3325       3336       3335       3445       3446       3457       3456  
      3325       3326       3337       3336       3446       3447       3458       3457  
      3326       3327       3338       3337       3447       3448       3459       3458  
      3327       3328       3339       3338       3448       3449       3460       3459  
      3328       3329       3340       3339       3449       3450       3461       3460  
      3329       3330       3341       3340       3450       3451       3462       3461  
      3330       3331       3342       3341       3451       3452       3463       3462  
      3331       3332       3343       3342       3452       3453       3464       3463  
      3332       3333       3344       3343       3453       3454       3465       3464  
      3334       3335       3346       3345       3455       3456       3467       3466  
      3335       3336       3347       3346       3456       3457       3468       3467  
      3336       3337       3348       3347       3457       3458       3469       3468  
      3337       3338       3349       3348       3458       3459       3470       3469  
      3338       3339       3350       3349       3459       3460       3471       3470  
      3339       3340       3351       3350       3460       3461       3472       3471  
      3340       3341       3352       3351       3461       3462       3473       3472  
      3341       3342       3353       3352       3462       3463       3474       3473  
      3342       3343       3354       3353       3463       3464       3475       3474  
      3343       3344       3355       3354       3464       3465       3476       3475  
      3345       3346       3357       3356       3466       3467       3478       3477  
      3346       3347       3358       3357       3467       3468       3479       3478  
      3347       3348       3359       3358       3468       3469       3480       3479  
      3348       3349       3360       3359       3469       3470       3481       3480  
      3349       3350       3361       3360       3470       3471       3482       3481  
      3350       3351       3362       3361       3471       3472       3483       3482  
      3351       3352       3363       3362       3472       3473       3484       3483  
      3352       3353       3364       3363       3473       3474       3485       3484  
      3353       3354       3365       3364       3474       3475       3486       3485  
      3354       3355       3366       3365       3475       3476       3487       3486  
      3356       3357       3368       3367       3477       3478       3489       3488  
      3357       3358       3369       3368       3478       3479       3490       3489  
      3358       3359       3370       3369       3479       3480       3491       3490  
      3359       3360       3371       3370       3480       3481       3492       3491  
      3360       3361       3372       3371       3481       3482       3493       3492  
      3361       3362       3373       3372       3482       3483       3494       3493  
      3362       3363       3374       3373       3483       3484       3495       3494  
      3363       3364       3375       3374       3484       3485       3496       3495  
      3364       3365       3376       3375       3485       3486       3497       3496  
      3365       3366       3377       3376       3486       3487       3498       3497  
      3367       3368       3379       3378       3488       3489       3500       3499  
      3368       3369       3380       3379       3489       3490       3501       3500  
      3369       3370       3381       3380       3490       3491       3502       3501  
      3370       3371       3382       3381       3491       3492       3503       3502  
      3371       3372       3383       3382       3492       3493       3504       3503  
      3372       3373       3384       3383       3493       3494       3505       3504  
      3373       3374       3385       3384       3494       3495       3506       3505  
      3374       3375       3386       3385       3495       3496       3507       3506  
      3375       3376       3387       3386       3496       3497       3508       3507  
      3376       3377       3388       3387       3497       3498       3509       3508  
      3389       3390       3401       3400       3510       3511       3522       3521  
      3390       3391       3402       3401       3511       3512       3523       3522  
      3391       3392       3403       3402       3512       3513       3524       3523  
      3392       3393       3404       3403       3513       3514       3525       3524  
      3393       3394       3405       3404       3514       3515       3526       3525  
      3394       3395       3406       3405       3515       3516       3527       3526  
      3395       3396       3407       3406       3516       3517       3528       3527  
      3396       3397       3408       3407       3517       3518       3529       3528  
      3397       3398       3409       3408       3518       3519       3530       3529  
      3398       3399       3410       3409       3519       3520       3531       3530  
      3400       3401       3412       3411       3521       3522       3533       3532  
      3401       3402       3413       3412       3522       3523       3534       3533  
      3402       3403       3414       3413       3523       3524       3535       3534  
      3403       3404       3415       3414       3524       3525       3536       3535  
      3404       3405       3416       3415       3525       3526       3537       3536  
      3405       3406       3417       3416       3526       3527       3538       3537  
      3406       3407       3418       3417       3527       3528       3539       3538  
      3407       3408       3419       3418       3528       3529       3540       3539  
      3408       3409       3420       3419       3529       3530       3541       3540  
      3409       3410       3421       3420       3530       3531       3542       3541  
      3411       3412       3423       3422       3532       3533       3544       3543  
      3412       3413       3424       3423       3533       3534       3545       3544  
      3413       3414       3425       3424       3534       3535       3546       3545  
      3414       3415       3426       3425       3535       3536       3547       3546  
      3415       3416       3427       3426       3536       3537       3548       3547  
      3416       3417       3428       3427       3537       3538       3549       3548  
      3417       3418       3429       3428       3538       3539       3550       3549  
      3418       3419       3430       3429       3539       3540       3551       3550  
      3419       3420       3431       3430       3540       3541       3552       3551  
      3420       3421       3432       3431       3541       3542       3553       3552  
      3422       3423       3434       3433       3543       3544       3555       3554  
      3423       3424       3435       3434       3544       3545       3556       3555  
      3424       3425       3436       3435       3545       3546       3557       3556  
      3425       3426       3437       3436       3546       3547       3558       3557  
      3426       3427       3438       3437       3547       3548       3559       3558  
      3427       3428       3439       3438       3548       3549       3560       3559  
      3428       3429       3440       3439       3549       3550       3561       3560  
      3429       3430       3441       3440       3550       3551       3562       3561  
      3430       3431       3442       3441       3551       3552       3563       3562  
      3431       3432       3443       3442       3552       3553       3564       3563  
      3433       3434       3445       3444       3554       3555       3566       3565  
      3434       3435       3446       3445       3555       3556       3567       3566  
      3435       3436       3447       3446       3556       3557       3568       3567  
      3436       3437       3448       3447       3557       3558       3569       3568  
      3437       3438       3449       3448       3558       3559       3570       3569  
      3438       3439       3450       3449       3559       3560       3571       3570  
      3439       3440       3451       3450       3560       3561       3572       3571  
      3440       3441       3452       3451       3561       3562       3573       3572  
      3441       3442       3453       3452       3562       3563       3574       3573  
      3442       3443       3454       3453       3563       3564       3575       3574  
      3444       3445       3456       3455       3565       3566       3577       3576  
      3445       3446       3457       3456       3566       3567       3578       3577  
      3446       3447       3458       3457       3567       3568       3579       3578  
      3447       3448       3459       3458       3568       3569       3580       3579  
      3448       3449       3460       3459       3569       3570       3581       3580  
      3449       3450       3461       3460       3570       3571       3582       3581  
      3450       3451       3462       3461       3571       3572       3583       3582  
      3451       3452       3463       3462       3572       3573       3584       3583  
      3452       3453       3464       3463       3573       3574       3585       3584  
      3453       3454       3465       3464       3574       3575       3586       3585  
      3455       3456       3467       3466       3576       3577       3588       3587  
      3456       3457       3468       3467       3577       3578       3589       3588  
      3457       3458       3469       3468       3578       3579       3590       3589  
      3458       3459       3470       3469       3579       3580       3591       3590  
      3459       3460       3471       3470       3580       3581       3592       3591  
      3460       3461       3472       3471       3581       3582       3593       3592  
      3461       3462       3473       3472       3582       3583       3594       3593  
      3462       3463       3474       3473       3583       3584       3595       3594  
      3463       3464       3475       3474       3584       3585       3596       3595  
      3464       3465       3476       3475       3585       3586       3597       3596  
      3466       3467       3478       3477       3587       3588       3599       3598  
      3467       3468       3479       3478       3588       3589       3600       3599  
      3468       3469       3480       3479       3589       3590       3601       3600  
      3469       3470       3481       3480       3590       3591       3602       3601  
      3470       3471       3482       3481       3591       3592       3603       3602  
      3471       3472       3483       3482       3592       3593       3604       3603  
      3472       3473       3484       3483       3593       3594       3605       3604  
      3473       3474       3485       3484       3594       3595       3606       3605  
      3474       3475       3486       3485       3595       3596       3607       3606  
      3475       3476       3487       3486       3596       3597       3608       3607  
      3477       3478       3489       3488       3598       3599       3610       3609  
      3478       3479       3490       3489       3599       3600       3611       3610  
      3479       3480       3491       3490       3600       3601       3612       3611  
      3480       3481       3492       3491       3601       3602       3613       3612  
      3481       3482       3493       3492       3602       3603       3614       3613  
      3482       3483       3494       3493       3603       3604       3615       3614  
      3483       3484       3495       3494       3604       3605       3616       3615  
      3484       3485       3496       3495       3605       3606       3617       3616  
      3485       3486       3497       3496       3606       3607       3618       3617  
      3486       3487       3498       3497       3607       3608       3619       3618  
      3488       3489       3500       3499       3609       3610       3621       3620  
      3489       3490       3501       3500       3610       3611       3622       3621  
      3490       3491       3502       3501       3611       3612       3623       3622  
      3491       3492       3503       3502       3612       3613       3624       3623  
      3492       3493       3504       3503       3613       3614       3625       3624  
      3493       3494       3505       3504       3614       3615       3626       3625  
      3494       3495       3506       3505       3615       3616       3627       3626  
      3495       3496       3507       3506       3616       3617       3628       3627  
      3496       3497       3508       3507       3617       3618       3629       3628  
      3497       3498       3509       3508       3618       3619       3630       3629  
      3510       3511       3522       3521       3631       3632       3643       3642  
      3511       3512       3523       3522       3632       3633       3644       3643  
      3512       3513       3524       3523       3633       3634       3645       3644  
      3513       3514       3525       3524       3634       3635       3646       3645  
      3514       3515       3526       3525       3635       3636       3647       3646  
      3515       3516       3527       3526       3636       3637       3648       3647  
      3516       3517       3528       3527       3637       3638       3649       3648  
      3517       3518       3529       3528       3638       3639       3650       3649  
      3518       3519       3530       3529       3639       3640       3651       3650  
      3519       3520       3531       3530       3640       3641       3652       3651  
      3521       3522       3533       3532       3642       3643       3654       3653  
      3522       3523       3534       3533       3643       3644       3655       3654  
      3523       3524       3535       3534       3644       3645       3656       3655  
      3524       3525       3536       3535       3645       3646       3657       3656  
      3525       3526       3537       3536       3646       3647       3658       3657  
      3526       3527       3538       3537       3647       3648       3659       3658  
      3527       3528       3539       3538       3648       3649       3660       3659  
      3528       3529       3540       3539       3649       3650       3661       3660  
      3529       3530       3541       3540       3650       3651       3662       3661  
      3530       3531       3542       3541       3651       3652       3663       3662  
      3532       3533       3544       3543       3653       3654       3665       3664  
      3533       3534       3545       3544       3654       3655       3666       3665  
      3534       3535       3546       3545       3655       3656       3667       3666  
      3535       3536       3547       3546       3656       3657       3668       3667  
      3536       3537       3548       3547       3657       3658       3669       3668  
      3537       3538       3549       3548       3658       3659       3670       3669  
      3538       3539       3550       3549       3659       3660       3671       3670  
      3539       3540       3551       3550       3660       3661       3672       3671  
      3540       3541       3552       3551       3661       3662       3673       3672  
      3541       3542       3553       3552       3662       3663       3674       3673  
      3543       3544       3555       3554       3664       3665       3676       3675  
      3544       3545       3556       3555       3665       3666       3677       3676  
      3545       3546       3557       3556       3666       3667       3678       3677  
      3546       3547       3558       3557       3667       3668       3679       3678  
      3547       3548       3559       3558       3668       3669       3680       3679  
      3548       3549       3560       3559       3669       3670       3681       3680  
      3549       3550       3561       3560       3670       3671       3682       3681  
      3550       3551       3562       3561       3671       3672       3683       3682  
      3551       3552       3563       3562       3672       3673       3684       3683  
      3552       3553       3564       3563       3673       3674       3685       3684  
      3554       3555       3566       3565       3675       3676       3687       3686  
      3555       3556       3567       3566       3676       3677       3688       3687  
      3556       3557       3568       3567       3677       3678       3689       3688  
      3557       3558       3569       3568       3678       3679       3690       3689  
      3558       3559       3570       3569       3679       3680       3691       3690  
      3559       3560       3571       3570       3680       3681       3692       3691  
      3560       3561       3572       3571       3681       3682       3693       3692  
      3561       3562       3573       3572       3682       3683       3694       3693  
      3562       3563       3574       3573       3683       3684       3695       3694  
      3563       3564       3575       3574       3684       3685       3696       3695  
      3565       3566       3577       3576       3686       3687       3698       3697  
      3566       3567       3578       3577       3687       3688       3699       3698  
      3567       3568       3579       3578       3688       3689       3700       3699  
      3568       3569       3580       3579       3689       3690       3701       3700  
      3569       3570       3581       3580       3690       3691       3702       3701  
      3570       3571       3582       3581       3691       3692       3703       3702  
      3571       3572       3583       3582       3692       3693       3704       3703  
      3572       3573       3584       3583       3693       3694       3705       3704  
      3573       3574       3585       3584       3694       3695       3706       3705  
      3574       3575       3586       3585       3695       3696       3707       3706  
      3576       3577       3588       3587       3697       3698       3709       3708  
      3577       3578       3589       3588       3698       3699       3710       3709  
      3578       3579       3590       3589       3699       3700       3711       3710  
      3579       3580       3591       3590       3700       3701       3712       3711  
      3580       3581       3592       3591       3701       3702       3713       3712  
      3581       3582       3593       3592       3702       3703       3714       3713  
      3582       3583       3594       3593       3703       3704       3715       3714  
      3583       3584       3595       3594       3704       3705       3716       3715  
      3584       3585       3596       3595       3705       3706       3717       3716  
      3585       3586       3597       3596       3706       3707       3718       3717  
      3587       3588       3599       3598       3708       3709       3720       3719  
      3588       3589       3600       3599       3709       3710       3721       3720  
      3589       3590       3601       3600       3710       3711       3722       3721  
      3590       3591       3602       3601       3711       3712       3723       3722  
      3591       3592       3603       3602       3712       3713       3724       3723  
      3592       3593       3604       3603       3713       3714       3725       3724  
      3593       3594       3605       3604       3714       3715       3726       3725  
      3594       3595       3606       3605       3715       3716       3727       3726  
      3595       3596       3607       3606       3716       3717       3728       3727  
      3596       3597       3608       3607       3717       3718       3729       3728  
      3598       3599       3610       3609       3719       3720       3731       3730  
      3599       3600       3611       3610       3720       3721       3732       3731  
      3600       3601       3612       3611       3721       3722       3733       3732  
      3601       3602       3613       3612       3722       3723       3734       3733  
      3602       3603       3614       3613       3723       3724       3735       3734  
      3603       3604       3615       3614       3724       3725       3736       3735  
      3604       3605       3616       3615       3725       3726       3737       3736  
      3605       3606       3617       3616       3726       3727       3738       3737  
      3606       3607       3618       3617       3727       3728       3739       3738  
      3607       3608       3619       3618       3728       3729       3740       3739  
      3609       3610       3621       3620       3730       3731       3742       3741  
      3610       3611       3622       3621       3731       3732       3743       3742  
      3611       3612       3623       3622       3732       3733       3744       3743  
      3612       3613       3624       3623       3733       3734       3745       3744  
      3613       3614       3625       3624       3734       3735       3746       3745  
      3614       3615       3626       3625       3735       3736       3747       3746  
      3615       3616       3627       3626       3736       3737       3748       3747  
      3616       3617       3628       3627       3737       3738       3749       3748  
      3617       3618       3629       3628       3738       3739       3750       3749  
      3618       3619       3630       3629       3739       3740       3751       3750  
      3631       3632       3643       3642       3752       3753       3764       3763  
      3632       3633       3644       3643       3753       3754       3765       3764  
      3633       3634       3645       3644       3754       3755       3766       3765  
      3634       3635       3646       3645       3755       3756       3767       3766  
      3635       3636       3647       3646       3756       3757       3768       3767  
      3636       3637       3648       3647       3757       3758       3769       3768  
      3637       3638       3649       3648       3758       3759       3770       3769  
      3638       3639       3650       3649       3759       3760       3771       3770  
      3639       3640       3651       3650       3760       3761       3772       3771  
      3640       3641       3652       3651       3761       3762       3773       3772  
      3642       3643       3654       3653       3763       3764       3775       3774  
      3643       3644       3655       3654       3764       3765       3776       3775  
      3644       3645       3656       3655       3765       3766       3777       3776  
      3645       3646       3657       3656       3766       3767       3778       3777  
      3646       3647       3658       3657       3767       3768       3779       3778  
      3647       3648       3659       3658       3768       3769       3780       3779  
      3648       3649       3660       3659       3769       3770       3781       3780  
      3649       3650       3661       3660       3770       3771       3782       3781  
      3650       3651       3662       3661       3771       3772       3783       3782  
      3651       3652       3663       3662       3772       3773       3784       3783  
      3653       3654       3665       3664       3774       3775       3786       3785  
      3654       3655       3666       3665       3775       3776       3787       3786  
      3655       3656       3667       3666       3776       3777       3788       3787  
      3656       3657       3668       3667       3777       3778       3789       3788  
      3657       3658       3669       3668       3778       3779       3790       3789  
      3658       3659       3670       3669       3779       3780       3791       3790  
      3659       3660       3671       3670       3780       3781       3792       3791  
      3660       3661       3672       3671       3781       3782       3793       3792  
      3661       3662       3673       3672       3782       3783       3794       3793  
      3662       3663       3674       3673       3783       3784       3795       3794  
      3664       3665       3676       3675       3785       3786       3797       3796  
      3665       3666       3677       3676       3786       3787       3798       3797  
      3666       3667       3678       3677       3787       3788       3799       3798  
      3667       3668       3679       3678       3788       3789       3800       3799  
      3668       3669       3680       3679       3789       3790       3801       3800  
      3669       3670       3681       3680       3790       3791       3802       3801  
      3670       3671       3682       3681       3791       3792       3803       3802  
      3671       3672       3683       3682       3792       3793       3804       3803  
      3672       3673       3684       3683       3793       3794       3805       3804  
      3673       3674       3685       3684       3794       3795       3806       3805  
      3675       3676       3687       3686       3796       3797       3808       3807  
      3676       3677       3688       3687       3797       3798       3809       3808  
      3677       3678       3689       3688       3798       3799       3810       3809  
      3678       3679       3690       3689       3799       3800       3811       3810  
      3679       3680       3691       3690       3800       3801       3812       3811  
      3680       3681       3692       3691       3801       3802       3813       3812  
      3681       3682       3693       3692       3802       3803       3814       3813  
      3682       3683       3694       3693       3803       3804       3815       3814  
      3683       3684       3695       3694       3804       3805       3816       3815  
      3684       3685       3696       3695       3805       3806       3817       3816  
      3686       3687       3698       3697       3807       3808       3819       3818  
      3687       3688       3699       3698       3808       3809       3820       3819  
      3688       3689       3700       3699       3809       3810       3821       3820  
      3689       3690       3701       3700       3810       3811       3822       3821  
      3690       3691       3702       3701       3811       3812       3823       3822  
      3691       3692       3703       3702       3812       3813       3824       3823  
      3692       3693       3704       3703       3813       3814       3825       3824  
      3693       3694       3705       3704       3814       3815       3826       3825  
      3694       3695       3706       3705       3815       3816       3827       3826  
      3695       3696       3707       3706       3816       3817       3828       3827  
      3697       3698       3709       3708       3818       3819       3830       3829  
      3698       3699       3710       3709       3819       3820       3831       3830  
      3699       3700       3711       3710       3820       3821       3832       3831  
      3700       3701       3712       3711       3821       3822       3833       3832  
      3701       3702       3713       3712       3822       3823       3834       3833  
      3702       3703       3714       3713       3823       3824       3835       3834  
      3703       3704       3715       3714       3824       3825       3836       3835  
      3704       3705       3716       3715       3825       3826       3837       3836  
      3705       3706       3717       3716       3826       3827       3838       3837  
      3706       3707       3718       3717       3827       3828       3839       3838  
      3708       3709       3720       3719       3829       3830       3841       3840  
      3709       3710       3721       3720       3830       3831       3842       3841  
      3710       3711       3722       3721       3831       3832       3843       3842  
      3711       3712       3723       3722       3832       3833       3844       3843  
      3712       3713       3724       3723       3833       3834       3845       3844  
      3713       3714       3725       3724       3834       3835       3846       3845  
      3714       3715       3726       3725       3835       3836       3847       3846  
      3715       3716       3727       3726       3836       3837       3848       3847  
      3716       3717       3728       3727       3837       3838       3849       3848  
      3717       3718       3729       3728       3838       3839       3850       3849  
      3719       3720       3731       3730       3840       3841       3852       3851  
      3720       3721       3732       3731       3841       3842       3853       3852  
      3721       3722       3733       3732       3842       3843       3854       3853  
      3722       3723       3734       3733       3843       3844       3855       3854  
      3723       3724       3735       3734       3844       3845       3856       3855  
      3724       3725       3736       3735       3845       3846       3857       3856  
      3725       3726       3737       3736       3846       3847       3858       3857  
      3726       3727       3738       3737       3847       3848       3859       3858  
      3727       3728       3739       3738       3848       3849       3860       3859  
      3728       3729       3740       3739       3849       3850       3861       3860  
      3730       3731       3742       3741       3851       3852       3863       3862  
      3731       3732       3743       3742       3852       3853       3864       3863  
      3732       3733       3744       3743       3853       3854       3865       3864  
      3733       3734       3745       3744       3854       3855       3866       3865  
      3734       3735       3746       3745       3855       3856       3867       3866  
      3735       3736       3747       3746       3856       3857       3868       3867  
      3736       3737       3748       3747       3857       3858       3869       3868  
      3737       3738       3749       3748       3858       3859       3870       3869  
      3738       3739       3750       3749       3859       3860       3871       3870  
      3739       3740       3751       3750       3860       3861       3872       3871  
      3752       3753       3764       3763       3873       3874       3885       3884  
      3753       3754       3765       3764       3874       3875       3886       3885  
      3754       3755       3766       3765       3875       3876       3887       3886  
      3755       3756       3767       3766       3876       3877       3888       3887  
      3756       3757       3768       3767       3877       3878       3889       3888  
      3757       3758       3769       3768       3878       3879       3890       3889  
      3758       3759       3770       3769       3879       3880       3891       3890  
      3759       3760       3771       3770       3880       3881       3892       3891  
      3760       3761       3772       3771       3881       3882       3893       3892  
      3761       3762       3773       3772       3882       3883       3894       3893  
      3763       3764       3775       3774       3884       3885       3896       3895  
      3764       3765       3776       3775       3885       3886       3897       3896  
      3765       3766       3777       3776       3886       3887       3898       3897  
      3766       3767       3778       3777       3887       3888       3899       3898  
      3767       3768       3779       3778       3888       3889       3900       3899  
      3768       3769       3780       3779       3889       3890       3901       3900  
      3769       3770       3781       3780       3890       3891       3902       3901  
      3770       3771       3782       3781       3891       3892       3903       3902  
      3771       3772       3783       3782       3892       3893       3904       3903  
      3772       3773       3784       3783       3893       3894       3905       3904  
      3774       3775       3786       3785       3895       3896       3907       3906  
      3775       3776       3787       3786       3896       3897       3908       3907  
      3776       3777       3788       3787       3897       3898       3909       3908  
      3777       3778       3789       3788       3898       3899       3910       3909  
      3778       3779       3790       3789       3899       3900       3911       3910  
      3779       3780       3791       3790       3900       3901       3912       3911  
      3780       3781       3792       3791       3901       3902       3913       3912  
      3781       3782       3793       3792       3902       3903       3914       3913  
      3782       3783       3794       3793       3903       3904       3915       3914  
      3783       3784       3795       3794       3904       3905       3916       3915  
      3785       3786       3797       3796       3906       3907       3918       3917  
      3786       3787       3798       3797       3907       3908       3919       3918  
      3787       3788       3799       3798       3908       3909       3920       3919  
      3788       3789       3800       3799       3909       3910       3921       3920  
      3789       3790       3801       3800       3910       3911       3922       3921  
      3790       3791       3802       3801       3911       3912       3923       3922  
      3791       3792       3803       3802       3912       3913       3924       3923  
      3792       3793       3804       3803       3913       3914       3925       3924  
      3793       3794       3805       3804       3914       3915       3926       3925  
      3794       3795       3806       3805       3915       3916       3927       3926  
      3796       3797       3808       3807       3917       3918       3929       3928  
      3797       3798       3809       3808       3918       3919       3930       3929  
      3798       3799       3810       3809       3919       3920       3931       3930  
      3799       3800       3811       3810       3920       3921       3932       3931  
      3800       3801       3812       3811       3921       3922       3933       3932  
      3801       3802       3813       3812       3922       3923       3934       3933  
      3802       3803       3814       3813       3923       3924       3935       3934  
      3803       3804       3815       3814       3924       3925       3936       3935  
      3804       3805       3816       3815       3925       3926       3937       3936  
      3805       3806       3817       3816       3926       3927       3938       3937  
      3807       3808       3819       3818       3928       3929       3940       3939  
      3808       3809       3820       3819       3929       3930       3941       3940  
      3809       3810       3821       3820       3930       3931       3942       3941  
      3810       3811       3822       3821       3931       3932       3943       3942  
      3811       3812       3823       3822       3932       3933       3944       3943  
      3812       3813       3824       3823       3933       3934       3945       3944  
      3813       3814       3825       3824       3934       3935       3946       3945  
      3814       3815       3826       3825       3935       3936       3947       3946  
      3815       3816       3827       3826       3936       3937       3948       3947  
      3816       3817       3828       3827       3937       3938       3949       3948  
      3818       3819       3830       3829       3939       3940       3951       3950  
      3819       3820       3831       3830       3940       3941       3952       3951  
      3820       3821       3832       3831       3941       3942       3953       3952  
      3821       3822       3833       3832       3942       3943       3954       3953  
      3822       3823       3834       3833       3943       3944       3955       3954  
      3823       3824       3835       3834       3944       3945       3956       3955  
      3824       3825       3836       3835       3945       3946       3957       3956  
      3825       3826       3837       3836       3946       3947       3958       3957  
      3826       3827       3838       3837       3947       3948       3959       3958  
      3827       3828       3839       3838       3948       3949       3960       3959  
      3829       3830       3841       3840       3950       3951       3962       3961  
      3830       3831       3842       3841       3951       3952       3963       3962  
      3831       3832       3843       3842       3952       3953       3964       3963  
      3832       3833       3844       3843       3953       3954       3965       3964  
      3833       3834       3845       3844       3954       3955       3966       3965  
      3834       3835       3846       3845       3955       3956       3967       3966  
      3835       3836       3847       3846       3956       3957       3968       3967  
      3836       3837       3848       3847       3957       3958       3969       3968  
      3837       3838       3849       3848       3958       3959       3970       3969  
      3838       3839       3850       3849       3959       3960       3971       3970  
      3840       3841       3852       3851       3961       3962       3973       3972  
      3841       3842       3853       3852       3962       3963       3974       3973  
      3842       3843       3854       3853       3963       3964       3975       3974  
      3843       3844       3855       3854       3964       3965       3976       3975  
      3844       3845       3856       3855       3965       3966       3977       3976  
      3845       3846       3857       3856       3966       3967       3978       3977  
      3846       3847       3858       3857       3967       3968       3979       3978  
      3847       3848       3859       3858       3968       3969       3980       3979  
      3848       3849       3860       3859       3969       3970       3981       3980  
      3849       3850       3861       3860       3970       3971       3982       3981  
      3851       3852       3863       3862       3972       3973       3984       3983  
      3852       3853       3864       3863       3973       3974       3985       3984  
      3853       3854       3865       3864       3974       3975       3986       3985  
      3854       3855       3866       3865       3975       3976       3987       3986  
      3855       3856       3867       3866       3976       3977       3988       3987  
      3856       3857       3868       3867       3977       3978       3989       3988  
      3857       3858       3869       3868       3978       3979       3990       3989  
      3858       3859       3870       3869       3979       3980       3991       3990  
      3859       3860       3871       3870       3980       3981       3992       3991  
      3860       3861       3872       3871       3981       3982       3993       3992  
      3873       3874       3885       3884       3994       3995       4006       4005  
      3874       3875       3886       3885       3995       3996       4007       4006  
      3875       3876       3887       3886       3996       3997       4008       4007  
      3876       3877       3888       3887       3997       3998       4009       4008  
      3877       3878       3889       3888       3998       3999       4010       4009  
      3878       3879       3890       3889       3999       4000       4011       4010  
      3879       3880       3891       3890       4000       4001       4012       4011  
      3880       3881       3892       3891       4001       4002       4013       4012  
      3881       3882       3893       3892       4002       4003       4014       4013  
      3882       3883       3894       3893       4003       4004       4015       4014  
      3884       3885       3896       3895       4005       4006       4017       4016  
      3885       3886       3897       3896       4006       4007       4018       4017  
      3886       3887       3898       3897       4007       4008       4019       4018  
      3887       3888       3899       3898       4008       4009       4020       4019  
      3888       3889       3900       3899       4009       4010       4021       4020  
      3889       3890       3901       3900       4010       4011       4022       4021  
      3890       3891       3902       3901       4011       4012       4023       4022  
      3891       3892       3903       3902       4012       4013       4024       4023  
      3892       3893       3904       3903       4013       4014       4025       4024  
      3893       3894       3905       3904       4014       4015       4026       4025  
      3895       3896       3907       3906       4016       4017       4028       4027  
      3896       3897       3908       3907       4017       4018       4029       4028  
      3897       3898       3909       3908       4018       4019       4030       4029  
      3898       3899       3910       3909       4019       4020       4031       4030  
      3899       3900       3911       3910       4020       4021       4032       4031  
      3900       3901       3912       3911       4021       4022       4033       4032  
      3901       3902       3913       3912       4022       4023       4034       4033  
      3902       3903       3914       3913       4023       4024       4035       4034  
      3903       3904       3915       3914       4024       4025       4036       4035  
      3904       3905       3916       3915       4025       4026       4037       4036  
      3906       3907       3918       3917       4027       4028       4039       4038  
      3907       3908       3919       3918       4028       4029       4040       4039  
      3908       3909       3920       3919       4029       4030       4041       4040  
      3909       3910       3921       3920       4030       4031       4042       4041  
      3910       3911       3922       3921       4031       4032       4043       4042  
      3911       3912       3923       3922       4032       4033       4044       4043  
      3912       3913       3924       3923       4033       4034       4045       4044  
      3913       3914       3925       3924       4034       4035       4046       4045  
      3914       3915       3926       3925       4035       4036       4047       4046  
      3915       3916       3927       3926       4036       4037       4048       4047  
      3917       3918       3929       3928       4038       4039       4050       4049  
      3918       3919       3930       3929       4039       4040       4051       4050  
      3919       3920       3931       3930       4040       4041       4052       4051  
      3920       3921       3932       3931       4041       4042       4053       4052  
      3921       3922       3933       3932       4042       4043       4054       4053  
      3922       3923       3934       3933       4043       4044       4055       4054  
      3923       3924       3935       3934       4044       4045       4056       4055  
      3924       3925       3936       3935       4045       4046       4057       4056  
      3925       3926       3937       3936       4046       4047       4058       4057  
      3926       3927       3938       3937       4047       4048       4059       4058  
      3928       3929       3940       3939       4049       4050       4061       4060  
      3929       3930       3941       3940       4050       4051       4062       4061  
      3930       3931       3942       3941       4051       4052       4063       4062  
      3931       3932       3943       3942       4052       4053       4064       4063  
      3932       3933       3944       3943       4053       4054       4065       4064  
      3933       3934       3945       3944       4054       4055       4066       4065  
      3934       3935       3946       3945       4055       4056       4067       4066  
      3935       3936       3947       3946       4056       4057       4068       4067  
      3936       3937       3948       3947       4057       4058       4069       4068  
      3937       3938       3949       3948       4058       4059       4070       4069  
      3939       3940       3951       3950       4060       4061       4072       4071  
      3940       3941       3952       3951       4061       4062       4073       4072  
      3941       3942       3953       3952       4062       4063       4074       4073  
      3942       3943       3954       3953       4063       4064       4075       4074  
      3943       3944       3955       3954       4064       4065       4076       4075  
      3944       3945       3956       3955       4065       4066       4077       4076  
      3945       3946       3957       3956       4066       4067       4078       4077  
      3946       3947       3958       3957       4067       4068       4079       4078  
      3947       3948       3959       3958       4068       4069       4080       4079  
      3948       3949       3960       3959       4069       4070       4081       4080  
      3950       3951       3962       3961       4071       4072       4083       4082  
      3951       3952       3963       3962       4072       4073       4084       4083  
      3952       3953       3964       3963       4073       4074       4085       4084  
      3953       3954       3965       3964       4074       4075       4086       4085  
      3954       3955       3966       3965       4075       4076       4087       4086  
      3955       3956       3967       3966       4076       4077       4088       4087  
      3956       3957       3968       3967       4077       4078       4089       4088  
      3957       3958       3969       3968       4078       4079       4090       4089  
      3958       3959       3970       3969       4079       4080       4091       4090  
      3959       3960       3971       3970       4080       4081       4092       4091  
      3961       3962       3973       3972       4082       4083       4094       4093  
      3962       3963       3974       3973       4083       4084       4095       4094  
      3963       3964       3975       3974       4084       4085       4096       4095  
      3964       3965       3976       3975       4085       4086       4097       4096  
      3965       3966       3977       3976       4086       4087       4098       4097  
      3966       3967       3978       3977       4087       4088       4099       4098  
      3967       3968       3979       3978       4088       4089       4100       4099  
      3968       3969       3980       3979       4089       4090       4101       4100  
      3969       3970       3981       3980       4090       4091       4102       4101  
      3970       3971       3982       3981       4091       4092       4103       4102  
      3972       3973       3984       3983       4093       4094       4105       4104  
      3973       3974       3985       3984       4094       4095       4106       4105  
      3974       3975       3986       3985       4095       4096       4107       4106  
      3975       3976       3987       3986       4096       4097       4108       4107  
      3976       3977       3988       3987       4097       4098       4109       4108  
      3977       3978       3989       3988       4098       4099       4110       4109  
      3978       3979       3990       3989       4099       4100       4111       4110  
      3979       3980       3991       3990       4100       4101       4112       4111  
      3980       3981       3992       3991       4101       4102       4113       4112  
      3981       3982       3993       3992       4102       4103       4114       4113  
      3994       3995       4006       4005       4115       4116       4127       4126  
      3995       3996       4007       4006       4116       4117       4128       4127  
      3996       3997       4008       4007       4117       4118       4129       4128  
      3997       3998       4009       4008       4118       4119       4130       4129  
      3998       3999       4010       4009       4119       4120       4131       4130  
      3999       4000       4011       4010       4120       4121       4132       4131  
      4000       4001       4012       4011       4121       4122       4133       4132  
      4001       4002       4013       4012       4122       4123       4134       4133  
      4002       4003       4014       4013       4123       4124       4135       4134  
      4003       4004       4015       4014       4124       4125       4136       4135  
      4005       4006       4017       4016       4126       4127       4138       4137  
      4006       4007       4018       4017       4127       4128       4139       4138  
      4007       4008       4019       4018       4128       4129       4140       4139  
      4008       4009       4020       4019       4129       4130       4141       4140  
      4009       4010       4021       4020       4130       4131       4142       4141  
      4010       4011       4022       4021       4131       4132       4143       4142  
      4011       4012       4023       4022       4132       4133       4144       4143  
      4012       4013       4024       4023       4133       4134       4145       4144  
      4013       4014       4025       4024       4134       4135       4146       4145  
      4014       4015       4026       4025       4135       4136       4147       4146  
      4016       4017       4028       4027       4137       4138       4149       4148  
      4017       4018       4029       4028       4138       4139       4150       4149  
      4018       4019       4030       4029       4139       4140       4151       4150  
      4019       4020       4031       4030       4140       4141       4152       4151  
      4020       4021       4032       4031       4141       4142       4153       4152  
      4021       4022       4033       4032       4142       4143       4154       4153  
      4022       4023       4034       4033       4143       4144       4155       4154  
      4023       4024       4035       4034       4144       4145       4156       4155  
      4024       4025       4036       4035       4145       4146       4157       4156  
      4025       4026       4037       4036       4146       4147       4158       4157  
      4027       4028       4039       4038       4148       4149       4160       4159  
      4028       4029       4040       4039       4149       4150       4161       4160  
      4029       4030       4041       4040       4150       4151       4162       4161  
      4030       4031       4042       4041       4151       4152       4163       4162  
      4031       4032       4043       4042       4152       4153       4164       4163  
      4032       4033       4044       4043       4153       4154       4165       4164  
      4033       4034       4045       4044       4154       4155       4166       4165  
      4034       4035       4046       4045       4155       4156       4167       4166  
      4035       4036       4047       4046       4156       4157       4168       4167  
      4036       4037       4048       4047       4157       4158       4169       4168  
      4038       4039       4050       4049       4159       4160       4171       4170  
      4039       4040       4051       4050       4160       4161       4172       4171  
      4040       4041       4052       4051       4161       4162       4173       4172  
      4041       4042       4053       4052       4162       4163       4174       4173  
      4042       4043       4054       4053       4163       4164       4175       4174  
      4043       4044       4055       4054       4164       4165       4176       4175  
      4044       4045       4056       4055       4165       4166       4177       4176  
      4045       4046       4057       4056       4166       4167       4178       4177  
      4046       4047       4058       4057       4167       4168       4179       4178  
      4047       4048       4059       4058       4168       4169       4180       4179  
      4049       4050       4061       4060       4170       4171       4182       4181  
      4050       4051       4062       4061       4171       4172       4183       4182  
      4051       4052       4063       4062       4172       4173       4184       4183  
      4052       4053       4064       4063       4173       4174       4185       4184  
      4053       4054       4065       4064       4174       4175       4186       4185  
      4054       4055       4066       4065       4175       4176       4187       4186  
      4055       4056       4067       4066       4176       4177       4188       4187  
      4056       4057       4068       4067       4177       4178       4189       4188  
      4057       4058       4069       4068       4178       4179       4190       4189  
      4058       4059       4070       4069       4179       4180       4191       4190  
      4060       4061       4072       4071       4181       4182       4193       4192  
      4061       4062       4073       4072       4182       4183       4194       4193  
      4062       4063       4074       4073       4183       4184       4195       4194  
      4063       4064       4075       4074       4184       4185       4196       4195  
      4064       4065       4076       4075       4185       4186       4197       4196  
      4065       4066       4077       4076       4186       4187       4198       4197  
      4066       4067       4078       4077       4187       4188       4199       4198  
      4067       4068       4079       4078       4188       4189       4200       4199  
      4068       4069       4080       4079       4189       4190       4201       4200  
      4069       4070       4081       4080       4190       4191       4202       4201  
      4071       4072       4083       4082       4192       4193       4204       4203  
      4072       4073       4084       4083       4193       4194       4205       4204  
      4073       4074       4085       4084       4194       4195       4206       4205  
      4074       4075       4086       4085       4195       4196       4207       4206  
      4075       4076       4087       4086       4196       4197       4208       4207  
      4076       4077       4088       4087       4197       4198       4209       4208  
      4077       4078       4089       4088       4198       4199       4210       4209  
      4078       4079       4090       4089       4199       4200       4211       4210  
      4079       4080       4091       4090       4200       4201       4212       4211  
      4080       4081       4092       4091       4201       4202       4213       4212  
      4082       4083       4094       4093       4203       4204       4215       4214  
      4083       4084       4095       4094       4204       4205       4216       4215  
      4084       4085       4096       4095       4205       4206       4217       4216  
      4085       4086       4097       4096       4206       4207       4218       4217  
      4086       4087       4098       4097       4207       4208       4219       4218  
      4087       4088       4099       4098       4208       4209       4220       4219  
      4088       4089       4100       4099       4209       4210       4221       4220  
      4089       4090       4101       4100       4210       4211       4222       4221  
      4090       4091       4102       4101       4211       4212       4223       4222  
      4091       4092       4103       4102       4212       4213       4224       4223  
      4093       4094       4105       4104       4214       4215       4226       4225  
      4094       4095       4106       4105       4215       4216       4227       4226  
      4095       4096       4107       4106       4216       4217       4228       4227  
      4096       4097       4108       4107       4217       4218       4229       4228  
      4097       4098       4109       4108       4218       4219       4230       4229  
      4098       4099       4110       4109       4219       4220       4231       4230  
      4099       4100       4111       4110       4220       4221       4232       4231  
      4100       4101       4112       4111       4221       4222       4233       4232  
      4101       4102       4113       4112       4222       4223       4234       4233  
      4102       4103       4114       4113       4223       4224       4235       4234  
      4115       4116       4127       4126       4236       4237       4248       4247  
      4116       4117       4128       4127       4237       4238       4249       4248  
      4117       4118       4129       4128       4238       4239       4250       4249  
      4118       4119       4130       4129       4239       4240       4251       4250  
      4119       4120       4131       4130       4240       4241       4252       4251  
      4120       4121       4132       4131       4241       4242       4253       4252  
      4121       4122       4133       4132       4242       4243       4254       4253  
      4122       4123       4134       4133       4243       4244       4255       4254  
      4123       4124       4135       4134       4244       4245       4256       4255  
      4124       4125       4136       4135       4245       4246       4257       4256  
      4126       4127       4138       4137       4247       4248       4259       4258  
      4127       4128       4139       4138       4248       4249       4260       4259  
      4128       4129       4140       4139       4249       4250       4261       4260  
      4129       4130       4141       4140       4250       4251       4262       4261  
      4130       4131       4142       4141       4251       4252       4263       4262  
      4131       4132       4143       4142       4252       4253       4264       4263  
      4132       4133       4144       4143       4253       4254       4265       4264  
      4133       4134       4145       4144       4254       4255       4266       4265  
      4134       4135       4146       4145       4255       4256       4267       4266  
      4135       4136       4147       4146       4256       4257       4268       4267  
      4137       4138       4149       4148       4258       4259       4270       4269  
      4138       4139       4150       4149       4259       4260       4271       4270  
      4139       4140       4151       4150       4260       4261       4272       4271  
      4140       4141       4152       4151       4261       4262       4273       4272  
      4141       4142       4153       4152       4262       4263       4274       4273  
      4142       4143       4154       4153       4263       4264       4275       4274  
      4143       4144       4155       4154       4264       4265       4276       4275  
      4144       4145       4156       4155       4265       4266       4277       4276  
      4145       4146       4157       4156       4266       4267       4278       4277  
      4146       4147       4158       4157       4267       4268       4279       4278  
      4148       4149       4160       4159       4269       4270       4281       4280  
      4149       4150       4161       4160       4270       4271       4282       4281  
      4150       4151       4162       4161       4271       4272       4283       4282  
      4151       4152       4163       4162       4272       4273       4284       4283  
      4152       4153       4164       4163       4273       4274       4285       4284  
      4153       4154       4165       4164       4274       4275       4286       4285  
      4154       4155       4166       4165       4275       4276       4287       4286  
      4155       4156       4167       4166       4276       4277       4288       4287  
      4156       4157       4168       4167       4277       4278       4289       4288  
      4157       4158       4169       4168       4278       4279       4290       4289  
      4159       4160       4171       4170       4280       4281       4292       4291  
      4160       4161       4172       4171       4281       4282       4293       4292  
      4161       4162       4173       4172       4282       4283       4294       4293  
      4162       4163       4174       4173       4283       4284       4295       4294  
      4163       4164       4175       4174       4284       4285       4296       4295  
      4164       4165       4176       4175       4285       4286       4297       4296  
      4165       4166       4177       4176       4286       4287       4298       4297  
      4166       4167       4178       4177       4287       4288       4299       4298  
      4167       4168       4179       4178       4288       4289       4300       4299  
      4168       4169       4180       4179       4289       4290       4301       4300  
      4170       4171       4182       4181       4291       4292       4303       4302  
      4171       4172       4183       4182       4292       4293       4304       4303  
      4172       4173       4184       4183       4293       4294       4305       4304  
      4173       4174       4185       4184       4294       4295       4306       4305  
      4174       4175       4186       4185       4295       4296       4307       4306  
      4175       4176       4187       4186       4296       4297       4308       4307  
      4176       4177       4188       4187       4297       4298       4309       4308  
      4177       4178       4189       4188       4298       4299       4310       4309  
      4178       4179       4190       4189       4299       4300       4311       4310  
      4179       4180       4191       4190       4300       4301       4312       4311  
      4181       4182       4193       4192       4302       4303       4314       4313  
      4182       4183       4194       4193       4303       4304       4315       4314  
      4183       4184       4195       4194       4304       4305       4316       4315  
      4184       4185       4196       4195       4305       4306       4317       4316  
      4185       4186       4197       4196       4306       4307       4318       4317  
      4186       4187       4198       4197       4307       4308       4319       4318  
      4187       4188       4199       4198       4308       4309       4320       4319  
      4188       4189       4200       4199       4309       4310       4321       4320  
      4189       4190       4201       4200       4310       4311       4322       4321  
      4190       4191       4202       4201       4311       4312       4323       4322  
      4192       4193       4204       4203       4313       4314       4325       4324  
      4193       4194       4205       4204       4314       4315       4326       4325  
      4194       4195       4206       4205       4315       4316       4327       4326  
      4195       4196       4207       4206       4316       4317       4328       4327  
      4196       4197       4208       4207       4317       4318       4329       4328  
      4197       4198       4209       4208       4318       4319       4330       4329  
      4198       4199       4210       4209       4319       4320       4331       4330  
      4199       4200       4211       4210       4320       4321       4332       4331  
      4200       4201       4212       4211       4321       4322       4333       4332  
      4201       4202       4213       4212       4322       4323       4334       4333  
      4203       4204       4215       4214       4324       4325       4336       4335  
      4204       4205       4216       4215       4325       4326       4337       4336  
      4205       4206       4217       4216       4326       4327       4338       4337  
      4206       4207       4218       4217       4327       4328       4339       4338  
      4207       4208       4219       4218       4328       4329       4340       4339  
      4208       4209       4220       4219       4329       4330       4341       4340  
      4209       4210       4221       4220       4330       4331       4342       4341  
      4210       4211       4222       4221       4331       4332       4343       4342  
      4211       4212       4223       4222       4332       4333       4344       4343  
      4212       4213       4224       4223       4333       4334       4345       4344  
      4214       4215       4226       4225       4335       4336       4347       4346  
      4215       4216       4227       4226       4336       4337       4348       4347  
      4216       4217       4228       4227       4337       4338       4349       4348  
      4217       4218       4229       4228       4338       4339       4350       4349  
      4218       4219       4230       4229       4339       4340       4351       4350  
      4219       4220       4231       4230       4340       4341       4352       4351  
      4220       4221       4232       4231       4341       4342       4353       4352  
      4221       4222       4233       4232       4342       4343       4354       4353  
      4222       4223       4234       4233       4343       4344       4355       4354  
      4223       4224       4235       4234       4344       4345       4356       4355  
      4236       4237       4248       4247       4357       4358       4369       4368  
      4237       4238       4249       4248       4358       4359       4370       4369  
      4238       4239       4250       4249       4359       4360       4371       4370  
      4239       4240       4251       4250       4360       4361       4372       4371  
      4240       4241       4252       4251       4361       4362       4373       4372  
      4241       4242       4253       4252       4362       4363       4374       4373  
      4242       4243       4254       4253       4363       4364       4375       4374  
      4243       4244       4255       4254       4364       4365       4376       4375  
      4244       4245       4256       4255       4365       4366       4377       4376  
      4245       4246       4257       4256       4366       4367       4378       4377  
      4247       4248       4259       4258       4368       4369       4380       4379  
      4248       4249       4260       4259       4369       4370       4381       4380  
      4249       4250       4261       4260       4370       4371       4382       4381  
      4250       4251       4262       4261       4371       4372       4383       4382  
      4251       4252       4263       4262       4372       4373       4384       4383  
      4252       4253       4264       4263       4373       4374       4385       4384  
      4253       4254       4265       4264       4374       4375       4386       4385  
      4254       4255       4266       4265       4375       4376       4387       4386  
      4255       4256       4267       4266       4376       4377       4388       4387  
      4256       4257       4268       4267       4377       4378       4389       4388  
      4258       4259       4270       4269       4379       4380       4391       4390  
      4259       4260       4271       4270       4380       4381       4392       4391  
      4260       4261       4272       4271       4381       4382       4393       4392  
      4261       4262       4273       4272       4382       4383       4394       4393  
      4262       4263       4274       4273       4383       4384       4395       4394  
      4263       4264       4275       4274       4384       4385       4396       4395  
      4264       4265       4276       4275       4385       4386       4397       4396  
      4265       4266       4277       4276       4386       4387       4398       4397  
      4266       4267       4278       4277       4387       4388       4399       4398  
      4267       4268       4279       4278       4388       4389       4400       4399  
      4269       4270       4281       4280       4390       4391       4402       4401  
      4270       4271       4282       4281       4391       4392       4403       4402  
      4271       4272       4283       4282       4392       4393       4404       4403  
      4272       4273       4284       4283       4393       4394       4405       4404  
      4273       4274       4285       4284       4394       4395       4406       4405  
      4274       4275       4286       4285       4395       4396       4407       4406  
      4275       4276       4287       4286       4396       4397       4408       4407  
      4276       4277       4288       4287       4397       4398       4409       4408  
      4277       4278       4289       4288       4398       4399       4410       4409  
      4278       4279       4290       4289       4399       4400       4411       4410  
      4280       4281       4292       4291       4401       4402       4413       4412  
      4281       4282       4293       4292       4402       4403       4414       4413  
      4282       4283       4294       4293       4403       4404       4415       4414  
      4283       4284       4295       4294       4404       4405       4416       4415  
      4284       4285       4296       4295       4405       4406       4417       4416  
      4285       4286       4297       4296       4406       4407       4418       4417  
      4286       4287       4298       4297       4407       4408       4419       4418  
      4287       4288       4299       4298       4408       4409       4420       4419  
      4288       4289       4300       4299       4409       4410       4421       4420  
      4289       4290       4301       4300       4410       4411       4422       4421  
      4291       4292       4303       4302       4412       4413       4424       4423  
      4292       4293       4304       4303       4413       4414       4425       4424  
      4293       4294       4305       4304       4414       4415       4426       4425  
      4294       4295       4306       4305       4415       4416       4427       4426  
      4295       4296       4307       4306       4416       4417       4428       4427  
      4296       4297       4308       4307       4417       4418       4429       4428  
      4297       4298       4309       4308       4418       4419       4430       4429  
      4298       4299       4310       4309       4419       4420       4431       4430  
      4299       4300       4311       4310       4420       4421       4432       4431  
      4300       4301       4312       4311       4421       4422       4433       4432  
      4302       4303       4314       4313       4423       4424       4435       4434  
      4303       4304       4315       4314       4424       4425       4436       4435  
      4304       4305       4316       4315       4425       4426       4437       4436  
      4305       4306       4317       4316       4426       4427       4438       4437  
      4306       4307       4318       4317       4427       4428       4439       4438  
      4307       4308       4319       4318       4428       4429       4440       4439  
      4308       4309       4320       4319       4429       4430       4441       4440  
      4309       4310       4321       4320       4430       4431       4442       4441  
      4310       4311       4322       4321       4431       4432       4443       4442  
      4311       4312       4323       4322       4432       4433       4444       4443  
      4313       4314       4325       4324       4434       4435       4446       4445  
      4314       4315       4326       4325       4435       4436       4447       4446  
      4315       4316       4327       4326       4436       4437       4448       4447  
      4316       4317       4328       4327       4437       4438       4449       4448  
      4317       4318       4329       4328       4438       4439       4450       4449  
      4318       4319       4330       4329       4439       4440       4451       4450  
      4319       4320       4331       4330       4440       4441       4452       4451  
      4320       4321       4332       4331       4441       4442       4453       4452  
      4321       4322       4333       4332       4442       4443       4454       4453  
      4322       4323       4334       4333       4443       4444       4455       4454  
      4324       4325       4336       4335       4445       4446       4457       4456  
      4325       4326       4337       4336       4446       4447       4458       4457  
      4326       4327       4338       4337       4447       4448       4459       4458  
      4327       4328       4339       4338       4448       4449       4460       4459  
      4328       4329       4340       4339       4449       4450       4461       4460  
      4329       4330       4341       4340       4450       4451       4462       4461  
      4330       4331       4342       4341       4451       4452       4463       4462  
      4331       4332       4343       4342       4452       4453       4464       4463  
      4332       4333       4344       4343       4453       4454       4465       4464  
      4333       4334       4345       4344       4454       4455       4466       4465  
      4335       4336       4347       4346       4456       4457       4468       4467  
      4336       4337       4348       4347       4457       4458       4469       4468  
      4337       4338       4349       4348       4458       4459       4470       4469  
      4338       4339       4350       4349       4459       4460       4471       4470  
      4339       4340       4351       4350       4460       4461       4472       4471  
      4340       4341       4352       4351       4461       4462       4473       4472  
      4341       4342       4353       4352       4462       4463       4474       4473  
      4342       4343       4354       4353       4463       4464       4475       4474  
      4343       4344       4355       4354       4464       4465       4476       4475  
      4344       4345       4356       4355       4465       4466       4477       4476  
      4357       4358       4369       4368       4478       4479       4490       4489  
      4358       4359       4370       4369       4479       4480       4491       4490  
      4359       4360       4371       4370       4480       4481       4492       4491  
      4360       4361       4372       4371       4481       4482       4493       4492  
      4361       4362       4373       4372       4482       4483       4494       4493  
      4362       4363       4374       4373       4483       4484       4495       4494  
      4363       4364       4375       4374       4484       4485       4496       4495  
      4364       4365       4376       4375       4485       4486       4497       4496  
      4365       4366       4377       4376       4486       4487       4498       4497  
      4366       4367       4378       4377       4487       4488       4499       4498  
      4368       4369       4380       4379       4489       4490       4501       4500  
      4369       4370       4381       4380       4490       4491       4502       4501  
      4370       4371       4382       4381       4491       4492       4503       4502  
      4371       4372       4383       4382       4492       4493       4504       4503  
      4372       4373       4384       4383       4493       4494       4505       4504  
      4373       4374       4385       4384       4494       4495       4506       4505  
      4374       4375       4386       4385       4495       4496       4507       4506  
      4375       4376       4387       4386       4496       4497       4508       4507  
      4376       4377       4388       4387       4497       4498       4509       4508  
      4377       4378       4389       4388       4498       4499       4510       4509  
      4379       4380       4391       4390       4500       4501       4512       4511  
      4380       4381       4392       4391       4501       4502       4513       4512  
      4381       4382       4393       4392       4502       4503       4514       4513  
      4382       4383       4394       4393       4503       4504       4515       4514  
      4383       4384       4395       4394       4504       4505       4516       4515  
      4384       4385       4396       4395       4505       4506       4517       4516  
      4385       4386       4397       4396       4506       4507       4518       4517  
      4386       4387       4398       4397       4507       4508       4519       4518  
      4387       4388       4399       4398       4508       4509       4520       4519  
      4388       4389       4400       4399       4509       4510       4521       4520  
      4390       4391       4402       4401       4511       4512       4523       4522  
      4391       4392       4403       4402       4512       4513       4524       4523  
      4392       4393       4404       4403       4513       4514       4525       4524  
      4393       4394       4405       4404       4514       4515       4526       4525  
      4394       4395       4406       4405       4515       4516       4527       4526  
      4395       4396       4407       4406       4516       4517       4528       4527  
      4396       4397       4408       4407       4517       4518       4529       4528  
      4397       4398       4409       4408       4518       4519       4530       4529  
      4398       4399       4410       4409       4519       4520       4531       4530  
      4399       4400       4411       4410       4520       4521       4532       4531  
      4401       4402       4413       4412       4522       4523       4534       4533  
      4402       4403       4414       4413       4523       4524       4535       4534  
      4403       4404       4415       4414       4524       4525       4536       4535  
      4404       4405       4416       4415       4525       4526       4537       4536  
      4405       4406       4417       4416       4526       4527       4538       4537  
      4406       4407       4418       4417       4527       4528       4539       4538  
      4407       4408       4419       4418       4528       4529       4540       4539  
      4408       4409       4420       4419       4529       4530       4541       4540  
      4409       4410       4421       4420       4530       4531       4542       4541  
      4410       4411       4422       4421       4531       4532       4543       4542  
      4412       4413       4424       4423       4533       4534       4545       4544  
      4413       4414       4425       4424       4534       4535       4546       4545  
      4414       4415       4426       4425       4535       4536       4547       4546  
      4415       4416       4427       4426       4536       4537       4548       4547  
      4416       4417       4428       4427       4537       4538       4549       4548  
      4417       4418       4429       4428       4538       4539       4550       4549  
      4418       4419       4430       4429       4539       4540       4551       4550  
      4419       4420       4431       4430       4540       4541       4552       4551  
      4420       4421       4432       4431       4541       4542       4553       4552  
      4421       4422       4433       4432       4542       4543       4554       4553  
      4423       4424       4435       4434       4544       4545       4556       4555  
      4424       4425       4436       4435       4545       4546       4557       4556  
      4425       4426       4437       4436       4546       4547       4558       4557  
      4426       4427       4438       4437       4547       4548       4559       4558  
      4427       4428       4439       4438       4548       4549       4560       4559  
      4428       4429       4440       4439       4549       4550       4561       4560  
      4429       4430       4441       4440       4550       4551       4562       4561  
      4430       4431       4442       4441       4551       4552       4563       4562  
      4431       4432       4443       4442       4552       4553       4564       4563  
      4432       4433       4444       4443       4553       4554       4565       4564  
      4434       4435       4446       4445       4555       4556       4567       4566  
      4435       4436       4447       4446       4556       4557       4568       4567  
      4436       4437       4448       4447       4557       4558       4569       4568  
      4437       4438       4449       4448       4558       4559       4570       4569  
      4438       4439       4450       4449       4559       4560       4571       4570  
      4439       4440       4451       4450       4560       4561       4572       4571  
      4440       4441       4452       4451       4561       4562       4573       4572  
      4441       4442       4453       4452       4562       4563       4574       4573  
      4442       4443       4454       4453       4563       4564       4575       4574  
      4443       4444       4455       4454       4564       4565       4576       4575  
      4445       4446       4457       4456       4566       4567       4578       4577  
      4446       4447       4458       4457       4567       4568       4579       4578  
      4447       4448       4459       4458       4568       4569       4580       4579  
      4448       4449       4460       4459       4569       4570       4581       4580  
      4449       4450       4461       4460       4570       4571       4582       4581  
      4450       4451       4462       4461       4571       4572       4583       4582  
      4451       4452       4463       4462       4572       4573       4584       4583  
      4452       4453       4464       4463       4573       4574       4585       4584  
      4453       4454       4465       4464       4574       4575       4586       4585  
      4454       4455       4466       4465       4575       4576       4587       4586  
      4456       4457       4468       4467       4577       4578       4589       4588  
      4457       4458       4469       4468       4578       4579       4590       4589  
      4458       4459       4470       4469       4579       4580       4591       4590  
      4459       4460       4471       4470       4580       4581       4592       4591  
      4460       4461       4472       4471       4581       4582       4593       4592  
      4461       4462       4473       4472       4582       4583       4594       4593  
      4462       4463       4474       4473       4583       4584       4595       4594  
      4463       4464       4475       4474       4584       4585       4596       4595  
      4464       4465       4476       4475       4585       4586       4597       4596  
      4465       4466       4477       4476       4586       4587       4598       4597  
      4478       4479       4490       4489       4599       4600       4611       4610  
      4479       4480       4491       4490       4600       4601       4612       4611  
      4480       4481       4492       4491       4601       4602       4613       4612  
      4481       4482       4493       4492       4602       4603       4614       4613  
      4482       4483       4494       4493       4603       4604       4615       4614  
      4483       4484       4495       4494       4604       4605       4616       4615  
      4484       4485       4496       4495       4605       4606       4617       4616  
      4485       4486       4497       4496       4606       4607       4618       4617  
      4486       4487       4498       4497       4607       4608       4619       4618  
      4487       4488       4499       4498       4608       4609       4620       4619  
      4489       4490       4501       4500       4610       4611       4622       4621  
      4490       4491       4502       4501       4611       4612       4623       4622  
      4491       4492       4503       4502       4612       4613       4624       4623  
      4492       4493       4504       4503       4613       4614       4625       4624  
      4493       4494       4505       4504       4614       4615       4626       4625  
      4494       4495       4506       4505       4615       4616       4627       4626  
      4495       4496       4507       4506       4616       4617       4628       4627  
      4496       4497       4508       4507       4617       4618       4629       4628  
      4497       4498       4509       4508       4618       4619       4630       4629  
      4498       4499       4510       4509       4619       4620       4631       4630  
      4500       4501       4512       4511       4621       4622       4633       4632  
      4501       4502       4513       4512       4622       4623       4634       4633  
      4502       4503       4514       4513       4623       4624       4635       4634  
      4503       4504       4515       4514       4624       4625       4636       4635  
      4504       4505       4516       4515       4625       4626       4637       4636  
      4505       4506       4517       4516       4626       4627       4638       4637  
      4506       4507       4518       4517       4627       4628       4639       4638  
      4507       4508       4519       4518       4628       4629       4640       4639  
      4508       4509       4520       4519       4629       4630       4641       4640  
      4509       4510       4521       4520       4630       4631       4642       4641  
      4511       4512       4523       4522       4632       4633       4644       4643  
      4512       4513       4524       4523       4633       4634       4645       4644  
      4513       4514       4525       4524       4634       4635       4646       4645  
      4514       4515       4526       4525       4635       4636       4647       4646  
      4515       4516       4527       4526       4636       4637       4648       4647  
      4516       4517       4528       4527       4637       4638       4649       4648  
      4517       4518       4529       4528       4638       4639       4650       4649  
      4518       4519       4530       4529       4639       4640       4651       4650  
      4519       4520       4531       4530       4640       4641       4652       4651  
      4520       4521       4532       4531       4641       4642       4653       4652  
      4522       4523       4534       4533       4643       4644       4655       4654  
      4523       4524       4535       4534       4644       4645       4656       4655  
      4524       4525       4536       4535       4645       4646       4657       4656  
      4525       4526       4537       4536       4646       4647       4658       4657  
      4526       4527       4538       4537       4647       4648       4659       4658  
      4527       4528       4539       4538       4648       4649       4660       4659  
      4528       4529       4540       4539       4649       4650       4661       4660  
      4529       4530       4541       4540       4650       4651       4662       4661  
      4530       4531       4542       4541       4651       4652       4663       4662  
      4531       4532       4543       4542       4652       4653       4664       4663  
      4533       4534       4545       4544       4654       4655       4666       4665  
      4534       4535       4546       4545       4655       4656       4667       4666  
      4535       4536       4547       4546       4656       4657       4668       4667  
      4536       4537       4548       4547       4657       4658       4669       4668  
      4537       4538       4549       4548       4658       4659       4670       4669  
      4538       4539       4550       4549       4659       4660       4671       4670  
      4539       4540       4551       4550       4660       4661       4672       4671  
      4540       4541       4552       4551       4661       4662       4673       4672  
      4541       4542       4553       4552       4662       4663       4674       4673  
      4542       4543       4554       4553       4663       4664       4675       4674  
      4544       4545       4556       4555       4665       4666       4677       4676  
      4545       4546       4557       4556       4666       4667       4678       4677  
      4546       4547       4558       4557       4667       4668       4679       4678  
      4547       4548       4559       4558       4668       4669       4680       4679  
      4548       4549       4560       4559       4669       4670       4681       4680  
      4549       4550       4561       4560       4670       4671       4682       4681  
      4550       4551       4562       4561       4671       4672       4683       4682  
      4551       4552       4563       4562       4672       4673       4684       4683  
      4552       4553       4564       4563       4673       4674       4685       4684  
      4553       4554       4565       4564       4674       4675       4686       4685  
      4555       4556       4567       4566       4676       4677       4688       4687  
      4556       4557       4568       4567       4677       4678       4689       4688  
      4557       4558       4569       4568       4678       4679       4690       4689  
      4558       4559       4570       4569       4679       4680       4691       4690  
      4559       4560       4571       4570       4680       4681       4692       4691  
      4560       4561       4572       4571       4681       4682       4693       4692  
      4561       4562       4573       4572       4682       4683       4694       4693  
      4562       4563       4574       4573       4683       4684       4695       4694  
      4563       4564       4575       4574       4684       4685       4696       4695  
      4564       4565       4576       4575       4685       4686       4697       4696  
      4566       4567       4578       4577       4687       4688       4699       4698  
      4567       4568       4579       4578       4688       4689       4700       4699  
      4568       4569       4580       4579       4689       4690       4701       4700  
      4569       4570       4581       4580       4690       4691       4702       4701  
      4570       4571       4582       4581       4691       4692       4703       4702  
      4571       4572       4583       4582       4692       4693       4704       4703  
      4572       4573       4584       4583       4693       4694       4705       4704  
      4573       4574       4585       4584       4694       4695       4706       4705  
      4574       4575       4586       4585       4695       4696       4707       4706  
      4575       4576       4587       4586       4696       4697       4708       4707  
      4577       4578       4589       4588       4698       4699       4710       4709  
      4578       4579       4590       4589       4699       4700       4711       4710  
      4579       4580       4591       4590       4700       4701       4712       4711  
      4580       4581       4592       4591       4701       4702       4713       4712  
      4581       4582       4593       4592       4702       4703       4714       4713  
      4582       4583       4594       4593       4703       4704       4715       4714  
      4583       4584       4595       4594       4704       4705       4716       4715  
      4584       4585       4596       4595       4705       4706       4717       4716  
      4585       4586       4597       4596       4706       4707       4718       4717  
      4586       4587       4598       4597       4707       4708       4719       4718  
      4599       4600       4611       4610       4720       4721       4732       4731  
      4600       4601       4612       4611       4721       4722       4733       4732  
      4601       4602       4613       4612       4722       4723       4734       4733  
      4602       4603       4614       4613       4723       4724       4735       4734  
      4603       4604       4615       4614       4724       4725       4736       4735  
      4604       4605       4616       4615       4725       4726       4737       4736  
      4605       4606       4617       4616       4726       4727       4738       4737  
      4606       4607       4618       4617       4727       4728       4739       4738  
      4607       4608       4619       4618       4728       4729       4740       4739  
      4608       4609       4620       4619       4729       4730       4741       4740  
      4610       4611       4622       4621       4731       4732       4743       4742  
      4611       4612       4623       4622       4732       4733       4744       4743  
      4612       4613       4624       4623       4733       4734       4745       4744  
      4613       4614       4625       4624       4734       4735       4746       4745  
      4614       4615       4626       4625       4735       4736       4747       4746  
      4615       4616       4627       4626       4736       4737       4748       4747  
      4616       4617       4628       4627       4737       4738       4749       4748  
      4617       4618       4629       4628       4738       4739       4750       4749  
      4618       4619       4630       4629       4739       4740       4751       4750  
      4619       4620       4631       4630       4740       4741       4752       4751  
      4621       4622       4633       4632       4742       4743       4754       4753  
      4622       4623       4634       4633       4743       4744       4755       4754  
      4623       4624       4635       4634       4744       4745       4756       4755  
      4624       4625       4636       4635       4745       4746       4757       4756  
      4625       4626       4637       4636       4746       4747       4758       4757  
      4626       4627       4638       4637       4747       4748       4759       4758  
      4627       4628       4639       4638       4748       4749       4760       4759  
      4628       4629       4640       4639       4749       4750       4761       4760  
      4629       4630       4641       4640       4750       4751       4762       4761  
      4630       4631       4642       4641       4751       4752       4763       4762  
      4632       4633       4644       4643       4753       4754       4765       4764  
      4633       4634       4645       4644       4754       4755       4766       4765  
      4634       4635       4646       4645       4755       4756       4767       4766  
      4635       4636       4647       4646       4756       4757       4768       4767  
      4636       4637       4648       4647       4757       4758       4769       4768  
      4637       4638       4649       4648       4758       4759       4770       4769  
      4638       4639       4650       4649       4759       4760       4771       4770  
      4639       4640       4651       4650       4760       4761       4772       4771  
      4640       4641       4652       4651       4761       4762       4773       4772  
      4641       4642       4653       4652       4762       4763       4774       4773  
      4643       4644       4655       4654       4764       4765       4776       4775  
      4644       4645       4656       4655       4765       4766       4777       4776  
      4645       4646       4657       4656       4766       4767       4778       4777  
      4646       4647       4658       4657       4767       4768       4779       4778  
      4647       4648       4659       4658       4768       4769       4780       4779  
      4648       4649       4660       4659       4769       4770       4781       4780  
      4649       4650       4661       4660       4770       4771       4782       4781  
      4650       4651       4662       4661       4771       4772       4783       4782  
      4651       4652       4663       4662       4772       4773       4784       4783  
      4652       4653       4664       4663       4773       4774       4785       4784  
      4654       4655       4666       4665       4775       4776       4787       4786  
      4655       4656       4667       4666       4776       4777       4788       4787  
      4656       4657       4668       4667       4777       4778       4789       4788  
      4657       4658       4669       4668       4778       4779       4790       4789  
      4658       4659       4670       4669       4779       4780       4791       4790  
      4659       4660       4671       4670       4780       4781       4792       4791  
      4660       4661       4672       4671       4781       4782       4793       4792  
      4661       4662       4673       4672       4782       4783       4794       4793  
      4662       4663       4674       4673       4783       4784       4795       4794  
      4663       4664       4675       4674       4784       4785       4796       4795  
      4665       4666       4677       4676       4786       4787       4798       4797  
      4666       4667       4678       4677       4787       4788       4799       4798  
      4667       4668       4679       4678       4788       4789       4800       4799  
      4668       4669       4680       4679       4789       4790       4801       4800  
      4669       4670       4681       4680       4790       4791       4802       4801  
      4670       4671       4682       4681       4791       4792       4803       4802  
      4671       4672       4683       4682       4792       4793       4804       4803  
      4672       4673       4684       4683       4793       4794       4805       4804  
      4673       4674       4685       4684       4794       4795       4806       4805  
      4674       4675       4686       4685       4795       4796       4807       4806  
      4676       4677       4688       4687       4797       4798       4809       4808  
      4677       4678       4689       4688       4798       4799       4810       4809  
      4678       4679       4690       4689       4799       4800       4811       4810  
      4679       4680       4691       4690       4800       4801       4812       4811  
      4680       4681       4692       4691       4801       4802       4813       4812  
      4681       4682       4693       4692       4802       4803       4814       4813  
      4682       4683       4694       4693       4803       4804       4815       4814  
      4683       4684       4695       4694       4804       4805       4816       4815  
      4684       4685       4696       4695       4805       4806       4817       4816  
      4685       4686       4697       4696       4806       4807       4818       4817  
      4687       4688       4699       4698       4808       4809       4820       4819  
      4688       4689       4700       4699       4809       4810       4821       4820  
      4689       4690       4701       4700       4810       4811       4822       4821  
      4690       4691       4702       4701       4811       4812       4823       4822  
      4691       4692       4703       4702       4812       4813       4824       4823  
      4692       4693       4704       4703       4813       4814       4825       4824  
      4693       4694       4705       4704       4814       4815       4826       4825  
      4694       4695       4706       4705       4815       4816       4827       4826  
      4695       4696       4707       4706       4816       4817       4828       4827  
      4696       4697       4708       4707       4817       4818       4829       4828  
      4698       4699       4710       4709       4819       4820       4831       4830  
      4699       4700       4711       4710       4820       4821       4832       4831  
      4700       4701       4712       4711       4821       4822       4833       4832  
      4701       4702       4713       4712       4822       4823       4834       4833  
      4702       4703       4714       4713       4823       4824       4835       4834  
      4703       4704       4715       4714       4824       4825       4836       4835  
      4704       4705       4716       4715       4825       4826       4837       4836  
      4705       4706       4717       4716       4826       4827       4838       4837  
      4706       4707       4718       4717       4827       4828       4839       4838  
      4707       4708       4719       4718       4828       4829       4840       4839  
      4720       4721       4732       4731       4841       4842       4853       4852  
      4721       4722       4733       4732       4842       4843       4854       4853  
      4722       4723       4734       4733       4843       4844       4855       4854  
      4723       4724       4735       4734       4844       4845       4856       4855  
      4724       4725       4736       4735       4845       4846       4857       4856  
      4725       4726       4737       4736       4846       4847       4858       4857  
      4726       4727       4738       4737       4847       4848       4859       4858  
      4727       4728       4739       4738       4848       4849       4860       4859  
      4728       4729       4740       4739       4849       4850       4861       4860  
      4729       4730       4741       4740       4850       4851       4862       4861  
      4731       4732       4743       4742       4852       4853       4864       4863  
      4732       4733       4744       4743       4853       4854       4865       4864  
      4733       4734       4745       4744       4854       4855       4866       4865  
      4734       4735       4746       4745       4855       4856       4867       4866  
      4735       4736       4747       4746       4856       4857       4868       4867  
      4736       4737       4748       4747       4857       4858       4869       4868  
      4737       4738       4749       4748       4858       4859       4870       4869  
      4738       4739       4750       4749       4859       4860       4871       4870  
      4739       4740       4751       4750       4860       4861       4872       4871  
      4740       4741       4752       4751       4861       4862       4873       4872  
      4742       4743       4754       4753       4863       4864       4875       4874  
      4743       4744       4755       4754       4864       4865       4876       4875  
      4744       4745       4756       4755       4865       4866       4877       4876  
      4745       4746       4757       4756       4866       4867       4878       4877  
      4746       4747       4758       4757       4867       4868       4879       4878  
      4747       4748       4759       4758       4868       4869       4880       4879  
      4748       4749       4760       4759       4869       4870       4881       4880  
      4749       4750       4761       4760       4870       4871       4882       4881  
      4750       4751       4762       4761       4871       4872       4883       4882  
      4751       4752       4763       4762       4872       4873       4884       4883  
      4753       4754       4765       4764       4874       4875       4886       4885  
      4754       4755       4766       4765       4875       4876       4887       4886  
      4755       4756       4767       4766       4876       4877       4888       4887  
      4756       4757       4768       4767       4877       4878       4889       4888  
      4757       4758       4769       4768       4878       4879       4890       4889  
      4758       4759       4770       4769       4879       4880       4891       4890  
      4759       4760       4771       4770       4880       4881       4892       4891  
      4760       4761       4772       4771       4881       4882       4893       4892  
      4761       4762       4773       4772       4882       4883       4894       4893  
      4762       4763       4774       4773       4883       4884       4895       4894  
      4764       4765       4776       4775       4885       4886       4897       4896  
      4765       4766       4777       4776       4886       4887       4898       4897  
      4766       4767       4778       4777       4887       4888       4899       4898  
      4767       4768       4779       4778       4888       4889       4900       4899  
      4768       4769       4780       4779       4889       4890       4901       4900  
      4769       4770       4781       4780       4890       4891       4902       4901  
      4770       4771       4782       4781       4891       4892       4903       4902  
      4771       4772       4783       4782       4892       4893       4904       4903  
      4772       4773       4784       4783       4893       4894       4905       4904  
      4773       4774       4785       4784       4894       4895       4906       4905  
      4775       4776       4787       4786       4896       4897       4908       4907  
      4776       4777       4788       4787       4897       4898       4909       4908  
      4777       4778       4789       4788       4898       4899       4910       4909  
      4778       4779       4790       4789       4899       4900       4911       4910  
      4779       4780       4791       4790       4900       4901       4912       4911  
      4780       4781       4792       4791       4901       4902       4913       4912  
      4781       4782       4793       4792       4902       4903       4914       4913  
      4782       4783       4794       4793       4903       4904       4915       4914  
      4783       4784       4795       4794       4904       4905       4916       4915  
      4784       4785       4796       4795       4905       4906       4917       4916  
      4786       4787       4798       4797       4907       4908       4919       4918  
      4787       4788       4799       4798       4908       4909       4920       4919  
      4788       4789       4800       4799       4909       4910       4921       4920  
      4789       4790       4801       4800       4910       4911       4922       4921  
      4790       4791       4802       4801       4911       4912       4923       4922  
      4791       4792       4803       4802       4912       4913       4924       4923  
      4792       4793       4804       4803       4913       4914       4925       4924  
      4793       4794       4805       4804       4914       4915       4926       4925  
      4794       4795       4806       4805       4915       4916       4927       4926  
      4795       4796       4807       4806       4916       4917       4928       4927  
      4797       4798       4809       4808       4918       4919       4930       4929  
      4798       4799       4810       4809       4919       4920       4931       4930  
      4799       4800       4811       4810       4920       4921       4932       4931  
      4800       4801       4812       4811       4921       4922       4933       4932  
      4801       4802       4813       4812       4922       4923       4934       4933  
      4802       4803       4814       4813       4923       4924       4935       4934  
      4803       4804       4815       4814       4924       4925       4936       4935  
      4804       4805       4816       4815       4925       4926       4937       4936  
      4805       4806       4817       4816       4926       4927       4938       4937  
      4806       4807       4818       4817       4927       4928       4939       4938  
      4808       4809       4820       4819       4929       4930       4941       4940  
      4809       4810       4821       4820       4930       4931       4942       4941  
      4810       4811       4822       4821       4931       4932       4943       4942  
      4811       4812       4823       4822       4932       4933       4944       4943  
      4812       4813       4824       4823       4933       4934       4945       4944  
      4813       4814       4825       4824       4934       4935       4946       4945  
      4814       4815       4826       4825       4935       4936       4947       4946  
      4815       4816       4827       4826       4936       4937       4948       4947  
      4816       4817       4828       4827       4937       4938       4949       4948  
      4817       4818       4829       4828       4938       4939       4950       4949  
      4819       4820       4831       4830       4940       4941       4952       4951  
      4820       4821       4832       4831       4941       4942       4953       4952  
      4821       4822       4833       4832       4942       4943       4954       4953  
      4822       4823       4834       4833       4943       4944       4955       4954  
      4823       4824       4835       4834       4944       4945       4956       4955  
      4824       4825       4836       4835       4945       4946       4957       4956  
      4825       4826       4837       4836       4946       4947       4958       4957  
      4826       4827       4838       4837       4947       4948       4959       4958  
      4827       4828       4839       4838       4948       4949       4960       4959  
      4828       4829       4840       4839       4949       4950       4961       4960  
      4841       4842       4853       4852       4962       4963       4974       4973  
      4842       4843       4854       4853       4963       4964       4975       4974  
      4843       4844       4855       4854       4964       4965       4976       4975  
      4844       4845       4856       4855       4965       4966       4977       4976  
      4845       4846       4857       4856       4966       4967       4978       4977  
      4846       4847       4858       4857       4967       4968       4979       4978  
      4847       4848       4859       4858       4968       4969       4980       4979  
      4848       4849       4860       4859       4969       4970       4981       4980  
      4849       4850       4861       4860       4970       4971       4982       4981  
      4850       4851       4862       4861       4971       4972       4983       4982  
      4852       4853       4864       4863       4973       4974       4985       4984  
      4853       4854       4865       4864       4974       4975       4986       4985  
      4854       4855       4866       4865       4975       4976       4987       4986  
      4855       4856       4867       4866       4976       4977       4988       4987  
      4856       4857       4868       4867       4977       4978       4989       4988  
      4857       4858       4869       4868       4978       4979       4990       4989  
      4858       4859       4870       4869       4979       4980       4991       4990  
      4859       4860       4871       4870       4980       4981       4992       4991  
      4860       4861       4872       4871       4981       4982       4993       4992  
      4861       4862       4873       4872       4982       4983       4994       4993  
      4863       4864       4875       4874       4984       4985       4996       4995  
      4864       4865       4876       4875       4985       4986       4997       4996  
      4865       4866       4877       4876       4986       4987       4998       4997  
      4866       4867       4878       4877       4987       4988       4999       4998  
      4867       4868       4879       4878       4988       4989       5000       4999  
      4868       4869       4880       4879       4989       4990       5001       5000  
      4869       4870       4881       4880       4990       4991       5002       5001  
      4870       4871       4882       4881       4991       4992       5003       5002  
      4871       4872       4883       4882       4992       4993       5004       5003  
      4872       4873       4884       4883       4993       4994       5005       5004  
      4874       4875       4886       4885       4995       4996       5007       5006  
      4875       4876       4887       4886       4996       4997       5008       5007  
      4876       4877       4888       4887       4997       4998       5009       5008  
      4877       4878       4889       4888       4998       4999       5010       5009  
      4878       4879       4890       4889       4999       5000       5011       5010  
      4879       4880       4891       4890       5000       5001       5012       5011  
      4880       4881       4892       4891       5001       5002       5013       5012  
      4881       4882       4893       4892       5002       5003       5014       5013  
      4882       4883       4894       4893       5003       5004       5015       5014  
      4883       4884       4895       4894       5004       5005       5016       5015  
      4885       4886       4897       4896       5006       5007       5018       5017  
      4886       4887       4898       4897       5007       5008       5019       5018  
      4887       4888       4899       4898       5008       5009       5020       5019  
      4888       4889       4900       4899       5009       5010       5021       5020  
      4889       4890       4901       4900       5010       5011       5022       5021  
      4890       4891       4902       4901       5011       5012       5023       5022  
      4891       4892       4903       4902       5012       5013       5024       5023  
      4892       4893       4904       4903       5013       5014       5025       5024  
      4893       4894       4905       4904       5014       5015       5026       5025  
      4894       4895       4906       4905       5015       5016       5027       5026  
      4896       4897       4908       4907       5017       5018       5029       5028  
      4897       4898       4909       4908       5018       5019       5030       5029  
      4898       4899       4910       4909       5019       5020       5031       5030  
      4899       4900       4911       4910       5020       5021       5032       5031  
      4900       4901       4912       4911       5021       5022       5033       5032  
      4901       4902       4913       4912       5022       5023       5034       5033  
      4902       4903       4914       4913       5023       5024       5035       5034  
      4903       4904       4915       4914       5024       5025       5036       5035  
      4904       4905       4916       4915       5025       5026       5037       5036  
      4905       4906       4917       4916       5026       5027       5038       5037  
      4907       4908       4919       4918       5028       5029       5040       5039  
      4908       4909       4920       4919       5029       5030       5041       5040  
      4909       4910       4921       4920       5030       5031       5042       5041  
      4910       4911       4922       4921       5031       5032       5043       5042  
      4911       4912       4923       4922       5032       5033       5044       5043  
      4912       4913       4924       4923       5033       5034       5045       5044  
      4913       4914       4925       4924       5034       5035       5046       5045  
      4914       4915       4926       4925       5035       5036       5047       5046  
      4915       4916       4927       4926       5036       5037       5048       5047  
      4916       4917       4928       4927       5037       5038       5049       5048  
      4918       4919       4930       4929       5039       5040       5051       5050  
      4919       4920       4931       4930       5040       5041       5052       5051  
      4920       4921       4932       4931       5041       5042       5053       5052  
      4921       4922       4933       4932       5042       5043       5054       5053  
      4922       4923       4934       4933       5043       5044       5055       5054  
      4923       4924       4935       4934       5044       5045       5056       5055  
      4924       4925       4936       4935       5045       5046       5057       5056  
      4925       4926       4937       4936       5046       5047       5058       5057  
      4926       4927       4938       4937       5047       5048       5059       5058  
      4927       4928       4939       4938       5048       5049       5060       5059  
      4929       4930       4941       4940       5050       5051       5062       5061  
      4930       4931       4942       4941       5051       5052       5063       5062  
      4931       4932       4943       4942       5052       5053       5064       5063  
      4932       4933       4944       4943       5053       5054       5065       5064  
      4933       4934       4945       4944       5054       5055       5066       5065  
      4934       4935       4946       4945       5055       5056       5067       5066  
      4935       4936       4947       4946       5056       5057       5068       5067  
      4936       4937       4948       4947       5057       5058       5069       5068  
      4937       4938       4949       4948       5058       5059       5070       5069  
      4938       4939       4950       4949       5059       5060       5071       5070  
      4940       4941       4952       4951       5061       5062       5073       5072  
      4941       4942       4953       4952       5062       5063       5074       5073  
      4942       4943       4954       4953       5063       5064       5075       5074  
      4943       4944       4955       4954       5064       5065       5076       5075  
      4944       4945       4956       4955       5065       5066       5077       5076  
      4945       4946       4957       4956       5066       5067       5078       5077  
      4946       4947       4958       4957       5067       5068       5079       5078  
      4947       4948       4959       4958       5068       5069       5080       5079  
      4948       4949       4960       4959       5069       5070       5081       5080  
      4949       4950       4961       4960       5070       5071       5082       5081  
      4962       4963       4974       4973       5083       5084       5095       5094  
      4963       4964       4975       4974       5084       5085       5096       5095  
      4964       4965       4976       4975       5085       5086       5097       5096  
      4965       4966       4977       4976       5086       5087       5098       5097  
      4966       4967       4978       4977       5087       5088       5099       5098  
      4967       4968       4979       4978       5088       5089       5100       5099  
      4968       4969       4980       4979       5089       5090       5101       5100  
      4969       4970       4981       4980       5090       5091       5102       5101  
      4970       4971       4982       4981       5091       5092       5103       5102  
      4971       4972       4983       4982       5092       5093       5104       5103  
      4973       4974       4985       4984       5094       5095       5106       5105  
      4974       4975       4986       4985       5095       5096       5107       5106  
      4975       4976       4987       4986       5096       5097       5108       5107  
      4976       4977       4988       4987       5097       5098       5109       5108  
      4977       4978       4989       4988       5098       5099       5110       5109  
      4978       4979       4990       4989       5099       5100       5111       5110  
      4979       4980       4991       4990       5100       5101       5112       5111  
      4980       4981       4992       4991       5101       5102       5113       5112  
      4981       4982       4993       4992       5102       5103       5114       5113  
      4982       4983       4994       4993       5103       5104       5115       5114  
      4984       4985       4996       4995       5105       5106       5117       5116  
      4985       4986       4997       4996       5106       5107       5118       5117  
      4986       4987       4998       4997       5107       5108       5119       5118  
      4987       4988       4999       4998       5108       5109       5120       5119  
      4988       4989       5000       4999       5109       5110       5121       5120  
      4989       4990       5001       5000       5110       5111       5122       5121  
      4990       4991       5002       5001       5111       5112       5123       5122  
      4991       4992       5003       5002       5112       5113       5124       5123  
      4992       4993       5004       5003       5113       5114       5125       5124  
      4993       4994       5005       5004       5114       5115       5126       5125  
      4995       4996       5007       5006       5116       5117       5128       5127  
      4996       4997       5008       5007       5117       5118       5129       5128  
      4997       4998       5009       5008       5118       5119       5130       5129  
      4998       4999       5010       5009       5119       5120       5131       5130  
      4999       5000       5011       5010       5120       5121       5132       5131  
      5000       5001       5012       5011       5121       5122       5133       5132  
      5001       5002       5013       5012       5122       5123       5134       5133  
      5002       5003       5014       5013       5123       5124       5135       5134  
      5003       5004       5015       5014       5124       5125       5136       5135  
      5004       5005       5016       5015       5125       5126       5137       5136  
      5006       5007       5018       5017       5127       5128       5139       5138  
      5007       5008       5019       5018       5128       5129       5140       5139  
      5008       5009       5020       5019       5129       5130       5141       5140  
      5009       5010       5021       5020       5130       5131       5142       5141  
      5010       5011       5022       5021       5131       5132       5143       5142  
      5011       5012       5023       5022       5132       5133       5144       5143  
      5012       5013       5024       5023       5133       5134       5145       5144  
      5013       5014       5025       5024       5134       5135       5146       5145  
      5014       5015       5026       5025       5135       5136       5147       5146  
      5015       5016       5027       5026       5136       5137       5148       5147  
      5017       5018       5029       5028       5138       5139       5150       5149  
      5018       5019       5030       5029       5139       5140       5151       5150  
      5019       5020       5031       5030       5140       5141       5152       5151  
      5020       5021       5032       5031       5141       5142       5153       5152  
      5021       5022       5033       5032       5142       5143       5154       5153  
      5022       5023       5034       5033       5143       5144       5155       5154  
      5023       5024       5035       5034       5144       5145       5156       5155  
      5024       5025       5036       5035       5145       5146       5157       5156  
      5025       5026       5037       5036       5146       5147       5158       5157  
      5026       5027       5038       5037       5147       5148       5159       5158  
      5028       5029       5040       5039       5149       5150       5161       5160  
      5029       5030       5041       5040       5150       5151       5162       5161  
      5030       5031       5042       5041       5151       5152       5163       5162  
      5031       5032       5043       5042       5152       5153       5164       5163  
      5032       5033       5044       5043       5153       5154       5165       5164  
      5033       5034       5045       5044       5154       5155       5166       5165  
      5034       5035       5046       5045       5155       5156       5167       5166  
      5035       5036       5047       5046       5156       5157       5168       5167  
      5036       5037       5048       5047       5157       5158       5169       5168  
      5037       5038       5049       5048       5158       5159       5170       5169  
      5039       5040       5051       5050       5160       5161       5172       5171  
      5040       5041       5052       5051       5161       5162       5173       5172  
      5041       5042       5053       5052       5162       5163       5174       5173  
      5042       5043       5054       5053       5163       5164       5175       5174  
      5043       5044       5055       5054       5164       5165       5176       5175  
      5044       5045       5056       5055       5165       5166       5177       5176  
      5045       5046       5057       5056       5166       5167       5178       5177  
      5046       5047       5058       5057       5167       5168       5179       5178  
      5047       5048       5059       5058       5168       5169       5180       5179  
      5048       5049       5060       5059       5169       5170       5181       5180  
      5050       5051       5062       5061       5171       5172       5183       5182  
      5051       5052       5063       5062       5172       5173       5184       5183  
      5052       5053       5064       5063       5173       5174       5185       5184  
      5053       5054       5065       5064       5174       5175       5186       5185  
      5054       5055       5066       5065       5175       5176       5187       5186  
      5055       5056       5067       5066       5176       5177       5188       5187  
      5056       5057       5068       5067       5177       5178       5189       5188  
      5057       5058       5069       5068       5178       5179       5190       5189  
      5058       5059       5070       5069       5179       5180       5191       5190  
      5059       5060       5071       5070       5180       5181       5192       5191  
      5061       5062       5073       5072       5182       5183       5194       5193  
      5062       5063       5074       5073       5183       5184       5195       5194  
      5063       5064       5075       5074       5184       5185       5196       5195  
      5064       5065       5076       5075       5185       5186       5197       5196  
      5065       5066       5077       5076       5186       5187       5198       5197  
      5066       5067       5078       5077       5187       5188       5199       5198  
      5067       5068       5079       5078       5188       5189       5200       5199  
      5068       5069       5080       5079       5189       5190       5201       5200  
      5069       5070       5081       5080       5190       5191       5202       5201  
      5070       5071       5082       5081       5191       5192       5203       5202  
      5083       5084       5095       5094       5204       5205       5216       5215  
      5084       5085       5096       5095       5205       5206       5217       5216  
      5085       5086       5097       5096       5206       5207       5218       5217  
      5086       5087       5098       5097       5207       5208       5219       5218  
      5087       5088       5099       5098       5208       5209       5220       5219  
      5088       5089       5100       5099       5209       5210       5221       5220  
      5089       5090       5101       5100       5210       5211       5222       5221  
      5090       5091       5102       5101       5211       5212       5223       5222  
      5091       5092       5103       5102       5212       5213       5224       5223  
      5092       5093       5104       5103       5213       5214       5225       5224  
      5094       5095       5106       5105       5215       5216       5227       5226  
      5095       5096       5107       5106       5216       5217       5228       5227  
      5096       5097       5108       5107       5217       5218       5229       5228  
      5097       5098       5109       5108       5218       5219       5230       5229  
      5098       5099       5110       5109       5219       5220       5231       5230  
      5099       5100       5111       5110       5220       5221       5232       5231  
      5100       5101       5112       5111       5221       5222       5233       5232  
      5101       5102       5113       5112       5222       5223       5234       5233  
      5102       5103       5114       5113       5223       5224       5235       5234  
      5103       5104       5115       5114       5224       5225       5236       5235  
      5105       5106       5117       5116       5226       5227       5238       5237  
      5106       5107       5118       5117       5227       5228       5239       5238  
      5107       5108       5119       5118       5228       5229       5240       5239  
      5108       5109       5120       5119       5229       5230       5241       5240  
      5109       5110       5121       5120       5230       5231       5242       5241  
      5110       5111       5122       5121       5231       5232       5243       5242  
      5111       5112       5123       5122       5232       5233       5244       5243  
      5112       5113       5124       5123       5233       5234       5245       5244  
      5113       5114       5125       5124       5234       5235       5246       5245  
      5114       5115       5126       5125       5235       5236       5247       5246  
      5116       5117       5128       5127       5237       5238       5249       5248  
      5117       5118       5129       5128       5238       5239       5250       5249  
      5118       5119       5130       5129       5239       5240       5251       5250  
      5119       5120       5131       5130       5240       5241       5252       5251  
      5120       5121       5132       5131       5241       5242       5253       5252  
      5121       5122       5133       5132       5242       5243       5254       5253  
      5122       5123       5134       5133       5243       5244       5255       5254  
      5123       5124       5135       5134       5244       5245       5256       5255  
      5124       5125       5136       5135       5245       5246       5257       5256  
      5125       5126       5137       5136       5246       5247       5258       5257  
      5127       5128       5139       5138       5248       5249       5260       5259  
      5128       5129       5140       5139       5249       5250       5261       5260  
      5129       5130       5141       5140       5250       5251       5262       5261  
      5130       5131       5142       5141       5251       5252       5263       5262  
      5131       5132       5143       5142       5252       5253       5264       5263  
      5132       5133       5144       5143       5253       5254       5265       5264  
      5133       5134       5145       5144       5254       5255       5266       5265  
      5134       5135       5146       5145       5255       5256       5267       5266  
      5135       5136       5147       5146       5256       5257       5268       5267  
      5136       5137       5148       5147       5257       5258       5269       5268  
      5138       5139       5150       5149       5259       5260       5271       5270  
      5139       5140       5151       5150       5260       5261       5272       5271  
      5140       5141       5152       5151       5261       5262       5273       5272  
      5141       5142       5153       5152       5262       5263       5274       5273  
      5142       5143       5154       5153       5263       5264       5275       5274  
      5143       5144       5155       5154       5264       5265       5276       5275  
      5144       5145       5156       5155       5265       5266       5277       5276  
      5145       5146       5157       5156       5266       5267       5278       5277  
      5146       5147       5158       5157       5267       5268       5279       5278  
      5147       5148       5159       5158       5268       5269       5280       5279  
      5149       5150       5161       5160       5270       5271       5282       5281  
      5150       5151       5162       5161       5271       5272       5283       5282  
      5151       5152       5163       5162       5272       5273       5284       5283  
      5152       5153       5164       5163       5273       5274       5285       5284  
      5153       5154       5165       5164       5274       5275       5286       5285  
      5154       5155       5166       5165       5275       5276       5287       5286  
      5155       5156       5167       5166       5276       5277       5288       5287  
      5156       5157       5168       5167       5277       5278       5289       5288  
      5157       5158       5169       5168       5278       5279       5290       5289  
      5158       5159       5170       5169       5279       5280       5291       5290  
      5160       5161       5172       5171       5281       5282       5293       5292  
      5161       5162       5173       5172       5282       5283       5294       5293  
      5162       5163       5174       5173       5283       5284       5295       5294  
      5163       5164       5175       5174       5284       5285       5296       5295  
      5164       5165       5176       5175       5285       5286       5297       5296  
      5165       5166       5177       5176       5286       5287       5298       5297  
      5166       5167       5178       5177       5287       5288       5299       5298  
      5167       5168       5179       5178       5288       5289       5300       5299  
      5168       5169       5180       5179       5289       5290       5301       5300  
      5169       5170       5181       5180       5290       5291       5302       5301  
      5171       5172       5183       5182       5292       5293       5304       5303  
      5172       5173       5184       5183       5293       5294       5305       5304  
      5173       5174       5185       5184       5294       5295       5306       5305  
      5174       5175       5186       5185       5295       5296       5307       5306  
      5175       5176       5187       5186       5296       5297       5308       5307  
      5176       5177       5188       5187       5297       5298       5309       5308  
      5177       5178       5189       5188       5298       5299       5310       5309  
      5178       5179       5190       5189       5299       5300       5311       5310  
      5179       5180       5191       5190       5300       5301       5312       5311  
      5180       5181       5192       5191       5301       5302       5313       5312  
      5182       5183       5194       5193       5303       5304       5315       5314  
      5183       5184       5195       5194       5304       5305       5316       5315  
      5184       5185       5196       5195       5305       5306       5317       5316  
      5185       5186       5197       5196       5306       5307       5318       5317  
      5186       5187       5198       5197       5307       5308       5319       5318  
      5187       5188       5199       5198       5308       5309       5320       5319  
      5188       5189       5200       5199       5309       5310       5321       5320  
      5189       5190       5201       5200       5310       5311       5322       5321  
      5190       5191       5202       5201       5311       5312       5323       5322  
      5191       5192       5203       5202       5312       5313       5324       5323  
      5204       5205       5216       5215       5325       5326       5337       5336  
      5205       5206       5217       5216       5326       5327       5338       5337  
      5206       5207       5218       5217       5327       5328       5339       5338  
      5207       5208       5219       5218       5328       5329       5340       5339  
      5208       5209       5220       5219       5329       5330       5341       5340  
      5209       5210       5221       5220       5330       5331       5342       5341  
      5210       5211       5222       5221       5331       5332       5343       5342  
      5211       5212       5223       5222       5332       5333       5344       5343  
      5212       5213       5224       5223       5333       5334       5345       5344  
      5213       5214       5225       5224       5334       5335       5346       5345  
      5215       5216       5227       5226       5336       5337       5348       5347  
      5216       5217       5228       5227       5337       5338       5349       5348  
      5217       5218       5229       5228       5338       5339       5350       5349  
      5218       5219       5230       5229       5339       5340       5351       5350  
      5219       5220       5231       5230       5340       5341       5352       5351  
      5220       5221       5232       5231       5341       5342       5353       5352  
      5221       5222       5233       5232       5342       5343       5354       5353  
      5222       5223       5234       5233       5343       5344       5355       5354  
      5223       5224       5235       5234       5344       5345       5356       5355  
      5224       5225       5236       5235       5345       5346       5357       5356  
      5226       5227       5238       5237       5347       5348       5359       5358  
      5227       5228       5239       5238       5348       5349       5360       5359  
      5228       5229       5240       5239       5349       5350       5361       5360  
      5229       5230       5241       5240       5350       5351       5362       5361  
      5230       5231       5242       5241       5351       5352       5363       5362  
      5231       5232       5243       5242       5352       5353       5364       5363  
      5232       5233       5244       5243       5353       5354       5365       5364  
      5233       5234       5245       5244       5354       5355       5366       5365  
      5234       5235       5246       5245       5355       5356       5367       5366  
      5235       5236       5247       5246       5356       5357       5368       5367  
      5237       5238       5249       5248       5358       5359       5370       5369  
      5238       5239       5250       5249       5359       5360       5371       5370  
      5239       5240       5251       5250       5360       5361       5372       5371  
      5240       5241       5252       5251       5361       5362       5373       5372  
      5241       5242       5253       5252       5362       5363       5374       5373  
      5242       5243       5254       5253       5363       5364       5375       5374  
      5243       5244       5255       5254       5364       5365       5376       5375  
      5244       5245       5256       5255       5365       5366       5377       5376  
      5245       5246       5257       5256       5366       5367       5378       5377  
      5246       5247       5258       5257       5367       5368       5379       5378  
      5248       5249       5260       5259       5369       5370       5381       5380  
      5249       5250       5261       5260       5370       5371       5382       5381  
      5250       5251       5262       5261       5371       5372       5383       5382  
      5251       5252       5263       5262       5372       5373       5384       5383  
      5252       5253       5264       5263       5373       5374       5385       5384  
      5253       5254       5265       5264       5374       5375       5386       5385  
      5254       5255       5266       5265       5375       5376       5387       5386  
      5255       5256       5267       5266       5376       5377       5388       5387  
      5256       5257       5268       5267       5377       5378       5389       5388  
      5257       5258       5269       5268       5378       5379       5390       5389  
      5259       5260       5271       5270       5380       5381       5392       5391  
      5260       5261       5272       5271       5381       5382       5393       5392  
      5261       5262       5273       5272       5382       5383       5394       5393  
      5262       5263       5274       5273       5383       5384       5395       5394  
      5263       5264       5275       5274       5384       5385       5396       5395  
      5264       5265       5276       5275       5385       5386       5397       5396  
      5265       5266       5277       5276       5386       5387       5398       5397  
      5266       5267       5278       5277       5387       5388       5399       5398  
      5267       5268       5279       5278       5388       5389       5400       5399  
      5268       5269       5280       5279       5389       5390       5401       5400  
      5270       5271       5282       5281       5391       5392       5403       5402  
      5271       5272       5283       5282       5392       5393       5404       5403  
      5272       5273       5284       5283       5393       5394       5405       5404  
      5273       5274       5285       5284       5394       5395       5406       5405  
      5274       5275       5286       5285       5395       5396       5407       5406  
      5275       5276       5287       5286       5396       5397       5408       5407  
      5276       5277       5288       5287       5397       5398       5409       5408  
      5277       5278       5289       5288       5398       5399       5410       5409  
      5278       5279       5290       5289       5399       5400       5411       5410  
      5279       5280       5291       5290       5400       5401       5412       5411  
      5281       5282       5293       5292       5402       5403       5414       5413  
      5282       5283       5294       5293       5403       5404       5415       5414  
      5283       5284       5295       5294       5404       5405       5416       5415  
      5284       5285       5296       5295       5405       5406       5417       5416  
      5285       5286       5297       5296       5406       5407       5418       5417  
      5286       5287       5298       5297       5407       5408       5419       5418  
      5287       5288       5299       5298       5408       5409       5420       5419  
      5288       5289       5300       5299       5409       5410       5421       5420  
      5289       5290       5301       5300       5410       5411       5422       5421  
      5290       5291       5302       5301       5411       5412       5423       5422  
      5292       5293       5304       5303       5413       5414       5425       5424  
      5293       5294       5305       5304       5414       5415       5426       5425  
      5294       5295       5306       5305       5415       5416       5427       5426  
      5295       5296       5307       5306       5416       5417       5428       5427  
      5296       5297       5308       5307       5417       5418       5429       5428  
      5297       5298       5309       5308       5418       5419       5430       5429  
      5298       5299       5310       5309       5419       5420       5431       5430  
      5299       5300       5311       5310       5420       5421       5432       5431  
      5300       5301       5312       5311       5421       5422       5433       5432  
      5301       5302       5313       5312       5422       5423       5434       5433  
      5303       5304       5315       5314       5424       5425       5436       5435  
      5304       5305       5316       5315       5425       5426       5437       5436  
      5305       5306       5317       5316       5426       5427       5438       5437  
      5306       5307       5318       5317       5427       5428       5439       5438  
      5307       5308       5319       5318       5428       5429       5440       5439  
      5308       5309       5320       5319       5429       5430       5441       5440  
      5309       5310       5321       5320       5430       5431       5442       5441  
      5310       5311       5322       5321       5431       5432       5443       5442  
      5311       5312       5323       5322       5432       5433       5444       5443  
      5312       5313       5324       5323       5433       5434       5445       5444  
      5325       5326       5337       5336       5446       5447       5458       5457  
      5326       5327       5338       5337       5447       5448       5459       5458  
      5327       5328       5339       5338       5448       5449       5460       5459  
      5328       5329       5340       5339       5449       5450       5461       5460  
      5329       5330       5341       5340       5450       5451       5462       5461  
      5330       5331       5342       5341       5451       5452       5463       5462  
      5331       5332       5343       5342       5452       5453       5464       5463  
      5332       5333       5344       5343       5453       5454       5465       5464  
      5333       5334       5345       5344       5454       5455       5466       5465  
      5334       5335       5346       5345       5455       5456       5467       5466  
      5336       5337       5348       5347       5457       5458       5469       5468  
      5337       5338       5349       5348       5458       5459       5470       5469  
      5338       5339       5350       5349       5459       5460       5471       5470  
      5339       5340       5351       5350       5460       5461       5472       5471  
      5340       5341       5352       5351       5461       5462       5473       5472  
      5341       5342       5353       5352       5462       5463       5474       5473  
      5342       5343       5354       5353       5463       5464       5475       5474  
      5343       5344       5355       5354       5464       5465       5476       5475  
      5344       5345       5356       5355       5465       5466       5477       5476  
      5345       5346       5357       5356       5466       5467       5478       5477  
      5347       5348       5359       5358       5468       5469       5480       5479  
      5348       5349       5360       5359       5469       5470       5481       5480  
      5349       5350       5361       5360       5470       5471       5482       5481  
      5350       5351       5362       5361       5471       5472       5483       5482  
      5351       5352       5363       5362       5472       5473       5484       5483  
      5352       5353       5364       5363       5473       5474       5485       5484  
      5353       5354       5365       5364       5474       5475       5486       5485  
      5354       5355       5366       5365       5475       5476       5487       5486  
      5355       5356       5367       5366       5476       5477       5488       5487  
      5356       5357       5368       5367       5477       5478       5489       5488  
      5358       5359       5370       5369       5479       5480       5491       5490  
      5359       5360       5371       5370       5480       5481       5492       5491  
      5360       5361       5372       5371       5481       5482       5493       5492  
      5361       5362       5373       5372       5482       5483       5494       5493  
      5362       5363       5374       5373       5483       5484       5495       5494  
      5363       5364       5375       5374       5484       5485       5496       5495  
      5364       5365       5376       5375       5485       5486       5497       5496  
      5365       5366       5377       5376       5486       5487       5498       5497  
      5366       5367       5378       5377       5487       5488       5499       5498  
      5367       5368       5379       5378       5488       5489       5500       5499  
      5369       5370       5381       5380       5490       5491       5502       5501  
      5370       5371       5382       5381       5491       5492       5503       5502  
      5371       5372       5383       5382       5492       5493       5504       5503  
      5372       5373       5384       5383       5493       5494       5505       5504  
      5373       5374       5385       5384       5494       5495       5506       5505  
      5374       5375       5386       5385       5495       5496       5507       5506  
      5375       5376       5387       5386       5496       5497       5508       5507  
      5376       5377       5388       5387       5497       5498       5509       5508  
      5377       5378       5389       5388       5498       5499       5510       5509  
      5378       5379       5390       5389       5499       5500       5511       5510  
      5380       5381       5392       5391       5501       5502       5513       5512  
      5381       5382       5393       5392       5502       5503       5514       5513  
      5382       5383       5394       5393       5503       5504       5515       5514  
      5383       5384       5395       5394       5504       5505       5516       5515  
      5384       5385       5396       5395       5505       5506       5517       5516  
      5385       5386       5397       5396       5506       5507       5518       5517  
      5386       5387       5398       5397       5507       5508       5519       5518  
      5387       5388       5399       5398       5508       5509       5520       5519  
      5388       5389       5400       5399       5509       5510       5521       5520  
      5389       5390       5401       5400       5510       5511       5522       5521  
      5391       5392       5403       5402       5512       5513       5524       5523  
      5392       5393       5404       5403       5513       5514       5525       5524  
      5393       5394       5405       5404       5514       5515       5526       5525  
      5394       5395       5406       5405       5515       5516       5527       5526  
      5395       5396       5407       5406       5516       5517       5528       5527  
      5396       5397       5408       5407       5517       5518       5529       5528  
      5397       5398       5409       5408       5518       5519       5530       5529  
      5398       5399       5410       5409       5519       5520       5531       5530  
      5399       5400       5411       5410       5520       5521       5532       5531  
      5400       5401       5412       5411       5521       5522       5533       5532  
      5402       5403       5414       5413       5523       5524       5535       5534  
      5403       5404       5415       5414       5524       5525       5536       5535  
      5404       5405       5416       5415       5525       5526       5537       5536  
      5405       5406       5417       5416       5526       5527       5538       5537  
      5406       5407       5418       5417       5527       5528       5539       5538  
      5407       5408       5419       5418       5528       5529       5540       5539  
      5408       5409       5420       5419       5529       5530       5541       5540  
      5409       5410       5421       5420       5530       5531       5542       5541  
      5410       5411       5422       5421       5531       5532       5543       5542  
      5411       5412       5423       5422       5532       5533       5544       5543  
      5413       5414       5425       5424       5534       5535       5546       5545  
      5414       5415       5426       5425       5535       5536       5547       5546  
      5415       5416       5427       5426       5536       5537       5548       5547  
      5416       5417       5428       5427       5537       5538       5549       5548  
      5417       5418       5429       5428       5538       5539       5550       5549  
      5418       5419       5430       5429       5539       5540       5551       5550  
      5419       5420       5431       5430       5540       5541       5552       5551  
      5420       5421       5432       5431       5541       5542       5553       5552  
      5421       5422       5433       5432       5542       5543       5554       5553  
      5422       5423       5434       5433       5543       5544       5555       5554  
      5424       5425       5436       5435       5545       5546       5557       5556  
      5425       5426       5437       5436       5546       5547       5558       5557  
      5426       5427       5438       5437       5547       5548       5559       5558  
      5427       5428       5439       5438       5548       5549       5560       5559  
      5428       5429       5440       5439       5549       5550       5561       5560  
      5429       5430       5441       5440       5550       5551       5562       5561  
      5430       5431       5442       5441       5551       5552       5563       5562  
      5431       5432       5443       5442       5552       5553       5564       5563  
      5432       5433       5444       5443       5553       5554       5565       5564  
      5433       5434       5445       5444       5554       5555       5566       5565  
      5446       5447       5458       5457       5567       5568       5579       5578  
      5447       5448       5459       5458       5568       5569       5580       5579  
      5448       5449       5460       5459       5569       5570       5581       5580  
      5449       5450       5461       5460       5570       5571       5582       5581  
      5450       5451       5462       5461       5571       5572       5583       5582  
      5451       5452       5463       5462       5572       5573       5584       5583  
      5452       5453       5464       5463       5573       5574       5585       5584  
      5453       5454       5465       5464       5574       5575       5586       5585  
      5454       5455       5466       5465       5575       5576       5587       5586  
      5455       5456       5467       5466       5576       5577       5588       5587  
      5457       5458       5469       5468       5578       5579       5590       5589  
      5458       5459       5470       5469       5579       5580       5591       5590  
      5459       5460       5471       5470       5580       5581       5592       5591  
      5460       5461       5472       5471       5581       5582       5593       5592  
      5461       5462       5473       5472       5582       5583       5594       5593  
      5462       5463       5474       5473       5583       5584       5595       5594  
      5463       5464       5475       5474       5584       5585       5596       5595  
      5464       5465       5476       5475       5585       5586       5597       5596  
      5465       5466       5477       5476       5586       5587       5598       5597  
      5466       5467       5478       5477       5587       5588       5599       5598  
      5468       5469       5480       5479       5589       5590       5601       5600  
      5469       5470       5481       5480       5590       5591       5602       5601  
      5470       5471       5482       5481       5591       5592       5603       5602  
      5471       5472       5483       5482       5592       5593       5604       5603  
      5472       5473       5484       5483       5593       5594       5605       5604  
      5473       5474       5485       5484       5594       5595       5606       5605  
      5474       5475       5486       5485       5595       5596       5607       5606  
      5475       5476       5487       5486       5596       5597       5608       5607  
      5476       5477       5488       5487       5597       5598       5609       5608  
      5477       5478       5489       5488       5598       5599       5610       5609  
      5479       5480       5491       5490       5600       5601       5612       5611  
      5480       5481       5492       5491       5601       5602       5613       5612  
      5481       5482       5493       5492       5602       5603       5614       5613  
      5482       5483       5494       5493       5603       5604       5615       5614  
      5483       5484       5495       5494       5604       5605       5616       5615  
      5484       5485       5496       5495       5605       5606       5617       5616  
      5485       5486       5497       5496       5606       5607       5618       5617  
      5486       5487       5498       5497       5607       5608       5619       5618  
      5487       5488       5499       5498       5608       5609       5620       5619  
      5488       5489       5500       5499       5609       5610       5621       5620  
      5490       5491       5502       5501       5611       5612       5623       5622  
      5491       5492       5503       5502       5612       5613       5624       5623  
      5492       5493       5504       5503       5613       5614       5625       5624  
      5493       5494       5505       5504       5614       5615       5626       5625  
      5494       5495       5506       5505       5615       5616       5627       5626  
      5495       5496       5507       5506       5616       5617       5628       5627  
      5496       5497       5508       5507       5617       5618       5629       5628  
      5497       5498       5509       5508       5618       5619       5630       5629  
      5498       5499       5510       5509       5619       5620       5631       5630  
      5499       5500       5511       5510       5620       5621       5632       5631  
      5501       5502       5513       5512       5622       5623       5634       5633  
      5502       5503       5514       5513       5623       5624       5635       5634  
      5503       5504       5515       5514       5624       5625       5636       5635  
      5504       5505       5516       5515       5625       5626       5637       5636  
      5505       5506       5517       5516       5626       5627       5638       5637  
      5506       5507       5518       5517       5627       5628       5639       5638  
      5507       5508       5519       5518       5628       5629       5640       5639  
      5508       5509       5520       5519       5629       5630       5641       5640  
      5509       5510       5521       5520       5630       5631       5642       5641  
      5510       5511       5522       5521       5631       5632       5643       5642  
      5512       5513       5524       5523       5633       5634       5645       5644  
      5513       5514       5525       5524       5634       5635       5646       5645  
      5514       5515       5526       5525       5635       5636       5647       5646  
      5515       5516       5527       5526       5636       5637       5648       5647  
      5516       5517       5528       5527       5637       5638       5649       5648  
      5517       5518       5529       5528       5638       5639       5650       5649  
      5518       5519       5530       5529       5639       5640       5651       5650  
      5519       5520       5531       5530       5640       5641       5652       5651  
      5520       5521       5532       5531       5641       5642       5653       5652  
      5521       5522       5533       5532       5642       5643       5654       5653  
      5523       5524       5535       5534       5644       5645       5656       5655  
      5524       5525       5536       5535       5645       5646       5657       5656  
      5525       5526       5537       5536       5646       5647       5658       5657  
      5526       5527       5538       5537       5647       5648       5659       5658  
      5527       5528       5539       5538       5648       5649       5660       5659  
      5528       5529       5540       5539       5649       5650       5661       5660  
      5529       5530       5541       5540       5650       5651       5662       5661  
      5530       5531       5542       5541       5651       5652       5663       5662  
      5531       5532       5543       5542       5652       5653       5664       5663  
      5532       5533       5544       5543       5653       5654       5665       5664  
      5534       5535       5546       5545       5655       5656       5667       5666  
      5535       5536       5547       5546       5656       5657       5668       5667  
      5536       5537       5548       5547       5657       5658       5669       5668  
      5537       5538       5549       5548       5658       5659       5670       5669  
      5538       5539       5550       5549       5659       5660       5671       5670  
      5539       5540       5551       5550       5660       5661       5672       5671  
      5540       5541       5552       5551       5661       5662       5673       5672  
      5541       5542       5553       5552       5662       5663       5674       5673  
      5542       5543       5554       5553       5663       5664       5675       5674  
      5543       5544       5555       5554       5664       5665       5676       5675  
      5545       5546       5557       5556       5666       5667       5678       5677  
      5546       5547       5558       5557       5667       5668       5679       5678  
      5547       5548       5559       5558       5668       5669       5680       5679  
      5548       5549       5560       5559       5669       5670       5681       5680  
      5549       5550       5561       5560       5670       5671       5682       5681  
      5550       5551       5562       5561       5671       5672       5683       5682  
      5551       5552       5563       5562       5672       5673       5684       5683  
      5552       5553       5564       5563       5673       5674       5685       5684  
      5553       5554       5565       5564       5674       5675       5686       5685  
      5554       5555       5566       5565       5675       5676       5687       5686  
      5567       5568       5579       5578       5688       5689       5700       5699  
      5568       5569       5580       5579       5689       5690       5701       5700  
      5569       5570       5581       5580       5690       5691       5702       5701  
      5570       5571       5582       5581       5691       5692       5703       5702  
      5571       5572       5583       5582       5692       5693       5704       5703  
      5572       5573       5584       5583       5693       5694       5705       5704  
      5573       5574       5585       5584       5694       5695       5706       5705  
      5574       5575       5586       5585       5695       5696       5707       5706  
      5575       5576       5587       5586       5696       5697       5708       5707  
      5576       5577       5588       5587       5697       5698       5709       5708  
      5578       5579       5590       5589       5699       5700       5711       5710  
      5579       5580       5591       5590       5700       5701       5712       5711  
      5580       5581       5592       5591       5701       5702       5713       5712  
      5581       5582       5593       5592       5702       5703       5714       5713  
      5582       5583       5594       5593       5703       5704       5715       5714  
      5583       5584       5595       5594       5704       5705       5716       5715  
      5584       5585       5596       5595       5705       5706       5717       5716  
      5585       5586       5597       5596       5706       5707       5718       5717  
      5586       5587       5598       5597       5707       5708       5719       5718  
      5587       5588       5599       5598       5708       5709       5720       5719  
      5589       5590       5601       5600       5710       5711       5722       5721  
      5590       5591       5602       5601       5711       5712       5723       5722  
      5591       5592       5603       5602       5712       5713       5724       5723  
      5592       5593       5604       5603       5713       5714       5725       5724  
      5593       5594       5605       5604       5714       5715       5726       5725  
      5594       5595       5606       5605       5715       5716       5727       5726  
      5595       5596       5607       5606       5716       5717       5728       5727  
      5596       5597       5608       5607       5717       5718       5729       5728  
      5597       5598       5609       5608       5718       5719       5730       5729  
      5598       5599       5610       5609       5719       5720       5731       5730  
      5600       5601       5612       5611       5721       5722       5733       5732  
      5601       5602       5613       5612       5722       5723       5734       5733  
      5602       5603       5614       5613       5723       5724       5735       5734  
      5603       5604       5615       5614       5724       5725       5736       5735  
      5604       5605       5616       5615       5725       5726       5737       5736  
      5605       5606       5617       5616       5726       5727       5738       5737  
      5606       5607       5618       5617       5727       5728       5739       5738  
      5607       5608       5619       5618       5728       5729       5740       5739  
      5608       5609       5620       5619       5729       5730       5741       5740  
      5609       5610       5621       5620       5730       5731       5742       5741  
      5611       5612       5623       5622       5732       5733       5744       5743  
      5612       5613       5624       5623       5733       5734       5745       5744  
      5613       5614       5625       5624       5734       5735       5746       5745  
      5614       5615       5626       5625       5735       5736       5747       5746  
      5615       5616       5627       5626       5736       5737       5748       5747  
      5616       5617       5628       5627       5737       5738       5749       5748  
      5617       5618       5629       5628       5738       5739       5750       5749  
      5618       5619       5630       5629       5739       5740       5751       5750  
      5619       5620       5631       5630       5740       5741       5752       5751  
      5620       5621       5632       5631       5741       5742       5753       5752  
      5622       5623       5634       5633       5743       5744       5755       5754  
      5623       5624       5635       5634       5744       5745       5756       5755  
      5624       5625       5636       5635       5745       5746       5757       5756  
      5625       5626       5637       5636       5746       5747       5758       5757  
      5626       5627       5638       5637       5747       5748       5759       5758  
      5627       5628       5639       5638       5748       5749       5760       5759  
      5628       5629       5640       5639       5749       5750       5761       5760  
      5629       5630       5641       5640       5750       5751       5762       5761  
      5630       5631       5642       5641       5751       5752       5763       5762  
      5631       5632       5643       5642       5752       5753       5764       5763  
      5633       5634       5645       5644       5754       5755       5766       5765  
      5634       5635       5646       5645       5755       5756       5767       5766  
      5635       5636       5647       5646       5756       5757       5768       5767  
      5636       5637       5648       5647       5757       5758       5769       5768  
      5637       5638       5649       5648       5758       5759       5770       5769  
      5638       5639       5650       5649       5759       5760       5771       5770  
      5639       5640       5651       5650       5760       5761       5772       5771  
      5640       5641       5652       5651       5761       5762       5773       5772  
      5641       5642       5653       5652       5762       5763       5774       5773  
      5642       5643       5654       5653       5763       5764       5775       5774  
      5644       5645       5656       5655       5765       5766       5777       5776  
      5645       5646       5657       5656       5766       5767       5778       5777  
      5646       5647       5658       5657       5767       5768       5779       5778  
      5647       5648       5659       5658       5768       5769       5780       5779  
      5648       5649       5660       5659       5769       5770       5781       5780  
      5649       5650       5661       5660       5770       5771       5782       5781  
      5650       5651       5662       5661       5771       5772       5783       5782  
      5651       5652       5663       5662       5772       5773       5784       5783  
      5652       5653       5664       5663       5773       5774       5785       5784  
      5653       5654       5665       5664       5774       5775       5786       5785  
      5655       5656       5667       5666       5776       5777       5788       5787  
      5656       5657       5668       5667       5777       5778       5789       5788  
      5657       5658       5669       5668       5778       5779       5790       5789  
      5658       5659       5670       5669       5779       5780       5791       5790  
      5659       5660       5671       5670       5780       5781       5792       5791  
      5660       5661       5672       5671       5781       5782       5793       5792  
      5661       5662       5673       5672       5782       5783       5794       5793  
      5662       5663       5674       5673       5783       5784       5795       5794  
      5663       5664       5675       5674       5784       5785       5796       5795  
      5664       5665       5676       5675       5785       5786       5797       5796  
      5666       5667       5678       5677       5787       5788       5799       5798  
      5667       5668       5679       5678       5788       5789       5800       5799  
      5668       5669       5680       5679       5789       5790       5801       5800  
      5669       5670       5681       5680       5790       5791       5802       5801  
      5670       5671       5682       5681       5791       5792       5803       5802  
      5671       5672       5683       5682       5792       5793       5804       5803  
      5672       5673       5684       5683       5793       5794       5805       5804  
      5673       5674       5685       5684       5794       5795       5806       5805  
      5674       5675       5686       5685       5795       5796       5807       5806  
      5675       5676       5687       5686       5796       5797       5808       5807  
      5688       5689       5700       5699       5809       5810       5821       5820  
      5689       5690       5701       5700       5810       5811       5822       5821  
      5690       5691       5702       5701       5811       5812       5823       5822  
      5691       5692       5703       5702       5812       5813       5824       5823  
      5692       5693       5704       5703       5813       5814       5825       5824  
      5693       5694       5705       5704       5814       5815       5826       5825  
      5694       5695       5706       5705       5815       5816       5827       5826  
      5695       5696       5707       5706       5816       5817       5828       5827  
      5696       5697       5708       5707       5817       5818       5829       5828  
      5697       5698       5709       5708       5818       5819       5830       5829  
      5699       5700       5711       5710       5820       5821       5832       5831  
      5700       5701       5712       5711       5821       5822       5833       5832  
      5701       5702       5713       5712       5822       5823       5834       5833  
      5702       5703       5714       5713       5823       5824       5835       5834  
      5703       5704       5715       5714       5824       5825       5836       5835  
      5704       5705       5716       5715       5825       5826       5837       5836  
      5705       5706       5717       5716       5826       5827       5838       5837  
      5706       5707       5718       5717       5827       5828       5839       5838  
      5707       5708       5719       5718       5828       5829       5840       5839  
      5708       5709       5720       5719       5829       5830       5841       5840  
      5710       5711       5722       5721       5831       5832       5843       5842  
      5711       5712       5723       5722       5832       5833       5844       5843  
      5712       5713       5724       5723       5833       5834       5845       5844  
      5713       5714       5725       5724       5834       5835       5846       5845  
      5714       5715       5726       5725       5835       5836       5847       5846  
      5715       5716       5727       5726       5836       5837       5848       5847  
      5716       5717       5728       5727       5837       5838       5849       5848  
      5717       5718       5729       5728       5838       5839       5850       5849  
      5718       5719       5730       5729       5839       5840       5851       5850  
      5719       5720       5731       5730       5840       5841       5852       5851  
      5721       5722       5733       5732       5842       5843       5854       5853  
      5722       5723       5734       5733       5843       5844       5855       5854  
      5723       5724       5735       5734       5844       5845       5856       5855  
      5724       5725       5736       5735       5845       5846       5857       5856  
      5725       5726       5737       5736       5846       5847       5858       5857  
      5726       5727       5738       5737       5847       5848       5859       5858  
      5727       5728       5739       5738       5848       5849       5860       5859  
      5728       5729       5740       5739       5849       5850       5861       5860  
      5729       5730       5741       5740       5850       5851       5862       5861  
      5730       5731       5742       5741       5851       5852       5863       5862  
      5732       5733       5744       5743       5853       5854       5865       5864  
      5733       5734       5745       5744       5854       5855       5866       5865  
      5734       5735       5746       5745       5855       5856       5867       5866  
      5735       5736       5747       5746       5856       5857       5868       5867  
      5736       5737       5748       5747       5857       5858       5869       5868  
      5737       5738       5749       5748       5858       5859       5870       5869  
      5738       5739       5750       5749       5859       5860       5871       5870  
      5739       5740       5751       5750       5860       5861       5872       5871  
      5740       5741       5752       5751       5861       5862       5873       5872  
      5741       5742       5753       5752       5862       5863       5874       5873  
      5743       5744       5755       5754       5864       5865       5876       5875  
      5744       5745       5756       5755       5865       5866       5877       5876  
      5745       5746       5757       5756       5866       5867       5878       5877  
      5746       5747       5758       5757       5867       5868       5879       5878  
      5747       5748       5759       5758       5868       5869       5880       5879  
      5748       5749       5760       5759       5869       5870       5881       5880  
      5749       5750       5761       5760       5870       5871       5882       5881  
      5750       5751       5762       5761       5871       5872       5883       5882  
      5751       5752       5763       5762       5872       5873       5884       5883  
      5752       5753       5764       5763       5873       5874       5885       5884  
      5754       5755       5766       5765       5875       5876       5887       5886  
      5755       5756       5767       5766       5876       5877       5888       5887  
      5756       5757       5768       5767       5877       5878       5889       5888  
      5757       5758       5769       5768       5878       5879       5890       5889  
      5758       5759       5770       5769       5879       5880       5891       5890  
      5759       5760       5771       5770       5880       5881       5892       5891  
      5760       5761       5772       5771       5881       5882       5893       5892  
      5761       5762       5773       5772       5882       5883       5894       5893  
      5762       5763       5774       5773       5883       5884       5895       5894  
      5763       5764       5775       5774       5884       5885       5896       5895  
      5765       5766       5777       5776       5886       5887       5898       5897  
      5766       5767       5778       5777       5887       5888       5899       5898  
      5767       5768       5779       5778       5888       5889       5900       5899  
      5768       5769       5780       5779       5889       5890       5901       5900  
      5769       5770       5781       5780       5890       5891       5902       5901  
      5770       5771       5782       5781       5891       5892       5903       5902  
      5771       5772       5783       5782       5892       5893       5904       5903  
      5772       5773       5784       5783       5893       5894       5905       5904  
      5773       5774       5785       5784       5894       5895       5906       5905  
      5774       5775       5786       5785       5895       5896       5907       5906  
      5776       5777       5788       5787       5897       5898       5909       5908  
      5777       5778       5789       5788       5898       5899       5910       5909  
      5778       5779       5790       5789       5899       5900       5911       5910  
      5779       5780       5791       5790       5900       5901       5912       5911  
      5780       5781       5792       5791       5901       5902       5913       5912  
      5781       5782       5793       5792       5902       5903       5914       5913  
      5782       5783       5794       5793       5903       5904       5915       5914  
      5783       5784       5795       5794       5904       5905       5916       5915  
      5784       5785       5796       5795       5905       5906       5917       5916  
      5785       5786       5797       5796       5906       5907       5918       5917  
      5787       5788       5799       5798       5908       5909       5920       5919  
      5788       5789       5800       5799       5909       5910       5921       5920  
      5789       5790       5801       5800       5910       5911       5922       5921  
      5790       5791       5802       5801       5911       5912       5923       5922  
      5791       5792       5803       5802       5912       5913       5924       5923  
      5792       5793       5804       5803       5913       5914       5925       5924  
      5793       5794       5805       5804       5914       5915       5926       5925  
      5794       5795       5806       5805       5915       5916       5927       5926  
      5795       5796       5807       5806       5916       5917       5928       5927  
      5796       5797       5808       5807       5917       5918       5929       5928  
      5809       5810       5821       5820       5930       5931       5942       5941  
      5810       5811       5822       5821       5931       5932       5943       5942  
      5811       5812       5823       5822       5932       5933       5944       5943  
      5812       5813       5824       5823       5933       5934       5945       5944  
      5813       5814       5825       5824       5934       5935       5946       5945  
      5814       5815       5826       5825       5935       5936       5947       5946  
      5815       5816       5827       5826       5936       5937       5948       5947  
      5816       5817       5828       5827       5937       5938       5949       5948  
      5817       5818       5829       5828       5938       5939       5950       5949  
      5818       5819       5830       5829       5939       5940       5951       5950  
      5820       5821       5832       5831       5941       5942       5953       5952  
      5821       5822       5833       5832       5942       5943       5954       5953  
      5822       5823       5834       5833       5943       5944       5955       5954  
      5823       5824       5835       5834       5944       5945       5956       5955  
      5824       5825       5836       5835       5945       5946       5957       5956  
      5825       5826       5837       5836       5946       5947       5958       5957  
      5826       5827       5838       5837       5947       5948       5959       5958  
      5827       5828       5839       5838       5948       5949       5960       5959  
      5828       5829       5840       5839       5949       5950       5961       5960  
      5829       5830       5841       5840       5950       5951       5962       5961  
      5831       5832       5843       5842       5952       5953       5964       5963  
      5832       5833       5844       5843       5953       5954       5965       5964  
      5833       5834       5845       5844       5954       5955       5966       5965  
      5834       5835       5846       5845       5955       5956       5967       5966  
      5835       5836       5847       5846       5956       5957       5968       5967  
      5836       5837       5848       5847       5957       5958       5969       5968  
      5837       5838       5849       5848       5958       5959       5970       5969  
      5838       5839       5850       5849       5959       5960       5971       5970  
      5839       5840       5851       5850       5960       5961       5972       5971  
      5840       5841       5852       5851       5961       5962       5973       5972  
      5842       5843       5854       5853       5963       5964       5975       5974  
      5843       5844       5855       5854       5964       5965       5976       5975  
      5844       5845       5856       5855       5965       5966       5977       5976  
      5845       5846       5857       5856       5966       5967       5978       5977  
      5846       5847       5858       5857       5967       5968       5979       5978  
      5847       5848       5859       5858       5968       5969       5980       5979  
      5848       5849       5860       5859       5969       5970       5981       5980  
      5849       5850       5861       5860       5970       5971       5982       5981  
      5850       5851       5862       5861       5971       5972       5983       5982  
      5851       5852       5863       5862       5972       5973       5984       5983  
      5853       5854       5865       5864       5974       5975       5986       5985  
      5854       5855       5866       5865       5975       5976       5987       5986  
      5855       5856       5867       5866       5976       5977       5988       5987  
      5856       5857       5868       5867       5977       5978       5989       5988  
      5857       5858       5869       5868       5978       5979       5990       5989  
      5858       5859       5870       5869       5979       5980       5991       5990  
      5859       5860       5871       5870       5980       5981       5992       5991  
      5860       5861       5872       5871       5981       5982       5993       5992  
      5861       5862       5873       5872       5982       5983       5994       5993  
      5862       5863       5874       5873       5983       5984       5995       5994  
      5864       5865       5876       5875       5985       5986       5997       5996  
      5865       5866       5877       5876       5986       5987       5998       5997  
      5866       5867       5878       5877       5987       5988       5999       5998  
      5867       5868       5879       5878       5988       5989       6000       5999  
      5868       5869       5880       5879       5989       5990       6001       6000  
      5869       5870       5881       5880       5990       5991       6002       6001  
      5870       5871       5882       5881       5991       5992       6003       6002  
      5871       5872       5883       5882       5992       5993       6004       6003  
      5872       5873       5884       5883       5993       5994       6005       6004  
      5873       5874       5885       5884       5994       5995       6006       6005  
      5875       5876       5887       5886       5996       5997       6008       6007  
      5876       5877       5888       5887       5997       5998       6009       6008  
      5877       5878       5889       5888       5998       5999       6010       6009  
      5878       5879       5890       5889       5999       6000       6011       6010  
      5879       5880       5891       5890       6000       6001       6012       6011  
      5880       5881       5892       5891       6001       6002       6013       6012  
      5881       5882       5893       5892       6002       6003       6014       6013  
      5882       5883       5894       5893       6003       6004       6015       6014  
      5883       5884       5895       5894       6004       6005       6016       6015  
      5884       5885       5896       5895       6005       6006       6017       6016  
      5886       5887       5898       5897       6007       6008       6019       6018  
      5887       5888       5899       5898       6008       6009       6020       6019  
      5888       5889       5900       5899       6009       6010       6021       6020  
      5889       5890       5901       5900       6010       6011       6022       6021  
      5890       5891       5902       5901       6011       6012       6023       6022  
      5891       5892       5903       5902       6012       6013       6024       6023  
      5892       5893       5904       5903       6013       6014       6025       6024  
      5893       5894       5905       5904       6014       6015       6026       6025  
      5894       5895       5906       5905       6015       6016       6027       6026  
      5895       5896       5907       5906       6016       6017       6028       6027  
      5897       5898       5909       5908       6018       6019       6030       6029  
      5898       5899       5910       5909       6019       6020       6031       6030  
      5899       5900       5911       5910       6020       6021       6032       6031  
      5900       5901       5912       5911       6021       6022       6033       6032  
      5901       5902       5913       5912       6022       6023       6034       6033  
      5902       5903       5914       5913       6023       6024       6035       6034  
      5903       5904       5915       5914       6024       6025       6036       6035  
      5904       5905       5916       5915       6025       6026       6037       6036  
      5905       5906       5917       5916       6026       6027       6038       6037  
      5906       5907       5918       5917       6027       6028       6039       6038  
      5908       5909       5920       5919       6029       6030       6041       6040  
      5909       5910       5921       5920       6030       6031       6042       6041  
      5910       5911       5922       5921       6031       6032       6043       6042  
      5911       5912       5923       5922       6032       6033       6044       6043  
      5912       5913       5924       5923       6033       6034       6045       6044  
      5913       5914       5925       5924       6034       6035       6046       6045  
      5914       5915       5926       5925       6035       6036       6047       6046  
      5915       5916       5927       5926       6036       6037       6048       6047  
      5916       5917       5928       5927       6037       6038       6049       6048  
      5917       5918       5929       5928       6038       6039       6050       6049  
      5930       5931       5942       5941       6051       6052       6063       6062  
      5931       5932       5943       5942       6052       6053       6064       6063  
      5932       5933       5944       5943       6053       6054       6065       6064  
      5933       5934       5945       5944       6054       6055       6066       6065  
      5934       5935       5946       5945       6055       6056       6067       6066  
      5935       5936       5947       5946       6056       6057       6068       6067  
      5936       5937       5948       5947       6057       6058       6069       6068  
      5937       5938       5949       5948       6058       6059       6070       6069  
      5938       5939       5950       5949       6059       6060       6071       6070  
      5939       5940       5951       5950       6060       6061       6072       6071  
      5941       5942       5953       5952       6062       6063       6074       6073  
      5942       5943       5954       5953       6063       6064       6075       6074  
      5943       5944       5955       5954       6064       6065       6076       6075  
      5944       5945       5956       5955       6065       6066       6077       6076  
      5945       5946       5957       5956       6066       6067       6078       6077  
      5946       5947       5958       5957       6067       6068       6079       6078  
      5947       5948       5959       5958       6068       6069       6080       6079  
      5948       5949       5960       5959       6069       6070       6081       6080  
      5949       5950       5961       5960       6070       6071       6082       6081  
      5950       5951       5962       5961       6071       6072       6083       6082  
      5952       5953       5964       5963       6073       6074       6085       6084  
      5953       5954       5965       5964       6074       6075       6086       6085  
      5954       5955       5966       5965       6075       6076       6087       6086  
      5955       5956       5967       5966       6076       6077       6088       6087  
      5956       5957       5968       5967       6077       6078       6089       6088  
      5957       5958       5969       5968       6078       6079       6090       6089  
      5958       5959       5970       5969       6079       6080       6091       6090  
      5959       5960       5971       5970       6080       6081       6092       6091  
      5960       5961       5972       5971       6081       6082       6093       6092  
      5961       5962       5973       5972       6082       6083       6094       6093  
      5963       5964       5975       5974       6084       6085       6096       6095  
      5964       5965       5976       5975       6085       6086       6097       6096  
      5965       5966       5977       5976       6086       6087       6098       6097  
      5966       5967       5978       5977       6087       6088       6099       6098  
      5967       5968       5979       5978       6088       6089       6100       6099  
      5968       5969       5980       5979       6089       6090       6101       6100  
      5969       5970       5981       5980       6090       6091       6102       6101  
      5970       5971       5982       5981       6091       6092       6103       6102  
      5971       5972       5983       5982       6092       6093       6104       6103  
      5972       5973       5984       5983       6093       6094       6105       6104  
      5974       5975       5986       5985       6095       6096       6107       6106  
      5975       5976       5987       5986       6096       6097       6108       6107  
      5976       5977       5988       5987       6097       6098       6109       6108  
      5977       5978       5989       5988       6098       6099       6110       6109  
      5978       5979       5990       5989       6099       6100       6111       6110  
      5979       5980       5991       5990       6100       6101       6112       6111  
      5980       5981       5992       5991       6101       6102       6113       6112  
      5981       5982       5993       5992       6102       6103       6114       6113  
      5982       5983       5994       5993       6103       6104       6115       6114  
      5983       5984       5995       5994       6104       6105       6116       6115  
      5985       5986       5997       5996       6106       6107       6118       6117  
      5986       5987       5998       5997       6107       6108       6119       6118  
      5987       5988       5999       5998       6108       6109       6120       6119  
      5988       5989       6000       5999       6109       6110       6121       6120  
      5989       5990       6001       6000       6110       6111       6122       6121  
      5990       5991       6002       6001       6111       6112       6123       6122  
      5991       5992       6003       6002       6112       6113       6124       6123  
      5992       5993       6004       6003       6113       6114       6125       6124  
      5993       5994       6005       6004       6114       6115       6126       6125  
      5994       5995       6006       6005       6115       6116       6127       6126  
      5996       5997       6008       6007       6117       6118       6129       6128  
      5997       5998       6009       6008       6118       6119       6130       6129  
      5998       5999       6010       6009       6119       6120       6131       6130  
      5999       6000       6011       6010       6120       6121       6132       6131  
      6000       6001       6012       6011       6121       6122       6133       6132  
      6001       6002       6013       6012       6122       6123       6134       6133  
      6002       6003       6014       6013       6123       6124       6135       6134  
      6003       6004       6015       6014       6124       6125       6136       6135  
      6004       6005       6016       6015       6125       6126       6137       6136  
      6005       6006       6017       6016       6126       6127       6138       6137  
      6007       6008       6019       6018       6128       6129       6140       6139  
      6008       6009       6020       6019       6129       6130       6141       6140  
      6009       6010       6021       6020       6130       6131       6142       6141  
      6010       6011       6022       6021       6131       6132       6143       6142  
      6011       6012       6023       6022       6132       6133       6144       6143  
      6012       6013       6024       6023       6133       6134       6145       6144  
      6013       6014       6025       6024       6134       6135       6146       6145  
      6014       6015       6026       6025       6135       6136       6147       6146  
      6015       6016       6027       6026       6136       6137       6148       6147  
      6016       6017       6028       6027       6137       6138       6149       6148  
      6018       6019       6030       6029       6139       6140       6151       6150  
      6019       6020       6031       6030       6140       6141       6152       6151  
      6020       6021       6032       6031       6141       6142       6153       6152  
      6021       6022       6033       6032       6142       6143       6154       6153  
      6022       6023       6034       6033       6143       6144       6155       6154  
      6023       6024       6035       6034       6144       6145       6156       6155  
      6024       6025       6036       6035       6145       6146       6157       6156  
      6025       6026       6037       6036       6146       6147       6158       6157  
      6026       6027       6038       6037       6147       6148       6159       6158  
      6027       6028       6039       6038       6148       6149       6160       6159  
      6029       6030       6041       6040       6150       6151       6162       6161  
      6030       6031       6042       6041       6151       6152       6163       6162  
      6031       6032       6043       6042       6152       6153       6164       6163  
      6032       6033       6044       6043       6153       6154       6165       6164  
      6033       6034       6045       6044       6154       6155       6166       6165  
      6034       6035       6046       6045       6155       6156       6167       6166  
      6035       6036       6047       6046       6156       6157       6168       6167  
      6036       6037       6048       6047       6157       6158       6169       6168  
      6037       6038       6049       6048       6158       6159       6170       6169  
      6038       6039       6050       6049       6159       6160       6171       6170  
      6051       6052       6063       6062       6172       6173       6184       6183  
      6052       6053       6064       6063       6173       6174       6185       6184  
      6053       6054       6065       6064       6174       6175       6186       6185  
      6054       6055       6066       6065       6175       6176       6187       6186  
      6055       6056       6067       6066       6176       6177       6188       6187  
      6056       6057       6068       6067       6177       6178       6189       6188  
      6057       6058       6069       6068       6178       6179       6190       6189  
      6058       6059       6070       6069       6179       6180       6191       6190  
      6059       6060       6071       6070       6180       6181       6192       6191  
      6060       6061       6072       6071       6181       6182       6193       6192  
      6062       6063       6074       6073       6183       6184       6195       6194  
      6063       6064       6075       6074       6184       6185       6196       6195  
      6064       6065       6076       6075       6185       6186       6197       6196  
      6065       6066       6077       6076       6186       6187       6198       6197  
      6066       6067       6078       6077       6187       6188       6199       6198  
      6067       6068       6079       6078       6188       6189       6200       6199  
      6068       6069       6080       6079       6189       6190       6201       6200  
      6069       6070       6081       6080       6190       6191       6202       6201  
      6070       6071       6082       6081       6191       6192       6203       6202  
      6071       6072       6083       6082       6192       6193       6204       6203  
      6073       6074       6085       6084       6194       6195       6206       6205  
      6074       6075       6086       6085       6195       6196       6207       6206  
      6075       6076       6087       6086       6196       6197       6208       6207  
      6076       6077       6088       6087       6197       6198       6209       6208  
      6077       6078       6089       6088       6198       6199       6210       6209  
      6078       6079       6090       6089       6199       6200       6211       6210  
      6079       6080       6091       6090       6200       6201       6212       6211  
      6080       6081       6092       6091       6201       6202       6213       6212  
      6081       6082       6093       6092       6202       6203       6214       6213  
      6082       6083       6094       6093       6203       6204       6215       6214  
      6084       6085       6096       6095       6205       6206       6217       6216  
      6085       6086       6097       6096       6206       6207       6218       6217  
      6086       6087       6098       6097       6207       6208       6219       6218  
      6087       6088       6099       6098       6208       6209       6220       6219  
      6088       6089       6100       6099       6209       6210       6221       6220  
      6089       6090       6101       6100       6210       6211       6222       6221  
      6090       6091       6102       6101       6211       6212       6223       6222  
      6091       6092       6103       6102       6212       6213       6224       6223  
      6092       6093       6104       6103       6213       6214       6225       6224  
      6093       6094       6105       6104       6214       6215       6226       6225  
      6095       6096       6107       6106       6216       6217       6228       6227  
      6096       6097       6108       6107       6217       6218       6229       6228  
      6097       6098       6109       6108       6218       6219       6230       6229  
      6098       6099       6110       6109       6219       6220       6231       6230  
      6099       6100       6111       6110       6220       6221       6232       6231  
      6100       6101       6112       6111       6221       6222       6233       6232  
      6101       6102       6113       6112       6222       6223       6234       6233  
      6102       6103       6114       6113       6223       6224       6235       6234  
      6103       6104       6115       6114       6224       6225       6236       6235  
      6104       6105       6116       6115       6225       6226       6237       6236  
      6106       6107       6118       6117       6227       6228       6239       6238  
      6107       6108       6119       6118       6228       6229       6240       6239  
      6108       6109       6120       6119       6229       6230       6241       6240  
      6109       6110       6121       6120       6230       6231       6242       6241  
      6110       6111       6122       6121       6231       6232       6243       6242  
      6111       6112       6123       6122       6232       6233       6244       6243  
      6112       6113       6124       6123       6233       6234       6245       6244  
      6113       6114       6125       6124       6234       6235       6246       6245  
      6114       6115       6126       6125       6235       6236       6247       6246  
      6115       6116       6127       6126       6236       6237       6248       6247  
      6117       6118       6129       6128       6238       6239       6250       6249  
      6118       6119       6130       6129       6239       6240       6251       6250  
      6119       6120       6131       6130       6240       6241       6252       6251  
      6120       6121       6132       6131       6241       6242       6253       6252  
      6121       6122       6133       6132       6242       6243       6254       6253  
      6122       6123       6134       6133       6243       6244       6255       6254  
      6123       6124       6135       6134       6244       6245       6256       6255  
      6124       6125       6136       6135       6245       6246       6257       6256  
      6125       6126       6137       6136       6246       6247       6258       6257  
      6126       6127       6138       6137       6247       6248       6259       6258  
      6128       6129       6140       6139       6249       6250       6261       6260  
      6129       6130       6141       6140       6250       6251       6262       6261  
      6130       6131       6142       6141       6251       6252       6263       6262  
      6131       6132       6143       6142       6252       6253       6264       6263  
      6132       6133       6144       6143       6253       6254       6265       6264  
      6133       6134       6145       6144       6254       6255       6266       6265  
      6134       6135       6146       6145       6255       6256       6267       6266  
      6135       6136       6147       6146       6256       6257       6268       6267  
      6136       6137       6148       6147       6257       6258       6269       6268  
      6137       6138       6149       6148       6258       6259       6270       6269  
      6139       6140       6151       6150       6260       6261       6272       6271  
      6140       6141       6152       6151       6261       6262       6273       6272  
      6141       6142       6153       6152       6262       6263       6274       6273  
      6142       6143       6154       6153       6263       6264       6275       6274  
      6143       6144       6155       6154       6264       6265       6276       6275  
      6144       6145       6156       6155       6265       6266       6277       6276  
      6145       6146       6157       6156       6266       6267       6278       6277  
      6146       6147       6158       6157       6267       6268       6279       6278  
      6147       6148       6159       6158       6268       6269       6280       6279  
      6148       6149       6160       6159       6269       6270       6281       6280  
      6150       6151       6162       6161       6271       6272       6283       6282  
      6151       6152       6163       6162       6272       6273       6284       6283  
      6152       6153       6164       6163       6273       6274       6285       6284  
      6153       6154       6165       6164       6274       6275       6286       6285  
      6154       6155       6166       6165       6275       6276       6287       6286  
      6155       6156       6167       6166       6276       6277       6288       6287  
      6156       6157       6168       6167       6277       6278       6289       6288  
      6157       6158       6169       6168       6278       6279       6290       6289  
      6158       6159       6170       6169       6279       6280       6291       6290  
      6159       6160       6171       6170       6280       6281       6292       6291  
      6172       6173       6184       6183       6293       6294       6305       6304  
      6173       6174       6185       6184       6294       6295       6306       6305  
      6174       6175       6186       6185       6295       6296       6307       6306  
      6175       6176       6187       6186       6296       6297       6308       6307  
      6176       6177       6188       6187       6297       6298       6309       6308  
      6177       6178       6189       6188       6298       6299       6310       6309  
      6178       6179       6190       6189       6299       6300       6311       6310  
      6179       6180       6191       6190       6300       6301       6312       6311  
      6180       6181       6192       6191       6301       6302       6313       6312  
      6181       6182       6193       6192       6302       6303       6314       6313  
      6183       6184       6195       6194       6304       6305       6316       6315  
      6184       6185       6196       6195       6305       6306       6317       6316  
      6185       6186       6197       6196       6306       6307       6318       6317  
      6186       6187       6198       6197       6307       6308       6319       6318  
      6187       6188       6199       6198       6308       6309       6320       6319  
      6188       6189       6200       6199       6309       6310       6321       6320  
      6189       6190       6201       6200       6310       6311       6322       6321  
      6190       6191       6202       6201       6311       6312       6323       6322  
      6191       6192       6203       6202       6312       6313       6324       6323  
      6192       6193       6204       6203       6313       6314       6325       6324  
      6194       6195       6206       6205       6315       6316       6327       6326  
      6195       6196       6207       6206       6316       6317       6328       6327  
      6196       6197       6208       6207       6317       6318       6329       6328  
      6197       6198       6209       6208       6318       6319       6330       6329  
      6198       6199       6210       6209       6319       6320       6331       6330  
      6199       6200       6211       6210       6320       6321       6332       6331  
      6200       6201       6212       6211       6321       6322       6333       6332  
      6201       6202       6213       6212       6322       6323       6334       6333  
      6202       6203       6214       6213       6323       6324       6335       6334  
      6203       6204       6215       6214       6324       6325       6336       6335  
      6205       6206       6217       6216       6326       6327       6338       6337  
      6206       6207       6218       6217       6327       6328       6339       6338  
      6207       6208       6219       6218       6328       6329       6340       6339  
      6208       6209       6220       6219       6329       6330       6341       6340  
      6209       6210       6221       6220       6330       6331       6342       6341  
      6210       6211       6222       6221       6331       6332       6343       6342  
      6211       6212       6223       6222       6332       6333       6344       6343  
      6212       6213       6224       6223       6333       6334       6345       6344  
      6213       6214       6225       6224       6334       6335       6346       6345  
      6214       6215       6226       6225       6335       6336       6347       6346  
      6216       6217       6228       6227       6337       6338       6349       6348  
      6217       6218       6229       6228       6338       6339       6350       6349  
      6218       6219       6230       6229       6339       6340       6351       6350  
      6219       6220       6231       6230       6340       6341       6352       6351  
      6220       6221       6232       6231       6341       6342       6353       6352  
      6221       6222       6233       6232       6342       6343       6354       6353  
      6222       6223       6234       6233       6343       6344       6355       6354  
      6223       6224       6235       6234       6344       6345       6356       6355  
      6224       6225       6236       6235       6345       6346       6357       6356  
      6225       6226       6237       6236       6346       6347       6358       6357  
      6227       6228       6239       6238       6348       6349       6360       6359  
      6228       6229       6240       6239       6349       6350       6361       6360  
      6229       6230       6241       6240       6350       6351       6362       6361  
      6230       6231       6242       6241       6351       6352       6363       6362  
      6231       6232       6243       6242       6352       6353       6364       6363  
      6232       6233       6244       6243       6353       6354       6365       6364  
      6233       6234       6245       6244       6354       6355       6366       6365  
      6234       6235       6246       6245       6355       6356       6367       6366  
      6235       6236       6247       6246       6356       6357       6368       6367  
      6236       6237       6248       6247       6357       6358       6369       6368  
      6238       6239       6250       6249       6359       6360       6371       6370  
      6239       6240       6251       6250       6360       6361       6372       6371  
      6240       6241       6252       6251       6361       6362       6373       6372  
      6241       6242       6253       6252       6362       6363       6374       6373  
      6242       6243       6254       6253       6363       6364       6375       6374  
      6243       6244       6255       6254       6364       6365       6376       6375  
      6244       6245       6256       6255       6365       6366       6377       6376  
      6245       6246       6257       6256       6366       6367       6378       6377  
      6246       6247       6258       6257       6367       6368       6379       6378  
      6247       6248       6259       6258       6368       6369       6380       6379  
      6249       6250       6261       6260       6370       6371       6382       6381  
      6250       6251       6262       6261       6371       6372       6383       6382  
      6251       6252       6263       6262       6372       6373       6384       6383  
      6252       6253       6264       6263       6373       6374       6385       6384  
      6253       6254       6265       6264       6374       6375       6386       6385  
      6254       6255       6266       6265       6375       6376       6387       6386  
      6255       6256       6267       6266       6376       6377       6388       6387  
      6256       6257       6268       6267       6377       6378       6389       6388  
      6257       6258       6269       6268       6378       6379       6390       6389  
      6258       6259       6270       6269       6379       6380       6391       6390  
      6260       6261       6272       6271       6381       6382       6393       6392  
      6261       6262       6273       6272       6382       6383       6394       6393  
      6262       6263       6274       6273       6383       6384       6395       6394  
      6263       6264       6275       6274       6384       6385       6396       6395  
      6264       6265       6276       6275       6385       6386       6397       6396  
      6265       6266       6277       6276       6386       6387       6398       6397  
      6266       6267       6278       6277       6387       6388       6399       6398  
      6267       6268       6279       6278       6388       6389       6400       6399  
      6268       6269       6280       6279       6389       6390       6401       6400  
      6269       6270       6281       6280       6390       6391       6402       6401  
      6271       6272       6283       6282       6392       6393       6404       6403  
      6272       6273       6284       6283       6393       6394       6405       6404  
      6273       6274       6285       6284       6394       6395       6406       6405  
      6274       6275       6286       6285       6395       6396       6407       6406  
      6275       6276       6287       6286       6396       6397       6408       6407  
      6276       6277       6288       6287       6397       6398       6409       6408  
      6277       6278       6289       6288       6398       6399       6410       6409  
      6278       6279       6290       6289       6399       6400       6411       6410  
      6279       6280       6291       6290       6400       6401       6412       6411  
      6280       6281       6292       6291       6401       6402       6413       6412  
      6293       6294       6305       6304       6414       6415       6426       6425  
      6294       6295       6306       6305       6415       6416       6427       6426  
      6295       6296       6307       6306       6416       6417       6428       6427  
      6296       6297       6308       6307       6417       6418       6429       6428  
      6297       6298       6309       6308       6418       6419       6430       6429  
      6298       6299       6310       6309       6419       6420       6431       6430  
      6299       6300       6311       6310       6420       6421       6432       6431  
      6300       6301       6312       6311       6421       6422       6433       6432  
      6301       6302       6313       6312       6422       6423       6434       6433  
      6302       6303       6314       6313       6423       6424       6435       6434  
      6304       6305       6316       6315       6425       6426       6437       6436  
      6305       6306       6317       6316       6426       6427       6438       6437  
      6306       6307       6318       6317       6427       6428       6439       6438  
      6307       6308       6319       6318       6428       6429       6440       6439  
      6308       6309       6320       6319       6429       6430       6441       6440  
      6309       6310       6321       6320       6430       6431       6442       6441  
      6310       6311       6322       6321       6431       6432       6443       6442  
      6311       6312       6323       6322       6432       6433       6444       6443  
      6312       6313       6324       6323       6433       6434       6445       6444  
      6313       6314       6325       6324       6434       6435       6446       6445  
      6315       6316       6327       6326       6436       6437       6448       6447  
      6316       6317       6328       6327       6437       6438       6449       6448  
      6317       6318       6329       6328       6438       6439       6450       6449  
      6318       6319       6330       6329       6439       6440       6451       6450  
      6319       6320       6331       6330       6440       6441       6452       6451  
      6320       6321       6332       6331       6441       6442       6453       6452  
      6321       6322       6333       6332       6442       6443       6454       6453  
      6322       6323       6334       6333       6443       6444       6455       6454  
      6323       6324       6335       6334       6444       6445       6456       6455  
      6324       6325       6336       6335       6445       6446       6457       6456  
      6326       6327       6338       6337       6447       6448       6459       6458  
      6327       6328       6339       6338       6448       6449       6460       6459  
      6328       6329       6340       6339       6449       6450       6461       6460  
      6329       6330       6341       6340       6450       6451       6462       6461  
      6330       6331       6342       6341       6451       6452       6463       6462  
      6331       6332       6343       6342       6452       6453       6464       6463  
      6332       6333       6344       6343       6453       6454       6465       6464  
      6333       6334       6345       6344       6454       6455       6466       6465  
      6334       6335       6346       6345       6455       6456       6467       6466  
      6335       6336       6347       6346       6456       6457       6468       6467  
      6337       6338       6349       6348       6458       6459       6470       6469  
      6338       6339       6350       6349       6459       6460       6471       6470  
      6339       6340       6351       6350       6460       6461       6472       6471  
      6340       6341       6352       6351       6461       6462       6473       6472  
      6341       6342       6353       6352       6462       6463       6474       6473  
      6342       6343       6354       6353       6463       6464       6475       6474  
      6343       6344       6355       6354       6464       6465       6476       6475  
      6344       6345       6356       6355       6465       6466       6477       6476  
      6345       6346       6357       6356       6466       6467       6478       6477  
      6346       6347       6358       6357       6467       6468       6479       6478  
      6348       6349       6360       6359       6469       6470       6481       6480  
      6349       6350       6361       6360       6470       6471       6482       6481  
      6350       6351       6362       6361       6471       6472       6483       6482  
      6351       6352       6363       6362       6472       6473       6484       6483  
      6352       6353       6364       6363       6473       6474       6485       6484  
      6353       6354       6365       6364       6474       6475       6486       6485  
      6354       6355       6366       6365       6475       6476       6487       6486  
      6355       6356       6367       6366       6476       6477       6488       6487  
      6356       6357       6368       6367       6477       6478       6489       6488  
      6357       6358       6369       6368       6478       6479       6490       6489  
      6359       6360       6371       6370       6480       6481       6492       6491  
      6360       6361       6372       6371       6481       6482       6493       6492  
      6361       6362       6373       6372       6482       6483       6494       6493  
      6362       6363       6374       6373       6483       6484       6495       6494  
      6363       6364       6375       6374       6484       6485       6496       6495  
      6364       6365       6376       6375       6485       6486       6497       6496  
      6365       6366       6377       6376       6486       6487       6498       6497  
      6366       6367       6378       6377       6487       6488       6499       6498  
      6367       6368       6379       6378       6488       6489       6500       6499  
      6368       6369       6380       6379       6489       6490       6501       6500  
      6370       6371       6382       6381       6491       6492       6503       6502  
      6371       6372       6383       6382       6492       6493       6504       6503  
      6372       6373       6384       6383       6493       6494       6505       6504  
      6373       6374       6385       6384       6494       6495       6506       6505  
      6374       6375       6386       6385       6495       6496       6507       6506  
      6375       6376       6387       6386       6496       6497       6508       6507  
      6376       6377       6388       6387       6497       6498       6509       6508  
      6377       6378       6389       6388       6498       6499       6510       6509  
      6378       6379       6390       6389       6499       6500       6511       6510  
      6379       6380       6391       6390       6500       6501       6512       6511  
      6381       6382       6393       6392       6502       6503       6514       6513  
      6382       6383       6394       6393       6503       6504       6515       6514  
      6383       6384       6395       6394       6504       6505       6516       6515  
      6384       6385       6396       6395       6505       6506       6517       6516  
      6385       6386       6397       6396       6506       6507       6518       6517  
      6386       6387       6398       6397       6507       6508       6519       6518  
      6387       6388       6399       6398       6508       6509       6520       6519  
      6388       6389       6400       6399       6509       6510       6521       6520  
      6389       6390       6401       6400       6510       6511       6522       6521  
      6390       6391       6402       6401       6511       6512       6523       6522  
      6392       6393       6404       6403       6513       6514       6525       6524  
      6393       6394       6405       6404       6514       6515       6526       6525  
      6394       6395       6406       6405       6515       6516       6527       6526  
      6395       6396       6407       6406       6516       6517       6528       6527  
      6396       6397       6408       6407       6517       6518       6529       6528  
      6397       6398       6409       6408       6518       6519       6530       6529  
      6398       6399       6410       6409       6519       6520       6531       6530  
      6399       6400       6411       6410       6520       6521       6532       6531  
      6400       6401       6412       6411       6521       6522       6533       6532  
      6401       6402       6413       6412       6522       6523       6534       6533  
      6414       6415       6426       6425       6535       6536       6547       6546  
      6415       6416       6427       6426       6536       6537       6548       6547  
      6416       6417       6428       6427       6537       6538       6549       6548  
      6417       6418       6429       6428       6538       6539       6550       6549  
      6418       6419       6430       6429       6539       6540       6551       6550  
      6419       6420       6431       6430       6540       6541       6552       6551  
      6420       6421       6432       6431       6541       6542       6553       6552  
      6421       6422       6433       6432       6542       6543       6554       6553  
      6422       6423       6434       6433       6543       6544       6555       6554  
      6423       6424       6435       6434       6544       6545       6556       6555  
      6425       6426       6437       6436       6546       6547       6558       6557  
      6426       6427       6438       6437       6547       6548       6559       6558  
      6427       6428       6439       6438       6548       6549       6560       6559  
      6428       6429       6440       6439       6549       6550       6561       6560  
      6429       6430       6441       6440       6550       6551       6562       6561  
      6430       6431       6442       6441       6551       6552       6563       6562  
      6431       6432       6443       6442       6552       6553       6564       6563  
      6432       6433       6444       6443       6553       6554       6565       6564  
      6433       6434       6445       6444       6554       6555       6566       6565  
      6434       6435       6446       6445       6555       6556       6567       6566  
      6436       6437       6448       6447       6557       6558       6569       6568  
      6437       6438       6449       6448       6558       6559       6570       6569  
      6438       6439       6450       6449       6559       6560       6571       6570  
      6439       6440       6451       6450       6560       6561       6572       6571  
      6440       6441       6452       6451       6561       6562       6573       6572  
      6441       6442       6453       6452       6562       6563       6574       6573  
      6442       6443       6454       6453       6563       6564       6575       6574  
      6443       6444       6455       6454       6564       6565       6576       6575  
      6444       6445       6456       6455       6565       6566       6577       6576  
      6445       6446       6457       6456       6566       6567       6578       6577  
      6447       6448       6459       6458       6568       6569       6580       6579  
      6448       6449       6460       6459       6569       6570       6581       6580  
      6449       6450       6461       6460       6570       6571       6582       6581  
      6450       6451       6462       6461       6571       6572       6583       6582  
      6451       6452       6463       6462       6572       6573       6584       6583  
      6452       6453       6464       6463       6573       6574       6585       6584  
      6453       6454       6465       6464       6574       6575       6586       6585  
      6454       6455       6466       6465       6575       6576       6587       6586  
      6455       6456       6467       6466       6576       6577       6588       6587  
      6456       6457       6468       6467       6577       6578       6589       6588  
      6458       6459       6470       6469       6579       6580       6591       6590  
      6459       6460       6471       6470       6580       6581       6592       6591  
      6460       6461       6472       6471       6581       6582       6593       6592  
      6461       6462       6473       6472       6582       6583       6594       6593  
      6462       6463       6474       6473       6583       6584       6595       6594  
      6463       6464       6475       6474       6584       6585       6596       6595  
      6464       6465       6476       6475       6585       6586       6597       6596  
      6465       6466       6477       6476       6586       6587       6598       6597  
      6466       6467       6478       6477       6587       6588       6599       6598  
      6467       6468       6479       6478       6588       6589       6600       6599  
      6469       6470       6481       6480       6590       6591       6602       6601  
      6470       6471       6482       6481       6591       6592       6603       6602  
      6471       6472       6483       6482       6592       6593       6604       6603  
      6472       6473       6484       6483       6593       6594       6605       6604  
      6473       6474       6485       6484       6594       6595       6606       6605  
      6474       6475       6486       6485       6595       6596       6607       6606  
      6475       6476       6487       6486       6596       6597       6608       6607  
      6476       6477       6488       6487       6597       6598       6609       6608  
      6477       6478       6489       6488       6598       6599       6610       6609  
      6478       6479       6490       6489       6599       6600       6611       6610  
      6480       6481       6492       6491       6601       6602       6613       6612  
      6481       6482       6493       6492       6602       6603       6614       6613  
      6482       6483       6494       6493       6603       6604       6615       6614  
      6483       6484       6495       6494       6604       6605       6616       6615  
      6484       6485       6496       6495       6605       6606       6617       6616  
      6485       6486       6497       6496       6606       6607       6618       6617  
      6486       6487       6498       6497       6607       6608       6619       6618  
      6487       6488       6499       6498       6608       6609       6620       6619  
      6488       6489       6500       6499       6609       6610       6621       6620  
      6489       6490       6501       6500       6610       6611       6622       6621  
      6491       6492       6503       6502       6612       6613       6624       6623  
      6492       6493       6504       6503       6613       6614       6625       6624  
      6493       6494       6505       6504       6614       6615       6626       6625  
      6494       6495       6506       6505       6615       6616       6627       6626  
      6495       6496       6507       6506       6616       6617       6628       6627  
      6496       6497       6508       6507       6617       6618       6629       6628  
      6497       6498       6509       6508       6618       6619       6630       6629  
      6498       6499       6510       6509       6619       6620       6631       6630  
      6499       6500       6511       6510       6620       6621       6632       6631  
      6500       6501       6512       6511       6621       6622       6633       6632  
      6502       6503       6514       6513       6623       6624       6635       6634  
      6503       6504       6515       6514       6624       6625       6636       6635  
      6504       6505       6516       6515       6625       6626       6637       6636  
      6505       6506       6517       6516       6626       6627       6638       6637  
      6506       6507       6518       6517       6627       6628       6639       6638  
      6507       6508       6519       6518       6628       6629       6640       6639  
      6508       6509       6520       6519       6629       6630       6641       6640  
      6509       6510       6521       6520       6630       6631       6642       6641  
      6510       6511       6522       6521       6631       6632       6643       6642  
      6511       6512       6523       6522       6632       6633       6644       6643  
      6513       6514       6525       6524       6634       6635       6646       6645  
      6514       6515       6526       6525       6635       6636       6647       6646  
      6515       6516       6527       6526       6636       6637       6648       6647  
      6516       6517       6528       6527       6637       6638       6649       6648  
      6517       6518       6529       6528       6638       6639       6650       6649  
      6518       6519       6530       6529       6639       6640       6651       6650  
      6519       6520       6531       6530       6640       6641       6652       6651  
      6520       6521       6532       6531       6641       6642       6653       6652  
      6521       6522       6533       6532       6642       6643       6654       6653  
      6522       6523       6534       6533       6643       6644       6655       6654  
      6535       6536       6547       6546       6656       6657       6668       6667  
      6536       6537       6548       6547       6657       6658       6669       6668  
      6537       6538       6549       6548       6658       6659       6670       6669  
      6538       6539       6550       6549       6659       6660       6671       6670  
      6539       6540       6551       6550       6660       6661       6672       6671  
      6540       6541       6552       6551       6661       6662       6673       6672  
      6541       6542       6553       6552       6662       6663       6674       6673  
      6542       6543       6554       6553       6663       6664       6675       6674  
      6543       6544       6555       6554       6664       6665       6676       6675  
      6544       6545       6556       6555       6665       6666       6677       6676  
      6546       6547       6558       6557       6667       6668       6679       6678  
      6547       6548       6559       6558       6668       6669       6680       6679  
      6548       6549       6560       6559       6669       6670       6681       6680  
      6549       6550       6561       6560       6670       6671       6682       6681  
      6550       6551       6562       6561       6671       6672       6683       6682  
      6551       6552       6563       6562       6672       6673       6684       6683  
      6552       6553       6564       6563       6673       6674       6685       6684  
      6553       6554       6565       6564       6674       6675       6686       6685  
      6554       6555       6566       6565       6675       6676       6687       6686  
      6555       6556       6567       6566       6676       6677       6688       6687  
      6557       6558       6569       6568       6678       6679       6690       6689  
      6558       6559       6570       6569       6679       6680       6691       6690  
      6559       6560       6571       6570       6680       6681       6692       6691  
      6560       6561       6572       6571       6681       6682       6693       6692  
      6561       6562       6573       6572       6682       6683       6694       6693  
      6562       6563       6574       6573       6683       6684       6695       6694  
      6563       6564       6575       6574       6684       6685       6696       6695  
      6564       6565       6576       6575       6685       6686       6697       6696  
      6565       6566       6577       6576       6686       6687       6698       6697  
      6566       6567       6578       6577       6687       6688       6699       6698  
      6568       6569       6580       6579       6689       6690       6701       6700  
      6569       6570       6581       6580       6690       6691       6702       6701  
      6570       6571       6582       6581       6691       6692       6703       6702  
      6571       6572       6583       6582       6692       6693       6704       6703  
      6572       6573       6584       6583       6693       6694       6705       6704  
      6573       6574       6585       6584       6694       6695       6706       6705  
      6574       6575       6586       6585       6695       6696       6707       6706  
      6575       6576       6587       6586       6696       6697       6708       6707  
      6576       6577       6588       6587       6697       6698       6709       6708  
      6577       6578       6589       6588       6698       6699       6710       6709  
      6579       6580       6591       6590       6700       6701       6712       6711  
      6580       6581       6592       6591       6701       6702       6713       6712  
      6581       6582       6593       6592       6702       6703       6714       6713  
      6582       6583       6594       6593       6703       6704       6715       6714  
      6583       6584       6595       6594       6704       6705       6716       6715  
      6584       6585       6596       6595       6705       6706       6717       6716  
      6585       6586       6597       6596       6706       6707       6718       6717  
      6586       6587       6598       6597       6707       6708       6719       6718  
      6587       6588       6599       6598       6708       6709       6720       6719  
      6588       6589       6600       6599       6709       6710       6721       6720  
      6590       6591       6602       6601       6711       6712       6723       6722  
      6591       6592       6603       6602       6712       6713       6724       6723  
      6592       6593       6604       6603       6713       6714       6725       6724  
      6593       6594       6605       6604       6714       6715       6726       6725  
      6594       6595       6606       6605       6715       6716       6727       6726  
      6595       6596       6607       6606       6716       6717       6728       6727  
      6596       6597       6608       6607       6717       6718       6729       6728  
      6597       6598       6609       6608       6718       6719       6730       6729  
      6598       6599       6610       6609       6719       6720       6731       6730  
      6599       6600       6611       6610       6720       6721       6732       6731  
      6601       6602       6613       6612       6722       6723       6734       6733  
      6602       6603       6614       6613       6723       6724       6735       6734  
      6603       6604       6615       6614       6724       6725       6736       6735  
      6604       6605       6616       6615       6725       6726       6737       6736  
      6605       6606       6617       6616       6726       6727       6738       6737  
      6606       6607       6618       6617       6727       6728       6739       6738  
      6607       6608       6619       6618       6728       6729       6740       6739  
      6608       6609       6620       6619       6729       6730       6741       6740  
      6609       6610       6621       6620       6730       6731       6742       6741  
      6610       6611       6622       6621       6731       6732       6743       6742  
      6612       6613       6624       6623       6733       6734       6745       6744  
      6613       6614       6625       6624       6734       6735       6746       6745  
      6614       6615       6626       6625       6735       6736       6747       6746  
      6615       6616       6627       6626       6736       6737       6748       6747  
      6616       6617       6628       6627       6737       6738       6749       6748  
      6617       6618       6629       6628       6738       6739       6750       6749  
      6618       6619       6630       6629       6739       6740       6751       6750  
      6619       6620       6631       6630       6740       6741       6752       6751  
      6620       6621       6632       6631       6741       6742       6753       6752  
      6621       6622       6633       6632       6742       6743       6754       6753  
      6623       6624       6635       6634       6744       6745       6756       6755  
      6624       6625       6636       6635       6745       6746       6757       6756  
      6625       6626       6637       6636       6746       6747       6758       6757  
      6626       6627       6638       6637       6747       6748       6759       6758  
      6627       6628       6639       6638       6748       6749       6760       6759  
      6628       6629       6640       6639       6749       6750       6761       6760  
      6629       6630       6641       6640       6750       6751       6762       6761  
      6630       6631       6642       6641       6751       6752       6763       6762  
      6631       6632       6643       6642       6752       6753       6764       6763  
      6632       6633       6644       6643       6753       6754       6765       6764  
      6634       6635       6646       6645       6755       6756       6767       6766  
      6635       6636       6647       6646       6756       6757       6768       6767  
      6636       6637       6648       6647       6757       6758       6769       6768  
      6637       6638       6649       6648       6758       6759       6770       6769  
      6638       6639       6650       6649       6759       6760       6771       6770  
      6639       6640       6651       6650       6760       6761       6772       6771  
      6640       6641       6652       6651       6761       6762       6773       6772  
      6641       6642       6653       6652       6762       6763       6774       6773  
      6642       6643       6654       6653       6763       6764       6775       6774  
      6643       6644       6655       6654       6764       6765       6776       6775  
      6656       6657       6668       6667       6777       6778       6789       6788  
      6657       6658       6669       6668       6778       6779       6790       6789  
      6658       6659       6670       6669       6779       6780       6791       6790  
      6659       6660       6671       6670       6780       6781       6792       6791  
      6660       6661       6672       6671       6781       6782       6793       6792  
      6661       6662       6673       6672       6782       6783       6794       6793  
      6662       6663       6674       6673       6783       6784       6795       6794  
      6663       6664       6675       6674       6784       6785       6796       6795  
      6664       6665       6676       6675       6785       6786       6797       6796  
      6665       6666       6677       6676       6786       6787       6798       6797  
      6667       6668       6679       6678       6788       6789       6800       6799  
      6668       6669       6680       6679       6789       6790       6801       6800  
      6669       6670       6681       6680       6790       6791       6802       6801  
      6670       6671       6682       6681       6791       6792       6803       6802  
      6671       6672       6683       6682       6792       6793       6804       6803  
      6672       6673       6684       6683       6793       6794       6805       6804  
      6673       6674       6685       6684       6794       6795       6806       6805  
      6674       6675       6686       6685       6795       6796       6807       6806  
      6675       6676       6687       6686       6796       6797       6808       6807  
      6676       6677       6688       6687       6797       6798       6809       6808  
      6678       6679       6690       6689       6799       6800       6811       6810  
      6679       6680       6691       6690       6800       6801       6812       6811  
      6680       6681       6692       6691       6801       6802       6813       6812  
      6681       6682       6693       6692       6802       6803       6814       6813  
      6682       6683       6694       6693       6803       6804       6815       6814  
      6683       6684       6695       6694       6804       6805       6816       6815  
      6684       6685       6696       6695       6805       6806       6817       6816  
      6685       6686       6697       6696       6806       6807       6818       6817  
      6686       6687       6698       6697       6807       6808       6819       6818  
      6687       6688       6699       6698       6808       6809       6820       6819  
      6689       6690       6701       6700       6810       6811       6822       6821  
      6690       6691       6702       6701       6811       6812       6823       6822  
      6691       6692       6703       6702       6812       6813       6824       6823  
      6692       6693       6704       6703       6813       6814       6825       6824  
      6693       6694       6705       6704       6814       6815       6826       6825  
      6694       6695       6706       6705       6815       6816       6827       6826  
      6695       6696       6707       6706       6816       6817       6828       6827  
      6696       6697       6708       6707       6817       6818       6829       6828  
      6697       6698       6709       6708       6818       6819       6830       6829  
      6698       6699       6710       6709       6819       6820       6831       6830  
      6700       6701       6712       6711       6821       6822       6833       6832  
      6701       6702       6713       6712       6822       6823       6834       6833  
      6702       6703       6714       6713       6823       6824       6835       6834  
      6703       6704       6715       6714       6824       6825       6836       6835  
      6704       6705       6716       6715       6825       6826       6837       6836  
      6705       6706       6717       6716       6826       6827       6838       6837  
      6706       6707       6718       6717       6827       6828       6839       6838  
      6707       6708       6719       6718       6828       6829       6840       6839  
      6708       6709       6720       6719       6829       6830       6841       6840  
      6709       6710       6721       6720       6830       6831       6842       6841  
      6711       6712       6723       6722       6832       6833       6844       6843  
      6712       6713       6724       6723       6833       6834       6845       6844  
      6713       6714       6725       6724       6834       6835       6846       6845  
      6714       6715       6726       6725       6835       6836       6847       6846  
      6715       6716       6727       6726       6836       6837       6848       6847  
      6716       6717       6728       6727       6837       6838       6849       6848  
      6717       6718       6729       6728       6838       6839       6850       6849  
      6718       6719       6730       6729       6839       6840       6851       6850  
      6719       6720       6731       6730       6840       6841       6852       6851  
      6720       6721       6732       6731       6841       6842       6853       6852  
      6722       6723       6734       6733       6843       6844       6855       6854  
      6723       6724       6735       6734       6844       6845       6856       6855  
      6724       6725       6736       6735       6845       6846       6857       6856  
      6725       6726       6737       6736       6846       6847       6858       6857  
      6726       6727       6738       6737       6847       6848       6859       6858  
      6727       6728       6739       6738       6848       6849       6860       6859  
      6728       6729       6740       6739       6849       6850       6861       6860  
      6729       6730       6741       6740       6850       6851       6862       6861  
      6730       6731       6742       6741       6851       6852       6863       6862  
      6731       6732       6743       6742       6852       6853       6864       6863  
      6733       6734       6745       6744       6854       6855       6866       6865  
      6734       6735       6746       6745       6855       6856       6867       6866  
      6735       6736       6747       6746       6856       6857       6868       6867  
      6736       6737       6748       6747       6857       6858       6869       6868  
      6737       6738       6749       6748       6858       6859       6870       6869  
      6738       6739       6750       6749       6859       6860       6871       6870  
      6739       6740       6751       6750       6860       6861       6872       6871  
      6740       6741       6752       6751       6861       6862       6873       6872  
      6741       6742       6753       6752       6862       6863       6874       6873  
      6742       6743       6754       6753       6863       6864       6875       6874  
      6744       6745       6756       6755       6865       6866       6877       6876  
      6745       6746       6757       6756       6866       6867       6878       6877  
      6746       6747       6758       6757       6867       6868       6879       6878  
      6747       6748       6759       6758       6868       6869       6880       6879  
      6748       6749       6760       6759       6869       6870       6881       6880  
      6749       6750       6761       6760       6870       6871       6882       6881  
      6750       6751       6762       6761       6871       6872       6883       6882  
      6751       6752       6763       6762       6872       6873       6884       6883  
      6752       6753       6764       6763       6873       6874       6885       6884  
      6753       6754       6765       6764       6874       6875       6886       6885  
      6755       6756       6767       6766       6876       6877       6888       6887  
      6756       6757       6768       6767       6877       6878       6889       6888  
      6757       6758       6769       6768       6878       6879       6890       6889  
      6758       6759       6770       6769       6879       6880       6891       6890  
      6759       6760       6771       6770       6880       6881       6892       6891  
      6760       6761       6772       6771       6881       6882       6893       6892  
      6761       6762       6773       6772       6882       6883       6894       6893  
      6762       6763       6774       6773       6883       6884       6895       6894  
      6763       6764       6775       6774       6884       6885       6896       6895  
      6764       6765       6776       6775       6885       6886       6897       6896  
      6777       6778       6789       6788       6898       6899       6910       6909  
      6778       6779       6790       6789       6899       6900       6911       6910  
      6779       6780       6791       6790       6900       6901       6912       6911  
      6780       6781       6792       6791       6901       6902       6913       6912  
      6781       6782       6793       6792       6902       6903       6914       6913  
      6782       6783       6794       6793       6903       6904       6915       6914  
      6783       6784       6795       6794       6904       6905       6916       6915  
      6784       6785       6796       6795       6905       6906       6917       6916  
      6785       6786       6797       6796       6906       6907       6918       6917  
      6786       6787       6798       6797       6907       6908       6919       6918  
      6788       6789       6800       6799       6909       6910       6921       6920  
      6789       6790       6801       6800       6910       6911       6922       6921  
      6790       6791       6802       6801       6911       6912       6923       6922  
      6791       6792       6803       6802       6912       6913       6924       6923  
      6792       6793       6804       6803       6913       6914       6925       6924  
      6793       6794       6805       6804       6914       6915       6926       6925  
      6794       6795       6806       6805       6915       6916       6927       6926  
      6795       6796       6807       6806       6916       6917       6928       6927  
      6796       6797       6808       6807       6917       6918       6929       6928  
      6797       6798       6809       6808       6918       6919       6930       6929  
      6799       6800       6811       6810       6920       6921       6932       6931  
      6800       6801       6812       6811       6921       6922       6933       6932  
      6801       6802       6813       6812       6922       6923       6934       6933  
      6802       6803       6814       6813       6923       6924       6935       6934  
      6803       6804       6815       6814       6924       6925       6936       6935  
      6804       6805       6816       6815       6925       6926       6937       6936  
      6805       6806       6817       6816       6926       6927       6938       6937  
      6806       6807       6818       6817       6927       6928       6939       6938  
      6807       6808       6819       6818       6928       6929       6940       6939  
      6808       6809       6820       6819       6929       6930       6941       6940  
      6810       6811       6822       6821       6931       6932       6943       6942  
      6811       6812       6823       6822       6932       6933       6944       6943  
      6812       6813       6824       6823       6933       6934       6945       6944  
      6813       6814       6825       6824       6934       6935       6946       6945  
      6814       6815       6826       6825       6935       6936       6947       6946  
      6815       6816       6827       6826       6936       6937       6948       6947  
      6816       6817       6828       6827       6937       6938       6949       6948  
      6817       6818       6829       6828       6938       6939       6950       6949  
      6818       6819       6830       6829       6939       6940       6951       6950  
      6819       6820       6831       6830       6940       6941       6952       6951  
      6821       6822       6833       6832       6942       6943       6954       6953  
      6822       6823       6834       6833       6943       6944       6955       6954  
      6823       6824       6835       6834       6944       6945       6956       6955  
      6824       6825       6836       6835       6945       6946       6957       6956  
      6825       6826       6837       6836       6946       6947       6958       6957  
      6826       6827       6838       6837       6947       6948       6959       6958  
      6827       6828       6839       6838       6948       6949       6960       6959  
      6828       6829       6840       6839       6949       6950       6961       6960  
      6829       6830       6841       6840       6950       6951       6962       6961  
      6830       6831       6842       6841       6951       6952       6963       6962  
      6832       6833       6844       6843       6953       6954       6965       6964  
      6833       6834       6845       6844       6954       6955       6966       6965  
      6834       6835       6846       6845       6955       6956       6967       6966  
      6835       6836       6847       6846       6956       6957       6968       6967  
      6836       6837       6848       6847       6957       6958       6969       6968  
      6837       6838       6849       6848       6958       6959       6970       6969  
      6838       6839       6850       6849       6959       6960       6971       6970  
      6839       6840       6851       6850       6960       6961       6972       6971  
      6840       6841       6852       6851       6961       6962       6973       6972  
      6841       6842       6853       6852       6962       6963       6974       6973  
      6843       6844       6855       6854       6964       6965       6976       6975  
      6844       6845       6856       6855       6965       6966       6977       6976  
      6845       6846       6857       6856       6966       6967       6978       6977  
      6846       6847       6858       6857       6967       6968       6979       6978  
      6847       6848       6859       6858       6968       6969       6980       6979  
      6848       6849       6860       6859       6969       6970       6981       6980  
      6849       6850       6861       6860       6970       6971       6982       6981  
      6850       6851       6862       6861       6971       6972       6983       6982  
      6851       6852       6863       6862       6972       6973       6984       6983  
      6852       6853       6864       6863       6973       6974       6985       6984  
      6854       6855       6866       6865       6975       6976       6987       6986  
      6855       6856       6867       6866       6976       6977       6988       6987  
      6856       6857       6868       6867       6977       6978       6989       6988  
      6857       6858       6869       6868       6978       6979       6990       6989  
      6858       6859       6870       6869       6979       6980       6991       6990  
      6859       6860       6871       6870       6980       6981       6992       6991  
      6860       6861       6872       6871       6981       6982       6993       6992  
      6861       6862       6873       6872       6982       6983       6994       6993  
      6862       6863       6874       6873       6983       6984       6995       6994  
      6863       6864       6875       6874       6984       6985       6996       6995  
      6865       6866       6877       6876       6986       6987       6998       6997  
      6866       6867       6878       6877       6987       6988       6999       6998  
      6867       6868       6879       6878       6988       6989       7000       6999  
      6868       6869       6880       6879       6989       6990       7001       7000  
      6869       6870       6881       6880       6990       6991       7002       7001  
      6870       6871       6882       6881       6991       6992       7003       7002  
      6871       6872       6883       6882       6992       6993       7004       7003  
      6872       6873       6884       6883       6993       6994       7005       7004  
      6873       6874       6885       6884       6994       6995       7006       7005  
      6874       6875       6886       6885       6995       6996       7007       7006  
      6876       6877       6888       6887       6997       6998       7009       7008  
      6877       6878       6889       6888       6998       6999       7010       7009  
      6878       6879       6890       6889       6999       7000       7011       7010  
      6879       6880       6891       6890       7000       7001       7012       7011  
      6880       6881       6892       6891       7001       7002       7013       7012  
      6881       6882       6893       6892       7002       7003       7014       7013  
      6882       6883       6894       6893       7003       7004       7015       7014  
      6883       6884       6895       6894       7004       7005       7016       7015  
      6884       6885       6896       6895       7005       7006       7017       7016  
      6885       6886       6897       6896       7006       7007       7018       7017  
      6898       6899       6910       6909       7019       7020       7031       7030  
      6899       6900       6911       6910       7020       7021       7032       7031  
      6900       6901       6912       6911       7021       7022       7033       7032  
      6901       6902       6913       6912       7022       7023       7034       7033  
      6902       6903       6914       6913       7023       7024       7035       7034  
      6903       6904       6915       6914       7024       7025       7036       7035  
      6904       6905       6916       6915       7025       7026       7037       7036  
      6905       6906       6917       6916       7026       7027       7038       7037  
      6906       6907       6918       6917       7027       7028       7039       7038  
      6907       6908       6919       6918       7028       7029       7040       7039  
      6909       6910       6921       6920       7030       7031       7042       7041  
      6910       6911       6922       6921       7031       7032       7043       7042  
      6911       6912       6923       6922       7032       7033       7044       7043  
      6912       6913       6924       6923       7033       7034       7045       7044  
      6913       6914       6925       6924       7034       7035       7046       7045  
      6914       6915       6926       6925       7035       7036       7047       7046  
      6915       6916       6927       6926       7036       7037       7048       7047  
      6916       6917       6928       6927       7037       7038       7049       7048  
      6917       6918       6929       6928       7038       7039       7050       7049  
      6918       6919       6930       6929       7039       7040       7051       7050  
      6920       6921       6932       6931       7041       7042       7053       7052  
      6921       6922       6933       6932       7042       7043       7054       7053  
      6922       6923       6934       6933       7043       7044       7055       7054  
      6923       6924       6935       6934       7044       7045       7056       7055  
      6924       6925       6936       6935       7045       7046       7057       7056  
      6925       6926       6937       6936       7046       7047       7058       7057  
      6926       6927       6938       6937       7047       7048       7059       7058  
      6927       6928       6939       6938       7048       7049       7060       7059  
      6928       6929       6940       6939       7049       7050       7061       7060  
      6929       6930       6941       6940       7050       7051       7062       7061  
      6931       6932       6943       6942       7052       7053       7064       7063  
      6932       6933       6944       6943       7053       7054       7065       7064  
      6933       6934       6945       6944       7054       7055       7066       7065  
      6934       6935       6946       6945       7055       7056       7067       7066  
      6935       6936       6947       6946       7056       7057       7068       7067  
      6936       6937       6948       6947       7057       7058       7069       7068  
      6937       6938       6949       6948       7058       7059       7070       7069  
      6938       6939       6950       6949       7059       7060       7071       7070  
      6939       6940       6951       6950       7060       7061       7072       7071  
      6940       6941       6952       6951       7061       7062       7073       7072  
      6942       6943       6954       6953       7063       7064       7075       7074  
      6943       6944       6955       6954       7064       7065       7076       7075  
      6944       6945       6956       6955       7065       7066       7077       7076  
      6945       6946       6957       6956       7066       7067       7078       7077  
      6946       6947       6958       6957       7067       7068       7079       7078  
      6947       6948       6959       6958       7068       7069       7080       7079  
      6948       6949       6960       6959       7069       7070       7081       7080  
      6949       6950       6961       6960       7070       7071       7082       7081  
      6950       6951       6962       6961       7071       7072       7083       7082  
      6951       6952       6963       6962       7072       7073       7084       7083  
      6953       6954       6965       6964       7074       7075       7086       7085  
      6954       6955       6966       6965       7075       7076       7087       7086  
      6955       6956       6967       6966       7076       7077       7088       7087  
      6956       6957       6968       6967       7077       7078       7089       7088  
      6957       6958       6969       6968       7078       7079       7090       7089  
      6958       6959       6970       6969       7079       7080       7091       7090  
      6959       6960       6971       6970       7080       7081       7092       7091  
      6960       6961       6972       6971       7081       7082       7093       7092  
      6961       6962       6973       6972       7082       7083       7094       7093  
      6962       6963       6974       6973       7083       7084       7095       7094  
      6964       6965       6976       6975       7085       7086       7097       7096  
      6965       6966       6977       6976       7086       7087       7098       7097  
      6966       6967       6978       6977       7087       7088       7099       7098  
      6967       6968       6979       6978       7088       7089       7100       7099  
      6968       6969       6980       6979       7089       7090       7101       7100  
      6969       6970       6981       6980       7090       7091       7102       7101  
      6970       6971       6982       6981       7091       7092       7103       7102  
      6971       6972       6983       6982       7092       7093       7104       7103  
      6972       6973       6984       6983       7093       7094       7105       7104  
      6973       6974       6985       6984       7094       7095       7106       7105  
      6975       6976       6987       6986       7096       7097       7108       7107  
      6976       6977       6988       6987       7097       7098       7109       7108  
      6977       6978       6989       6988       7098       7099       7110       7109  
      6978       6979       6990       6989       7099       7100       7111       7110  
      6979       6980       6991       6990       7100       7101       7112       7111  
      6980       6981       6992       6991       7101       7102       7113       7112  
      6981       6982       6993       6992       7102       7103       7114       7113  
      6982       6983       6994       6993       7103       7104       7115       7114  
      6983       6984       6995       6994       7104       7105       7116       7115  
      6984       6985       6996       6995       7105       7106       7117       7116  
      6986       6987       6998       6997       7107       7108       7119       7118  
      6987       6988       6999       6998       7108       7109       7120       7119  
      6988       6989       7000       6999       7109       7110       7121       7120  
      6989       6990       7001       7000       7110       7111       7122       7121  
      6990       6991       7002       7001       7111       7112       7123       7122  
      6991       6992       7003       7002       7112       7113       7124       7123  
      6992       6993       7004       7003       7113       7114       7125       7124  
      6993       6994       7005       7004       7114       7115       7126       7125  
      6994       6995       7006       7005       7115       7116       7127       7126  
      6995       6996       7007       7006       7116       7117       7128       7127  
      6997       6998       7009       7008       7118       7119       7130       7129  
      6998       6999       7010       7009       7119       7120       7131       7130  
      6999       7000       7011       7010       7120       7121       7132       7131  
      7000       7001       7012       7011       7121       7122       7133       7132  
      7001       7002       7013       7012       7122       7123       7134       7133  
      7002       7003       7014       7013       7123       7124       7135       7134  
      7003       7004       7015       7014       7124       7125       7136       7135  
      7004       7005       7016       7015       7125       7126       7137       7136  
      7005       7006       7017       7016       7126       7127       7138       7137  
      7006       7007       7018       7017       7127       7128       7139       7138  
      7019       7020       7031       7030       7140       7141       7152       7151  
      7020       7021       7032       7031       7141       7142       7153       7152  
      7021       7022       7033       7032       7142       7143       7154       7153  
      7022       7023       7034       7033       7143       7144       7155       7154  
      7023       7024       7035       7034       7144       7145       7156       7155  
      7024       7025       7036       7035       7145       7146       7157       7156  
      7025       7026       7037       7036       7146       7147       7158       7157  
      7026       7027       7038       7037       7147       7148       7159       7158  
      7027       7028       7039       7038       7148       7149       7160       7159  
      7028       7029       7040       7039       7149       7150       7161       7160  
      7030       7031       7042       7041       7151       7152       7163       7162  
      7031       7032       7043       7042       7152       7153       7164       7163  
      7032       7033       7044       7043       7153       7154       7165       7164  
      7033       7034       7045       7044       7154       7155       7166       7165  
      7034       7035       7046       7045       7155       7156       7167       7166  
      7035       7036       7047       7046       7156       7157       7168       7167  
      7036       7037       7048       7047       7157       7158       7169       7168  
      7037       7038       7049       7048       7158       7159       7170       7169  
      7038       7039       7050       7049       7159       7160       7171       7170  
      7039       7040       7051       7050       7160       7161       7172       7171  
      7041       7042       7053       7052       7162       7163       7174       7173  
      7042       7043       7054       7053       7163       7164       7175       7174  
      7043       7044       7055       7054       7164       7165       7176       7175  
      7044       7045       7056       7055       7165       7166       7177       7176  
      7045       7046       7057       7056       7166       7167       7178       7177  
      7046       7047       7058       7057       7167       7168       7179       7178  
      7047       7048       7059       7058       7168       7169       7180       7179  
      7048       7049       7060       7059       7169       7170       7181       7180  
      7049       7050       7061       7060       7170       7171       7182       7181  
      7050       7051       7062       7061       7171       7172       7183       7182  
      7052       7053       7064       7063       7173       7174       7185       7184  
      7053       7054       7065       7064       7174       7175       7186       7185  
      7054       7055       7066       7065       7175       7176       7187       7186  
      7055       7056       7067       7066       7176       7177       7188       7187  
      7056       7057       7068       7067       7177       7178       7189       7188  
      7057       7058       7069       7068       7178       7179       7190       7189  
      7058       7059       7070       7069       7179       7180       7191       7190  
      7059       7060       7071       7070       7180       7181       7192       7191  
      7060       7061       7072       7071       7181       7182       7193       7192  
      7061       7062       7073       7072       7182       7183       7194       7193  
      7063       7064       7075       7074       7184       7185       7196       7195  
      7064       7065       7076       7075       7185       7186       7197       7196  
      7065       7066       7077       7076       7186       7187       7198       7197  
      7066       7067       7078       7077       7187       7188       7199       7198  
      7067       7068       7079       7078       7188       7189       7200       7199  
      7068       7069       7080       7079       7189       7190       7201       7200  
      7069       7070       7081       7080       7190       7191       7202       7201  
      7070       7071       7082       7081       7191       7192       7203       7202  
      7071       7072       7083       7082       7192       7193       7204       7203  
      7072       7073       7084       7083       7193       7194       7205       7204  
      7074       7075       7086       7085       7195       7196       7207       7206  
      7075       7076       7087       7086       7196       7197       7208       7207  
      7076       7077       7088       7087       7197       7198       7209       7208  
      7077       7078       7089       7088       7198       7199       7210       7209  
      7078       7079       7090       7089       7199       7200       7211       7210  
      7079       7080       7091       7090       7200       7201       7212       7211  
      7080       7081       7092       7091       7201       7202       7213       7212  
      7081       7082       7093       7092       7202       7203       7214       7213  
      7082       7083       7094       7093       7203       7204       7215       7214  
      7083       7084       7095       7094       7204       7205       7216       7215  
      7085       7086       7097       7096       7206       7207       7218       7217  
      7086       7087       7098       7097       7207       7208       7219       7218  
      7087       7088       7099       7098       7208       7209       7220       7219  
      7088       7089       7100       7099       7209       7210       7221       7220  
      7089       7090       7101       7100       7210       7211       7222       7221  
      7090       7091       7102       7101       7211       7212       7223       7222  
      7091       7092       7103       7102       7212       7213       7224       7223  
      7092       7093       7104       7103       7213       7214       7225       7224  
      7093       7094       7105       7104       7214       7215       7226       7225  
      7094       7095       7106       7105       7215       7216       7227       7226  
      7096       7097       7108       7107       7217       7218       7229       7228  
      7097       7098       7109       7108       7218       7219       7230       7229  
      7098       7099       7110       7109       7219       7220       7231       7230  
      7099       7100       7111       7110       7220       7221       7232       7231  
      7100       7101       7112       7111       7221       7222       7233       7232  
      7101       7102       7113       7112       7222       7223       7234       7233  
      7102       7103       7114       7113       7223       7224       7235       7234  
      7103       7104       7115       7114       7224       7225       7236       7235  
      7104       7105       7116       7115       7225       7226       7237       7236  
      7105       7106       7117       7116       7226       7227       7238       7237  
      7107       7108       7119       7118       7228       7229       7240       7239  
      7108       7109       7120       7119       7229       7230       7241       7240  
      7109       7110       7121       7120       7230       7231       7242       7241  
      7110       7111       7122       7121       7231       7232       7243       7242  
      7111       7112       7123       7122       7232       7233       7244       7243  
      7112       7113       7124       7123       7233       7234       7245       7244  
      7113       7114       7125       7124       7234       7235       7246       7245  
      7114       7115       7126       7125       7235       7236       7247       7246  
      7115       7116       7127       7126       7236       7237       7248       7247  
      7116       7117       7128       7127       7237       7238       7249       7248  
      7118       7119       7130       7129       7239       7240       7251       7250  
      7119       7120       7131       7130       7240       7241       7252       7251  
      7120       7121       7132       7131       7241       7242       7253       7252  
      7121       7122       7133       7132       7242       7243       7254       7253  
      7122       7123       7134       7133       7243       7244       7255       7254  
      7123       7124       7135       7134       7244       7245       7256       7255  
      7124       7125       7136       7135       7245       7246       7257       7256  
      7125       7126       7137       7136       7246       7247       7258       7257  
      7126       7127       7138       7137       7247       7248       7259       7258  
      7127       7128       7139       7138       7248       7249       7260       7259  
      7140       7141       7152       7151       7261       7262       7273       7272  
      7141       7142       7153       7152       7262       7263       7274       7273  
      7142       7143       7154       7153       7263       7264       7275       7274  
      7143       7144       7155       7154       7264       7265       7276       7275  
      7144       7145       7156       7155       7265       7266       7277       7276  
      7145       7146       7157       7156       7266       7267       7278       7277  
      7146       7147       7158       7157       7267       7268       7279       7278  
      7147       7148       7159       7158       7268       7269       7280       7279  
      7148       7149       7160       7159       7269       7270       7281       7280  
      7149       7150       7161       7160       7270       7271       7282       7281  
      7151       7152       7163       7162       7272       7273       7284       7283  
      7152       7153       7164       7163       7273       7274       7285       7284  
      7153       7154       7165       7164       7274       7275       7286       7285  
      7154       7155       7166       7165       7275       7276       7287       7286  
      7155       7156       7167       7166       7276       7277       7288       7287  
      7156       7157       7168       7167       7277       7278       7289       7288  
      7157       7158       7169       7168       7278       7279       7290       7289  
      7158       7159       7170       7169       7279       7280       7291       7290  
      7159       7160       7171       7170       7280       7281       7292       7291  
      7160       7161       7172       7171       7281       7282       7293       7292  
      7162       7163       7174       7173       7283       7284       7295       7294  
      7163       7164       7175       7174       7284       7285       7296       7295  
      7164       7165       7176       7175       7285       7286       7297       7296  
      7165       7166       7177       7176       7286       7287       7298       7297  
      7166       7167       7178       7177       7287       7288       7299       7298  
      7167       7168       7179       7178       7288       7289       7300       7299  
      7168       7169       7180       7179       7289       7290       7301       7300  
      7169       7170       7181       7180       7290       7291       7302       7301  
      7170       7171       7182       7181       7291       7292       7303       7302  
      7171       7172       7183       7182       7292       7293       7304       7303  
      7173       7174       7185       7184       7294       7295       7306       7305  
      7174       7175       7186       7185       7295       7296       7307       7306  
      7175       7176       7187       7186       7296       7297       7308       7307  
      7176       7177       7188       7187       7297       7298       7309       7308  
      7177       7178       7189       7188       7298       7299       7310       7309  
      7178       7179       7190       7189       7299       7300       7311       7310  
      7179       7180       7191       7190       7300       7301       7312       7311  
      7180       7181       7192       7191       7301       7302       7313       7312  
      7181       7182       7193       7192       7302       7303       7314       7313  
      7182       7183       7194       7193       7303       7304       7315       7314  
      7184       7185       7196       7195       7305       7306       7317       7316  
      7185       7186       7197       7196       7306       7307       7318       7317  
      7186       7187       7198       7197       7307       7308       7319       7318  
      7187       7188       7199       7198       7308       7309       7320       7319  
      7188       7189       7200       7199       7309       7310       7321       7320  
      7189       7190       7201       7200       7310       7311       7322       7321  
      7190       7191       7202       7201       7311       7312       7323       7322  
      7191       7192       7203       7202       7312       7313       7324       7323  
      7192       7193       7204       7203       7313       7314       7325       7324  
      7193       7194       7205       7204       7314       7315       7326       7325  
      7195       7196       7207       7206       7316       7317       7328       7327  
      7196       7197       7208       7207       7317       7318       7329       7328  
      7197       7198       7209       7208       7318       7319       7330       7329  
      7198       7199       7210       7209       7319       7320       7331       7330  
      7199       7200       7211       7210       7320       7321       7332       7331  
      7200       7201       7212       7211       7321       7322       7333       7332  
      7201       7202       7213       7212       7322       7323       7334       7333  
      7202       7203       7214       7213       7323       7324       7335       7334  
      7203       7204       7215       7214       7324       7325       7336       7335  
      7204       7205       7216       7215       7325       7326       7337       7336  
      7206       7207       7218       7217       7327       7328       7339       7338  
      7207       7208       7219       7218       7328       7329       7340       7339  
      7208       7209       7220       7219       7329       7330       7341       7340  
      7209       7210       7221       7220       7330       7331       7342       7341  
      7210       7211       7222       7221       7331       7332       7343       7342  
      7211       7212       7223       7222       7332       7333       7344       7343  
      7212       7213       7224       7223       7333       7334       7345       7344  
      7213       7214       7225       7224       7334       7335       7346       7345  
      7214       7215       7226       7225       7335       7336       7347       7346  
      7215       7216       7227       7226       7336       7337       7348       7347  
      7217       7218       7229       7228       7338       7339       7350       7349  
      7218       7219       7230       7229       7339       7340       7351       7350  
      7219       7220       7231       7230       7340       7341       7352       7351  
      7220       7221       7232       7231       7341       7342       7353       7352  
      7221       7222       7233       7232       7342       7343       7354       7353  
      7222       7223       7234       7233       7343       7344       7355       7354  
      7223       7224       7235       7234       7344       7345       7356       7355  
      7224       7225       7236       7235       7345       7346       7357       7356  
      7225       7226       7237       7236       7346       7347       7358       7357  
      7226       7227       7238       7237       7347       7348       7359       7358  
      7228       7229       7240       7239       7349       7350       7361       7360  
      7229       7230       7241       7240       7350       7351       7362       7361  
      7230       7231       7242       7241       7351       7352       7363       7362  
      7231       7232       7243       7242       7352       7353       7364       7363  
      7232       7233       7244       7243       7353       7354       7365       7364  
      7233       7234       7245       7244       7354       7355       7366       7365  
      7234       7235       7246       7245       7355       7356       7367       7366  
      7235       7236       7247       7246       7356       7357       7368       7367  
      7236       7237       7248       7247       7357       7358       7369       7368  
      7237       7238       7249       7248       7358       7359       7370       7369  
      7239       7240       7251       7250       7360       7361       7372       7371  
      7240       7241       7252       7251       7361       7362       7373       7372  
      7241       7242       7253       7252       7362       7363       7374       7373  
      7242       7243       7254       7253       7363       7364       7375       7374  
      7243       7244       7255       7254       7364       7365       7376       7375  
      7244       7245       7256       7255       7365       7366       7377       7376  
      7245       7246       7257       7256       7366       7367       7378       7377  
      7246       7247       7258       7257       7367       7368       7379       7378  
      7247       7248       7259       7258       7368       7369       7380       7379  
      7248       7249       7260       7259       7369       7370       7381       7380  
      7261       7262       7273       7272       7382       7383       7394       7393  
      7262       7263       7274       7273       7383       7384       7395       7394  
      7263       7264       7275       7274       7384       7385       7396       7395  
      7264       7265       7276       7275       7385       7386       7397       7396  
      7265       7266       7277       7276       7386       7387       7398       7397  
      7266       7267       7278       7277       7387       7388       7399       7398  
      7267       7268       7279       7278       7388       7389       7400       7399  
      7268       7269       7280       7279       7389       7390       7401       7400  
      7269       7270       7281       7280       7390       7391       7402       7401  
      7270       7271       7282       7281       7391       7392       7403       7402  
      7272       7273       7284       7283       7393       7394       7405       7404  
      7273       7274       7285       7284       7394       7395       7406       7405  
      7274       7275       7286       7285       7395       7396       7407       7406  
      7275       7276       7287       7286       7396       7397       7408       7407  
      7276       7277       7288       7287       7397       7398       7409       7408  
      7277       7278       7289       7288       7398       7399       7410       7409  
      7278       7279       7290       7289       7399       7400       7411       7410  
      7279       7280       7291       7290       7400       7401       7412       7411  
      7280       7281       7292       7291       7401       7402       7413       7412  
      7281       7282       7293       7292       7402       7403       7414       7413  
      7283       7284       7295       7294       7404       7405       7416       7415  
      7284       7285       7296       7295       7405       7406       7417       7416  
      7285       7286       7297       7296       7406       7407       7418       7417  
      7286       7287       7298       7297       7407       7408       7419       7418  
      7287       7288       7299       7298       7408       7409       7420       7419  
      7288       7289       7300       7299       7409       7410       7421       7420  
      7289       7290       7301       7300       7410       7411       7422       7421  
      7290       7291       7302       7301       7411       7412       7423       7422  
      7291       7292       7303       7302       7412       7413       7424       7423  
      7292       7293       7304       7303       7413       7414       7425       7424  
      7294       7295       7306       7305       7415       7416       7427       7426  
      7295       7296       7307       7306       7416       7417       7428       7427  
      7296       7297       7308       7307       7417       7418       7429       7428  
      7297       7298       7309       7308       7418       7419       7430       7429  
      7298       7299       7310       7309       7419       7420       7431       7430  
      7299       7300       7311       7310       7420       7421       7432       7431  
      7300       7301       7312       7311       7421       7422       7433       7432  
      7301       7302       7313       7312       7422       7423       7434       7433  
      7302       7303       7314       7313       7423       7424       7435       7434  
      7303       7304       7315       7314       7424       7425       7436       7435  
      7305       7306       7317       7316       7426       7427       7438       7437  
      7306       7307       7318       7317       7427       7428       7439       7438  
      7307       7308       7319       7318       7428       7429       7440       7439  
      7308       7309       7320       7319       7429       7430       7441       7440  
      7309       7310       7321       7320       7430       7431       7442       7441  
      7310       7311       7322       7321       7431       7432       7443       7442  
      7311       7312       7323       7322       7432       7433       7444       7443  
      7312       7313       7324       7323       7433       7434       7445       7444  
      7313       7314       7325       7324       7434       7435       7446       7445  
      7314       7315       7326       7325       7435       7436       7447       7446  
      7316       7317       7328       7327       7437       7438       7449       7448  
      7317       7318       7329       7328       7438       7439       7450       7449  
      7318       7319       7330       7329       7439       7440       7451       7450  
      7319       7320       7331       7330       7440       7441       7452       7451  
      7320       7321       7332       7331       7441       7442       7453       7452  
      7321       7322       7333       7332       7442       7443       7454       7453  
      7322       7323       7334       7333       7443       7444       7455       7454  
      7323       7324       7335       7334       7444       7445       7456       7455  
      7324       7325       7336       7335       7445       7446       7457       7456  
      7325       7326       7337       7336       7446       7447       7458       7457  
      7327       7328       7339       7338       7448       7449       7460       7459  
      7328       7329       7340       7339       7449       7450       7461       7460  
      7329       7330       7341       7340       7450       7451       7462       7461  
      7330       7331       7342       7341       7451       7452       7463       7462  
      7331       7332       7343       7342       7452       7453       7464       7463  
      7332       7333       7344       7343       7453       7454       7465       7464  
      7333       7334       7345       7344       7454       7455       7466       7465  
      7334       7335       7346       7345       7455       7456       7467       7466  
      7335       7336       7347       7346       7456       7457       7468       7467  
      7336       7337       7348       7347       7457       7458       7469       7468  
      7338       7339       7350       7349       7459       7460       7471       7470  
      7339       7340       7351       7350       7460       7461       7472       7471  
      7340       7341       7352       7351       7461       7462       7473       7472  
      7341       7342       7353       7352       7462       7463       7474       7473  
      7342       7343       7354       7353       7463       7464       7475       7474  
      7343       7344       7355       7354       7464       7465       7476       7475  
      7344       7345       7356       7355       7465       7466       7477       7476  
      7345       7346       7357       7356       7466       7467       7478       7477  
      7346       7347       7358       7357       7467       7468       7479       7478  
      7347       7348       7359       7358       7468       7469       7480       7479  
      7349       7350       7361       7360       7470       7471       7482       7481  
      7350       7351       7362       7361       7471       7472       7483       7482  
      7351       7352       7363       7362       7472       7473       7484       7483  
      7352       7353       7364       7363       7473       7474       7485       7484  
      7353       7354       7365       7364       7474       7475       7486       7485  
      7354       7355       7366       7365       7475       7476       7487       7486  
      7355       7356       7367       7366       7476       7477       7488       7487  
      7356       7357       7368       7367       7477       7478       7489       7488  
      7357       7358       7369       7368       7478       7479       7490       7489  
      7358       7359       7370       7369       7479       7480       7491       7490  
      7360       7361       7372       7371       7481       7482       7493       7492  
      7361       7362       7373       7372       7482       7483       7494       7493  
      7362       7363       7374       7373       7483       7484       7495       7494  
      7363       7364       7375       7374       7484       7485       7496       7495  
      7364       7365       7376       7375       7485       7486       7497       7496  
      7365       7366       7377       7376       7486       7487       7498       7497  
      7366       7367       7378       7377       7487       7488       7499       7498  
      7367       7368       7379       7378       7488       7489       7500       7499  
      7368       7369       7380       7379       7489       7490       7501       7500  
      7369       7370       7381       7380       7490       7491       7502       7501  
      7382       7383       7394       7393       7503       7504       7515       7514  
      7383       7384       7395       7394       7504       7505       7516       7515  
      7384       7385       7396       7395       7505       7506       7517       7516  
      7385       7386       7397       7396       7506       7507       7518       7517  
      7386       7387       7398       7397       7507       7508       7519       7518  
      7387       7388       7399       7398       7508       7509       7520       7519  
      7388       7389       7400       7399       7509       7510       7521       7520  
      7389       7390       7401       7400       7510       7511       7522       7521  
      7390       7391       7402       7401       7511       7512       7523       7522  
      7391       7392       7403       7402       7512       7513       7524       7523  
      7393       7394       7405       7404       7514       7515       7526       7525  
      7394       7395       7406       7405       7515       7516       7527       7526  
      7395       7396       7407       7406       7516       7517       7528       7527  
      7396       7397       7408       7407       7517       7518       7529       7528  
      7397       7398       7409       7408       7518       7519       7530       7529  
      7398       7399       7410       7409       7519       7520       7531       7530  
      7399       7400       7411       7410       7520       7521       7532       7531  
      7400       7401       7412       7411       7521       7522       7533       7532  
      7401       7402       7413       7412       7522       7523       7534       7533  
      7402       7403       7414       7413       7523       7524       7535       7534  
      7404       7405       7416       7415       7525       7526       7537       7536  
      7405       7406       7417       7416       7526       7527       7538       7537  
      7406       7407       7418       7417       7527       7528       7539       7538  
      7407       7408       7419       7418       7528       7529       7540       7539  
      7408       7409       7420       7419       7529       7530       7541       7540  
      7409       7410       7421       7420       7530       7531       7542       7541  
      7410       7411       7422       7421       7531       7532       7543       7542  
      7411       7412       7423       7422       7532       7533       7544       7543  
      7412       7413       7424       7423       7533       7534       7545       7544  
      7413       7414       7425       7424       7534       7535       7546       7545  
      7415       7416       7427       7426       7536       7537       7548       7547  
      7416       7417       7428       7427       7537       7538       7549       7548  
      7417       7418       7429       7428       7538       7539       7550       7549  
      7418       7419       7430       7429       7539       7540       7551       7550  
      7419       7420       7431       7430       7540       7541       7552       7551  
      7420       7421       7432       7431       7541       7542       7553       7552  
      7421       7422       7433       7432       7542       7543       7554       7553  
      7422       7423       7434       7433       7543       7544       7555       7554  
      7423       7424       7435       7434       7544       7545       7556       7555  
      7424       7425       7436       7435       7545       7546       7557       7556  
      7426       7427       7438       7437       7547       7548       7559       7558  
      7427       7428       7439       7438       7548       7549       7560       7559  
      7428       7429       7440       7439       7549       7550       7561       7560  
      7429       7430       7441       7440       7550       7551       7562       7561  
      7430       7431       7442       7441       7551       7552       7563       7562  
      7431       7432       7443       7442       7552       7553       7564       7563  
      7432       7433       7444       7443       7553       7554       7565       7564  
      7433       7434       7445       7444       7554       7555       7566       7565  
      7434       7435       7446       7445       7555       7556       7567       7566  
      7435       7436       7447       7446       7556       7557       7568       7567  
      7437       7438       7449       7448       7558       7559       7570       7569  
      7438       7439       7450       7449       7559       7560       7571       7570  
      7439       7440       7451       7450       7560       7561       7572       7571  
      7440       7441       7452       7451       7561       7562       7573       7572  
      7441       7442       7453       7452       7562       7563       7574       7573  
      7442       7443       7454       7453       7563       7564       7575       7574  
      7443       7444       7455       7454       7564       7565       7576       7575  
      7444       7445       7456       7455       7565       7566       7577       7576  
      7445       7446       7457       7456       7566       7567       7578       7577  
      7446       7447       7458       7457       7567       7568       7579       7578  
      7448       7449       7460       7459       7569       7570       7581       7580  
      7449       7450       7461       7460       7570       7571       7582       7581  
      7450       7451       7462       7461       7571       7572       7583       7582  
      7451       7452       7463       7462       7572       7573       7584       7583  
      7452       7453       7464       7463       7573       7574       7585       7584  
      7453       7454       7465       7464       7574       7575       7586       7585  
      7454       7455       7466       7465       7575       7576       7587       7586  
      7455       7456       7467       7466       7576       7577       7588       7587  
      7456       7457       7468       7467       7577       7578       7589       7588  
      7457       7458       7469       7468       7578       7579       7590       7589  
      7459       7460       7471       7470       7580       7581       7592       7591  
      7460       7461       7472       7471       7581       7582       7593       7592  
      7461       7462       7473       7472       7582       7583       7594       7593  
      7462       7463       7474       7473       7583       7584       7595       7594  
      7463       7464       7475       7474       7584       7585       7596       7595  
      7464       7465       7476       7475       7585       7586       7597       7596  
      7465       7466       7477       7476       7586       7587       7598       7597  
      7466       7467       7478       7477       7587       7588       7599       7598  
      7467       7468       7479       7478       7588       7589       7600       7599  
      7468       7469       7480       7479       7589       7590       7601       7600  
      7470       7471       7482       7481       7591       7592       7603       7602  
      7471       7472       7483       7482       7592       7593       7604       7603  
      7472       7473       7484       7483       7593       7594       7605       7604  
      7473       7474       7485       7484       7594       7595       7606       7605  
      7474       7475       7486       7485       7595       7596       7607       7606  
      7475       7476       7487       7486       7596       7597       7608       7607  
      7476       7477       7488       7487       7597       7598       7609       7608  
      7477       7478       7489       7488       7598       7599       7610       7609  
      7478       7479       7490       7489       7599       7600       7611       7610  
      7479       7480       7491       7490       7600       7601       7612       7611  
      7481       7482       7493       7492       7602       7603       7614       7613  
      7482       7483       7494       7493       7603       7604       7615       7614  
      7483       7484       7495       7494       7604       7605       7616       7615  
      7484       7485       7496       7495       7605       7606       7617       7616  
      7485       7486       7497       7496       7606       7607       7618       7617  
      7486       7487       7498       7497       7607       7608       7619       7618  
      7487       7488       7499       7498       7608       7609       7620       7619  
      7488       7489       7500       7499       7609       7610       7621       7620  
      7489       7490       7501       7500       7610       7611       7622       7621  
      7490       7491       7502       7501       7611       7612       7623       7622  
      7503       7504       7515       7514       7624       7625       7636       7635  
      7504       7505       7516       7515       7625       7626       7637       7636  
      7505       7506       7517       7516       7626       7627       7638       7637  
      7506       7507       7518       7517       7627       7628       7639       7638  
      7507       7508       7519       7518       7628       7629       7640       7639  
      7508       7509       7520       7519       7629       7630       7641       7640  
      7509       7510       7521       7520       7630       7631       7642       7641  
      7510       7511       7522       7521       7631       7632       7643       7642  
      7511       7512       7523       7522       7632       7633       7644       7643  
      7512       7513       7524       7523       7633       7634       7645       7644  
      7514       7515       7526       7525       7635       7636       7647       7646  
      7515       7516       7527       7526       7636       7637       7648       7647  
      7516       7517       7528       7527       7637       7638       7649       7648  
      7517       7518       7529       7528       7638       7639       7650       7649  
      7518       7519       7530       7529       7639       7640       7651       7650  
      7519       7520       7531       7530       7640       7641       7652       7651  
      7520       7521       7532       7531       7641       7642       7653       7652  
      7521       7522       7533       7532       7642       7643       7654       7653  
      7522       7523       7534       7533       7643       7644       7655       7654  
      7523       7524       7535       7534       7644       7645       7656       7655  
      7525       7526       7537       7536       7646       7647       7658       7657  
      7526       7527       7538       7537       7647       7648       7659       7658  
      7527       7528       7539       7538       7648       7649       7660       7659  
      7528       7529       7540       7539       7649       7650       7661       7660  
      7529       7530       7541       7540       7650       7651       7662       7661  
      7530       7531       7542       7541       7651       7652       7663       7662  
      7531       7532       7543       7542       7652       7653       7664       7663  
      7532       7533       7544       7543       7653       7654       7665       7664  
      7533       7534       7545       7544       7654       7655       7666       7665  
      7534       7535       7546       7545       7655       7656       7667       7666  
      7536       7537       7548       7547       7657       7658       7669       7668  
      7537       7538       7549       7548       7658       7659       7670       7669  
      7538       7539       7550       7549       7659       7660       7671       7670  
      7539       7540       7551       7550       7660       7661       7672       7671  
      7540       7541       7552       7551       7661       7662       7673       7672  
      7541       7542       7553       7552       7662       7663       7674       7673  
      7542       7543       7554       7553       7663       7664       7675       7674  
      7543       7544       7555       7554       7664       7665       7676       7675  
      7544       7545       7556       7555       7665       7666       7677       7676  
      7545       7546       7557       7556       7666       7667       7678       7677  
      7547       7548       7559       7558       7668       7669       7680       7679  
      7548       7549       7560       7559       7669       7670       7681       7680  
      7549       7550       7561       7560       7670       7671       7682       7681  
      7550       7551       7562       7561       7671       7672       7683       7682  
      7551       7552       7563       7562       7672       7673       7684       7683  
      7552       7553       7564       7563       7673       7674       7685       7684  
      7553       7554       7565       7564       7674       7675       7686       7685  
      7554       7555       7566       7565       7675       7676       7687       7686  
      7555       7556       7567       7566       7676       7677       7688       7687  
      7556       7557       7568       7567       7677       7678       7689       7688  
      7558       7559       7570       7569       7679       7680       7691       7690  
      7559       7560       7571       7570       7680       7681       7692       7691  
      7560       7561       7572       7571       7681       7682       7693       7692  
      7561       7562       7573       7572       7682       7683       7694       7693  
      7562       7563       7574       7573       7683       7684       7695       7694  
      7563       7564       7575       7574       7684       7685       7696       7695  
      7564       7565       7576       7575       7685       7686       7697       7696  
      7565       7566       7577       7576       7686       7687       7698       7697  
      7566       7567       7578       7577       7687       7688       7699       7698  
      7567       7568       7579       7578       7688       7689       7700       7699  
      7569       7570       7581       7580       7690       7691       7702       7701  
      7570       7571       7582       7581       7691       7692       7703       7702  
      7571       7572       7583       7582       7692       7693       7704       7703  
      7572       7573       7584       7583       7693       7694       7705       7704  
      7573       7574       7585       7584       7694       7695       7706       7705  
      7574       7575       7586       7585       7695       7696       7707       7706  
      7575       7576       7587       7586       7696       7697       7708       7707  
      7576       7577       7588       7587       7697       7698       7709       7708  
      7577       7578       7589       7588       7698       7699       7710       7709  
      7578       7579       7590       7589       7699       7700       7711       7710  
      7580       7581       7592       7591       7701       7702       7713       7712  
      7581       7582       7593       7592       7702       7703       7714       7713  
      7582       7583       7594       7593       7703       7704       7715       7714  
      7583       7584       7595       7594       7704       7705       7716       7715  
      7584       7585       7596       7595       7705       7706       7717       7716  
      7585       7586       7597       7596       7706       7707       7718       7717  
      7586       7587       7598       7597       7707       7708       7719       7718  
      7587       7588       7599       7598       7708       7709       7720       7719  
      7588       7589       7600       7599       7709       7710       7721       7720  
      7589       7590       7601       7600       7710       7711       7722       7721  
      7591       7592       7603       7602       7712       7713       7724       7723  
      7592       7593       7604       7603       7713       7714       7725       7724  
      7593       7594       7605       7604       7714       7715       7726       7725  
      7594       7595       7606       7605       7715       7716       7727       7726  
      7595       7596       7607       7606       7716       7717       7728       7727  
      7596       7597       7608       7607       7717       7718       7729       7728  
      7597       7598       7609       7608       7718       7719       7730       7729  
      7598       7599       7610       7609       7719       7720       7731       7730  
      7599       7600       7611       7610       7720       7721       7732       7731  
      7600       7601       7612       7611       7721       7722       7733       7732  
      7602       7603       7614       7613       7723       7724       7735       7734  
      7603       7604       7615       7614       7724       7725       7736       7735  
      7604       7605       7616       7615       7725       7726       7737       7736  
      7605       7606       7617       7616       7726       7727       7738       7737  
      7606       7607       7618       7617       7727       7728       7739       7738  
      7607       7608       7619       7618       7728       7729       7740       7739  
      7608       7609       7620       7619       7729       7730       7741       7740  
      7609       7610       7621       7620       7730       7731       7742       7741  
      7610       7611       7622       7621       7731       7732       7743       7742  
      7611       7612       7623       7622       7732       7733       7744       7743  
      7624       7625       7636       7635       7745       7746       7757       7756  
      7625       7626       7637       7636       7746       7747       7758       7757  
      7626       7627       7638       7637       7747       7748       7759       7758  
      7627       7628       7639       7638       7748       7749       7760       7759  
      7628       7629       7640       7639       7749       7750       7761       7760  
      7629       7630       7641       7640       7750       7751       7762       7761  
      7630       7631       7642       7641       7751       7752       7763       7762  
      7631       7632       7643       7642       7752       7753       7764       7763  
      7632       7633       7644       7643       7753       7754       7765       7764  
      7633       7634       7645       7644       7754       7755       7766       7765  
      7635       7636       7647       7646       7756       7757       7768       7767  
      7636       7637       7648       7647       7757       7758       7769       7768  
      7637       7638       7649       7648       7758       7759       7770       7769  
      7638       7639       7650       7649       7759       7760       7771       7770  
      7639       7640       7651       7650       7760       7761       7772       7771  
      7640       7641       7652       7651       7761       7762       7773       7772  
      7641       7642       7653       7652       7762       7763       7774       7773  
      7642       7643       7654       7653       7763       7764       7775       7774  
      7643       7644       7655       7654       7764       7765       7776       7775  
      7644       7645       7656       7655       7765       7766       7777       7776  
      7646       7647       7658       7657       7767       7768       7779       7778  
      7647       7648       7659       7658       7768       7769       7780       7779  
      7648       7649       7660       7659       7769       7770       7781       7780  
      7649       7650       7661       7660       7770       7771       7782       7781  
      7650       7651       7662       7661       7771       7772       7783       7782  
      7651       7652       7663       7662       7772       7773       7784       7783  
      7652       7653       7664       7663       7773       7774       7785       7784  
      7653       7654       7665       7664       7774       7775       7786       7785  
      7654       7655       7666       7665       7775       7776       7787       7786  
      7655       7656       7667       7666       7776       7777       7788       7787  
      7657       7658       7669       7668       7778       7779       7790       7789  
      7658       7659       7670       7669       7779       7780       7791       7790  
      7659       7660       7671       7670       7780       7781       7792       7791  
      7660       7661       7672       7671       7781       7782       7793       7792  
      7661       7662       7673       7672       7782       7783       7794       7793  
      7662       7663       7674       7673       7783       7784       7795       7794  
      7663       7664       7675       7674       7784       7785       7796       7795  
      7664       7665       7676       7675       7785       7786       7797       7796  
      7665       7666       7677       7676       7786       7787       7798       7797  
      7666       7667       7678       7677       7787       7788       7799       7798  
      7668       7669       7680       7679       7789       7790       7801       7800  
      7669       7670       7681       7680       7790       7791       7802       7801  
      7670       7671       7682       7681       7791       7792       7803       7802  
      7671       7672       7683       7682       7792       7793       7804       7803  
      7672       7673       7684       7683       7793       7794       7805       7804  
      7673       7674       7685       7684       7794       7795       7806       7805  
      7674       7675       7686       7685       7795       7796       7807       7806  
      7675       7676       7687       7686       7796       7797       7808       7807  
      7676       7677       7688       7687       7797       7798       7809       7808  
      7677       7678       7689       7688       7798       7799       7810       7809  
      7679       7680       7691       7690       7800       7801       7812       7811  
      7680       7681       7692       7691       7801       7802       7813       7812  
      7681       7682       7693       7692       7802       7803       7814       7813  
      7682       7683       7694       7693       7803       7804       7815       7814  
      7683       7684       7695       7694       7804       7805       7816       7815  
      7684       7685       7696       7695       7805       7806       7817       7816  
      7685       7686       7697       7696       7806       7807       7818       7817  
      7686       7687       7698       7697       7807       7808       7819       7818  
      7687       7688       7699       7698       7808       7809       7820       7819  
      7688       7689       7700       7699       7809       7810       7821       7820  
      7690       7691       7702       7701       7811       7812       7823       7822  
      7691       7692       7703       7702       7812       7813       7824       7823  
      7692       7693       7704       7703       7813       7814       7825       7824  
      7693       7694       7705       7704       7814       7815       7826       7825  
      7694       7695       7706       7705       7815       7816       7827       7826  
      7695       7696       7707       7706       7816       7817       7828       7827  
      7696       7697       7708       7707       7817       7818       7829       7828  
      7697       7698       7709       7708       7818       7819       7830       7829  
      7698       7699       7710       7709       7819       7820       7831       7830  
      7699       7700       7711       7710       7820       7821       7832       7831  
      7701       7702       7713       7712       7822       7823       7834       7833  
      7702       7703       7714       7713       7823       7824       7835       7834  
      7703       7704       7715       7714       7824       7825       7836       7835  
      7704       7705       7716       7715       7825       7826       7837       7836  
      7705       7706       7717       7716       7826       7827       7838       7837  
      7706       7707       7718       7717       7827       7828       7839       7838  
      7707       7708       7719       7718       7828       7829       7840       7839  
      7708       7709       7720       7719       7829       7830       7841       7840  
      7709       7710       7721       7720       7830       7831       7842       7841  
      7710       7711       7722       7721       7831       7832       7843       7842  
      7712       7713       7724       7723       7833       7834       7845       7844  
      7713       7714       7725       7724       7834       7835       7846       7845  
      7714       7715       7726       7725       7835       7836       7847       7846  
      7715       7716       7727       7726       7836       7837       7848       7847  
      7716       7717       7728       7727       7837       7838       7849       7848  
      7717       7718       7729       7728       7838       7839       7850       7849  
      7718       7719       7730       7729       7839       7840       7851       7850  
      7719       7720       7731       7730       7840       7841       7852       7851  
      7720       7721       7732       7731       7841       7842       7853       7852  
      7721       7722       7733       7732       7842       7843       7854       7853  
      7723       7724       7735       7734       7844       7845       7856       7855  
      7724       7725       7736       7735       7845       7846       7857       7856  
      7725       7726       7737       7736       7846       7847       7858       7857  
      7726       7727       7738       7737       7847       7848       7859       7858  
      7727       7728       7739       7738       7848       7849       7860       7859  
      7728       7729       7740       7739       7849       7850       7861       7860  
      7729       7730       7741       7740       7850       7851       7862       7861  
      7730       7731       7742       7741       7851       7852       7863       7862  
      7731       7732       7743       7742       7852       7853       7864       7863  
      7732       7733       7744       7743       7853       7854       7865       7864  
      7745       7746       7757       7756       7866       7867       7878       7877  
      7746       7747       7758       7757       7867       7868       7879       7878  
      7747       7748       7759       7758       7868       7869       7880       7879  
      7748       7749       7760       7759       7869       7870       7881       7880  
      7749       7750       7761       7760       7870       7871       7882       7881  
      7750       7751       7762       7761       7871       7872       7883       7882  
      7751       7752       7763       7762       7872       7873       7884       7883  
      7752       7753       7764       7763       7873       7874       7885       7884  
      7753       7754       7765       7764       7874       7875       7886       7885  
      7754       7755       7766       7765       7875       7876       7887       7886  
      7756       7757       7768       7767       7877       7878       7889       7888  
      7757       7758       7769       7768       7878       7879       7890       7889  
      7758       7759       7770       7769       7879       7880       7891       7890  
      7759       7760       7771       7770       7880       7881       7892       7891  
      7760       7761       7772       7771       7881       7882       7893       7892  
      7761       7762       7773       7772       7882       7883       7894       7893  
      7762       7763       7774       7773       7883       7884       7895       7894  
      7763       7764       7775       7774       7884       7885       7896       7895  
      7764       7765       7776       7775       7885       7886       7897       7896  
      7765       7766       7777       7776       7886       7887       7898       7897  
      7767       7768       7779       7778       7888       7889       7900       7899  
      7768       7769       7780       7779       7889       7890       7901       7900  
      7769       7770       7781       7780       7890       7891       7902       7901  
      7770       7771       7782       7781       7891       7892       7903       7902  
      7771       7772       7783       7782       7892       7893       7904       7903  
      7772       7773       7784       7783       7893       7894       7905       7904  
      7773       7774       7785       7784       7894       7895       7906       7905  
      7774       7775       7786       7785       7895       7896       7907       7906  
      7775       7776       7787       7786       7896       7897       7908       7907  
      7776       7777       7788       7787       7897       7898       7909       7908  
      7778       7779       7790       7789       7899       7900       7911       7910  
      7779       7780       7791       7790       7900       7901       7912       7911  
      7780       7781       7792       7791       7901       7902       7913       7912  
      7781       7782       7793       7792       7902       7903       7914       7913  
      7782       7783       7794       7793       7903       7904       7915       7914  
      7783       7784       7795       7794       7904       7905       7916       7915  
      7784       7785       7796       7795       7905       7906       7917       7916  
      7785       7786       7797       7796       7906       7907       7918       7917  
      7786       7787       7798       7797       7907       7908       7919       7918  
      7787       7788       7799       7798       7908       7909       7920       7919  
      7789       7790       7801       7800       7910       7911       7922       7921  
      7790       7791       7802       7801       7911       7912       7923       7922  
      7791       7792       7803       7802       7912       7913       7924       7923  
      7792       7793       7804       7803       7913       7914       7925       7924  
      7793       7794       7805       7804       7914       7915       7926       7925  
      7794       7795       7806       7805       7915       7916       7927       7926  
      7795       7796       7807       7806       7916       7917       7928       7927  
      7796       7797       7808       7807       7917       7918       7929       7928  
      7797       7798       7809       7808       7918       7919       7930       7929  
      7798       7799       7810       7809       7919       7920       7931       7930  
      7800       7801       7812       7811       7921       7922       7933       7932  
      7801       7802       7813       7812       7922       7923       7934       7933  
      7802       7803       7814       7813       7923       7924       7935       7934  
      7803       7804       7815       7814       7924       7925       7936       7935  
      7804       7805       7816       7815       7925       7926       7937       7936  
      7805       7806       7817       7816       7926       7927       7938       7937  
      7806       7807       7818       7817       7927       7928       7939       7938  
      7807       7808       7819       7818       7928       7929       7940       7939  
      7808       7809       7820       7819       7929       7930       7941       7940  
      7809       7810       7821       7820       7930       7931       7942       7941  
      7811       7812       7823       7822       7932       7933       7944       7943  
      7812       7813       7824       7823       7933       7934       7945       7944  
      7813       7814       7825       7824       7934       7935       7946       7945  
      7814       7815       7826       7825       7935       7936       7947       7946  
      7815       7816       7827       7826       7936       7937       7948       7947  
      7816       7817       7828       7827       7937       7938       7949       7948  
      7817       7818       7829       7828       7938       7939       7950       7949  
      7818       7819       7830       7829       7939       7940       7951       7950  
      7819       7820       7831       7830       7940       7941       7952       7951  
      7820       7821       7832       7831       7941       7942       7953       7952  
      7822       7823       7834       7833       7943       7944       7955       7954  
      7823       7824       7835       7834       7944       7945       7956       7955  
      7824       7825       7836       7835       7945       7946       7957       7956  
      7825       7826       7837       7836       7946       7947       7958       7957  
      7826       7827       7838       7837       7947       7948       7959       7958  
      7827       7828       7839       7838       7948       7949       7960       7959  
      7828       7829       7840       7839       7949       7950       7961       7960  
      7829       7830       7841       7840       7950       7951       7962       7961  
      7830       7831       7842       7841       7951       7952       7963       7962  
      7831       7832       7843       7842       7952       7953       7964       7963  
      7833       7834       7845       7844       7954       7955       7966       7965  
      7834       7835       7846       7845       7955       7956       7967       7966  
      7835       7836       7847       7846       7956       7957       7968       7967  
      7836       7837       7848       7847       7957       7958       7969       7968  
      7837       7838       7849       7848       7958       7959       7970       7969  
      7838       7839       7850       7849       7959       7960       7971       7970  
      7839       7840       7851       7850       7960       7961       7972       7971  
      7840       7841       7852       7851       7961       7962       7973       7972  
      7841       7842       7853       7852       7962       7963       7974       7973  
      7842       7843       7854       7853       7963       7964       7975       7974  
      7844       7845       7856       7855       7965       7966       7977       7976  
      7845       7846       7857       7856       7966       7967       7978       7977  
      7846       7847       7858       7857       7967       7968       7979       7978  
      7847       7848       7859       7858       7968       7969       7980       7979  
      7848       7849       7860       7859       7969       7970       7981       7980  
      7849       7850       7861       7860       7970       7971       7982       7981  
      7850       7851       7862       7861       7971       7972       7983       7982  
      7851       7852       7863       7862       7972       7973       7984       7983  
      7852       7853       7864       7863       7973       7974       7985       7984  
      7853       7854       7865       7864       7974       7975       7986       7985  
      7866       7867       7878       7877       7987       7988       7999       7998  
      7867       7868       7879       7878       7988       7989       8000       7999  
      7868       7869       7880       7879       7989       7990       8001       8000  
      7869       7870       7881       7880       7990       7991       8002       8001  
      7870       7871       7882       7881       7991       7992       8003       8002  
      7871       7872       7883       7882       7992       7993       8004       8003  
      7872       7873       7884       7883       7993       7994       8005       8004  
      7873       7874       7885       7884       7994       7995       8006       8005  
      7874       7875       7886       7885       7995       7996       8007       8006  
      7875       7876       7887       7886       7996       7997       8008       8007  
      7877       7878       7889       7888       7998       7999       8010       8009  
      7878       7879       7890       7889       7999       8000       8011       8010  
      7879       7880       7891       7890       8000       8001       8012       8011  
      7880       7881       7892       7891       8001       8002       8013       8012  
      7881       7882       7893       7892       8002       8003       8014       8013  
      7882       7883       7894       7893       8003       8004       8015       8014  
      7883       7884       7895       7894       8004       8005       8016       8015  
      7884       7885       7896       7895       8005       8006       8017       8016  
      7885       7886       7897       7896       8006       8007       8018       8017  
      7886       7887       7898       7897       8007       8008       8019       8018  
      7888       7889       7900       7899       8009       8010       8021       8020  
      7889       7890       7901       7900       8010       8011       8022       8021  
      7890       7891       7902       7901       8011       8012       8023       8022  
      7891       7892       7903       7902       8012       8013       8024       8023  
      7892       7893       7904       7903       8013       8014       8025       8024  
      7893       7894       7905       7904       8014       8015       8026       8025  
      7894       7895       7906       7905       8015       8016       8027       8026  
      7895       7896       7907       7906       8016       8017       8028       8027  
      7896       7897       7908       7907       8017       8018       8029       8028  
      7897       7898       7909       7908       8018       8019       8030       8029  
      7899       7900       7911       7910       8020       8021       8032       8031  
      7900       7901       7912       7911       8021       8022       8033       8032  
      7901       7902       7913       7912       8022       8023       8034       8033  
      7902       7903       7914       7913       8023       8024       8035       8034  
      7903       7904       7915       7914       8024       8025       8036       8035  
      7904       7905       7916       7915       8025       8026       8037       8036  
      7905       7906       7917       7916       8026       8027       8038       8037  
      7906       7907       7918       7917       8027       8028       8039       8038  
      7907       7908       7919       7918       8028       8029       8040       8039  
      7908       7909       7920       7919       8029       8030       8041       8040  
      7910       7911       7922       7921       8031       8032       8043       8042  
      7911       7912       7923       7922       8032       8033       8044       8043  
      7912       7913       7924       7923       8033       8034       8045       8044  
      7913       7914       7925       7924       8034       8035       8046       8045  
      7914       7915       7926       7925       8035       8036       8047       8046  
      7915       7916       7927       7926       8036       8037       8048       8047  
      7916       7917       7928       7927       8037       8038       8049       8048  
      7917       7918       7929       7928       8038       8039       8050       8049  
      7918       7919       7930       7929       8039       8040       8051       8050  
      7919       7920       7931       7930       8040       8041       8052       8051  
      7921       7922       7933       7932       8042       8043       8054       8053  
      7922       7923       7934       7933       8043       8044       8055       8054  
      7923       7924       7935       7934       8044       8045       8056       8055  
      7924       7925       7936       7935       8045       8046       8057       8056  
      7925       7926       7937       7936       8046       8047       8058       8057  
      7926       7927       7938       7937       8047       8048       8059       8058  
      7927       7928       7939       7938       8048       8049       8060       8059  
      7928       7929       7940       7939       8049       8050       8061       8060  
      7929       7930       7941       7940       8050       8051       8062       8061  
      7930       7931       7942       7941       8051       8052       8063       8062  
      7932       7933       7944       7943       8053       8054       8065       8064  
      7933       7934       7945       7944       8054       8055       8066       8065  
      7934       7935       7946       7945       8055       8056       8067       8066  
      7935       7936       7947       7946       8056       8057       8068       8067  
      7936       7937       7948       7947       8057       8058       8069       8068  
      7937       7938       7949       7948       8058       8059       8070       8069  
      7938       7939       7950       7949       8059       8060       8071       8070  
      7939       7940       7951       7950       8060       8061       8072       8071  
      7940       7941       7952       7951       8061       8062       8073       8072  
      7941       7942       7953       7952       8062       8063       8074       8073  
      7943       7944       7955       7954       8064       8065       8076       8075  
      7944       7945       7956       7955       8065       8066       8077       8076  
      7945       7946       7957       7956       8066       8067       8078       8077  
      7946       7947       7958       7957       8067       8068       8079       8078  
      7947       7948       7959       7958       8068       8069       8080       8079  
      7948       7949       7960       7959       8069       8070       8081       8080  
      7949       7950       7961       7960       8070       8071       8082       8081  
      7950       7951       7962       7961       8071       8072       8083       8082  
      7951       7952       7963       7962       8072       8073       8084       8083  
      7952       7953       7964       7963       8073       8074       8085       8084  
      7954       7955       7966       7965       8075       8076       8087       8086  
      7955       7956       7967       7966       8076       8077       8088       8087  
      7956       7957       7968       7967       8077       8078       8089       8088  
      7957       7958       7969       7968       8078       8079       8090       8089  
      7958       7959       7970       7969       8079       8080       8091       8090  
      7959       7960       7971       7970       8080       8081       8092       8091  
      7960       7961       7972       7971       8081       8082       8093       8092  
      7961       7962       7973       7972       8082       8083       8094       8093  
      7962       7963       7974       7973       8083       8084       8095       8094  
      7963       7964       7975       7974       8084       8085       8096       8095  
      7965       7966       7977       7976       8086       8087       8098       8097  
      7966       7967       7978       7977       8087       8088       8099       8098  
      7967       7968       7979       7978       8088       8089       8100       8099  
      7968       7969       7980       7979       8089       8090       8101       8100  
      7969       7970       7981       7980       8090       8091       8102       8101  
      7970       7971       7982       7981       8091       8092       8103       8102  
      7971       7972       7983       7982       8092       8093       8104       8103  
      7972       7973       7984       7983       8093       8094       8105       8104  
      7973       7974       7985       7984       8094       8095       8106       8105  
      7974       7975       7986       7985       8095       8096       8107       8106  
      7987       7988       7999       7998       8108       8109       8120       8119  
      7988       7989       8000       7999       8109       8110       8121       8120  
      7989       7990       8001       8000       8110       8111       8122       8121  
      7990       7991       8002       8001       8111       8112       8123       8122  
      7991       7992       8003       8002       8112       8113       8124       8123  
      7992       7993       8004       8003       8113       8114       8125       8124  
      7993       7994       8005       8004       8114       8115       8126       8125  
      7994       7995       8006       8005       8115       8116       8127       8126  
      7995       7996       8007       8006       8116       8117       8128       8127  
      7996       7997       8008       8007       8117       8118       8129       8128  
      7998       7999       8010       8009       8119       8120       8131       8130  
      7999       8000       8011       8010       8120       8121       8132       8131  
      8000       8001       8012       8011       8121       8122       8133       8132  
      8001       8002       8013       8012       8122       8123       8134       8133  
      8002       8003       8014       8013       8123       8124       8135       8134  
      8003       8004       8015       8014       8124       8125       8136       8135  
      8004       8005       8016       8015       8125       8126       8137       8136  
      8005       8006       8017       8016       8126       8127       8138       8137  
      8006       8007       8018       8017       8127       8128       8139       8138  
      8007       8008       8019       8018       8128       8129       8140       8139  
      8009       8010       8021       8020       8130       8131       8142       8141  
      8010       8011       8022       8021       8131       8132       8143       8142  
      8011       8012       8023       8022       8132       8133       8144       8143  
      8012       8013       8024       8023       8133       8134       8145       8144  
      8013       8014       8025       8024       8134       8135       8146       8145  
      8014       8015       8026       8025       8135       8136       8147       8146  
      8015       8016       8027       8026       8136       8137       8148       8147  
      8016       8017       8028       8027       8137       8138       8149       8148  
      8017       8018       8029       8028       8138       8139       8150       8149  
      8018       8019       8030       8029       8139       8140       8151       8150  
      8020       8021       8032       8031       8141       8142       8153       8152  
      8021       8022       8033       8032       8142       8143       8154       8153  
      8022       8023       8034       8033       8143       8144       8155       8154  
      8023       8024       8035       8034       8144       8145       8156       8155  
      8024       8025       8036       8035       8145       8146       8157       8156  
      8025       8026       8037       8036       8146       8147       8158       8157  
      8026       8027       8038       8037       8147       8148       8159       8158  
      8027       8028       8039       8038       8148       8149       8160       8159  
      8028       8029       8040       8039       8149       8150       8161       8160  
      8029       8030       8041       8040       8150       8151       8162       8161  
      8031       8032       8043       8042       8152       8153       8164       8163  
      8032       8033       8044       8043       8153       8154       8165       8164  
      8033       8034       8045       8044       8154       8155       8166       8165  
      8034       8035       8046       8045       8155       8156       8167       8166  
      8035       8036       8047       8046       8156       8157       8168       8167  
      8036       8037       8048       8047       8157       8158       8169       8168  
      8037       8038       8049       8048       8158       8159       8170       8169  
      8038       8039       8050       8049       8159       8160       8171       8170  
      8039       8040       8051       8050       8160       8161       8172       8171  
      8040       8041       8052       8051       8161       8162       8173       8172  
      8042       8043       8054       8053       8163       8164       8175       8174  
      8043       8044       8055       8054       8164       8165       8176       8175  
      8044       8045       8056       8055       8165       8166       8177       8176  
      8045       8046       8057       8056       8166       8167       8178       8177  
      8046       8047       8058       8057       8167       8168       8179       8178  
      8047       8048       8059       8058       8168       8169       8180       8179  
      8048       8049       8060       8059       8169       8170       8181       8180  
      8049       8050       8061       8060       8170       8171       8182       8181  
      8050       8051       8062       8061       8171       8172       8183       8182  
      8051       8052       8063       8062       8172       8173       8184       8183  
      8053       8054       8065       8064       8174       8175       8186       8185  
      8054       8055       8066       8065       8175       8176       8187       8186  
      8055       8056       8067       8066       8176       8177       8188       8187  
      8056       8057       8068       8067       8177       8178       8189       8188  
      8057       8058       8069       8068       8178       8179       8190       8189  
      8058       8059       8070       8069       8179       8180       8191       8190  
      8059       8060       8071       8070       8180       8181       8192       8191  
      8060       8061       8072       8071       8181       8182       8193       8192  
      8061       8062       8073       8072       8182       8183       8194       8193  
      8062       8063       8074       8073       8183       8184       8195       8194  
      8064       8065       8076       8075       8185       8186       8197       8196  
      8065       8066       8077       8076       8186       8187       8198       8197  
      8066       8067       8078       8077       8187       8188       8199       8198  
      8067       8068       8079       8078       8188       8189       8200       8199  
      8068       8069       8080       8079       8189       8190       8201       8200  
      8069       8070       8081       8080       8190       8191       8202       8201  
      8070       8071       8082       8081       8191       8192       8203       8202  
      8071       8072       8083       8082       8192       8193       8204       8203  
      8072       8073       8084       8083       8193       8194       8205       8204  
      8073       8074       8085       8084       8194       8195       8206       8205  
      8075       8076       8087       8086       8196       8197       8208       8207  
      8076       8077       8088       8087       8197       8198       8209       8208  
      8077       8078       8089       8088       8198       8199       8210       8209  
      8078       8079       8090       8089       8199       8200       8211       8210  
      8079       8080       8091       8090       8200       8201       8212       8211  
      8080       8081       8092       8091       8201       8202       8213       8212  
      8081       8082       8093       8092       8202       8203       8214       8213  
      8082       8083       8094       8093       8203       8204       8215       8214  
      8083       8084       8095       8094       8204       8205       8216       8215  
      8084       8085       8096       8095       8205       8206       8217       8216  
      8086       8087       8098       8097       8207       8208       8219       8218  
      8087       8088       8099       8098       8208       8209       8220       8219  
      8088       8089       8100       8099       8209       8210       8221       8220  
      8089       8090       8101       8100       8210       8211       8222       8221  
      8090       8091       8102       8101       8211       8212       8223       8222  
      8091       8092       8103       8102       8212       8213       8224       8223  
      8092       8093       8104       8103       8213       8214       8225       8224  
      8093       8094       8105       8104       8214       8215       8226       8225  
      8094       8095       8106       8105       8215       8216       8227       8226  
      8095       8096       8107       8106       8216       8217       8228       8227  
      8108       8109       8120       8119       8229       8230       8241       8240  
      8109       8110       8121       8120       8230       8231       8242       8241  
      8110       8111       8122       8121       8231       8232       8243       8242  
      8111       8112       8123       8122       8232       8233       8244       8243  
      8112       8113       8124       8123       8233       8234       8245       8244  
      8113       8114       8125       8124       8234       8235       8246       8245  
      8114       8115       8126       8125       8235       8236       8247       8246  
      8115       8116       8127       8126       8236       8237       8248       8247  
      8116       8117       8128       8127       8237       8238       8249       8248  
      8117       8118       8129       8128       8238       8239       8250       8249  
      8119       8120       8131       8130       8240       8241       8252       8251  
      8120       8121       8132       8131       8241       8242       8253       8252  
      8121       8122       8133       8132       8242       8243       8254       8253  
      8122       8123       8134       8133       8243       8244       8255       8254  
      8123       8124       8135       8134       8244       8245       8256       8255  
      8124       8125       8136       8135       8245       8246       8257       8256  
      8125       8126       8137       8136       8246       8247       8258       8257  
      8126       8127       8138       8137       8247       8248       8259       8258  
      8127       8128       8139       8138       8248       8249       8260       8259  
      8128       8129       8140       8139       8249       8250       8261       8260  
      8130       8131       8142       8141       8251       8252       8263       8262  
      8131       8132       8143       8142       8252       8253       8264       8263  
      8132       8133       8144       8143       8253       8254       8265       8264  
      8133       8134       8145       8144       8254       8255       8266       8265  
      8134       8135       8146       8145       8255       8256       8267       8266  
      8135       8136       8147       8146       8256       8257       8268       8267  
      8136       8137       8148       8147       8257       8258       8269       8268  
      8137       8138       8149       8148       8258       8259       8270       8269  
      8138       8139       8150       8149       8259       8260       8271       8270  
      8139       8140       8151       8150       8260       8261       8272       8271  
      8141       8142       8153       8152       8262       8263       8274       8273  
      8142       8143       8154       8153       8263       8264       8275       8274  
      8143       8144       8155       8154       8264       8265       8276       8275  
      8144       8145       8156       8155       8265       8266       8277       8276  
      8145       8146       8157       8156       8266       8267       8278       8277  
      8146       8147       8158       8157       8267       8268       8279       8278  
      8147       8148       8159       8158       8268       8269       8280       8279  
      8148       8149       8160       8159       8269       8270       8281       8280  
      8149       8150       8161       8160       8270       8271       8282       8281  
      8150       8151       8162       8161       8271       8272       8283       8282  
      8152       8153       8164       8163       8273       8274       8285       8284  
      8153       8154       8165       8164       8274       8275       8286       8285  
      8154       8155       8166       8165       8275       8276       8287       8286  
      8155       8156       8167       8166       8276       8277       8288       8287  
      8156       8157       8168       8167       8277       8278       8289       8288  
      8157       8158       8169       8168       8278       8279       8290       8289  
      8158       8159       8170       8169       8279       8280       8291       8290  
      8159       8160       8171       8170       8280       8281       8292       8291  
      8160       8161       8172       8171       8281       8282       8293       8292  
      8161       8162       8173       8172       8282       8283       8294       8293  
      8163       8164       8175       8174       8284       8285       8296       8295  
      8164       8165       8176       8175       8285       8286       8297       8296  
      8165       8166       8177       8176       8286       8287       8298       8297  
      8166       8167       8178       8177       8287       8288       8299       8298  
      8167       8168       8179       8178       8288       8289       8300       8299  
      8168       8169       8180       8179       8289       8290       8301       8300  
      8169       8170       8181       8180       8290       8291       8302       8301  
      8170       8171       8182       8181       8291       8292       8303       8302  
      8171       8172       8183       8182       8292       8293       8304       8303  
      8172       8173       8184       8183       8293       8294       8305       8304  
      8174       8175       8186       8185       8295       8296       8307       8306  
      8175       8176       8187       8186       8296       8297       8308       8307  
      8176       8177       8188       8187       8297       8298       8309       8308  
      8177       8178       8189       8188       8298       8299       8310       8309  
      8178       8179       8190       8189       8299       8300       8311       8310  
      8179       8180       8191       8190       8300       8301       8312       8311  
      8180       8181       8192       8191       8301       8302       8313       8312  
      8181       8182       8193       8192       8302       8303       8314       8313  
      8182       8183       8194       8193       8303       8304       8315       8314  
      8183       8184       8195       8194       8304       8305       8316       8315  
      8185       8186       8197       8196       8306       8307       8318       8317  
      8186       8187       8198       8197       8307       8308       8319       8318  
      8187       8188       8199       8198       8308       8309       8320       8319  
      8188       8189       8200       8199       8309       8310       8321       8320  
      8189       8190       8201       8200       8310       8311       8322       8321  
      8190       8191       8202       8201       8311       8312       8323       8322  
      8191       8192       8203       8202       8312       8313       8324       8323  
      8192       8193       8204       8203       8313       8314       8325       8324  
      8193       8194       8205       8204       8314       8315       8326       8325  
      8194       8195       8206       8205       8315       8316       8327       8326  
      8196       8197       8208       8207       8317       8318       8329       8328  
      8197       8198       8209       8208       8318       8319       8330       8329  
      8198       8199       8210       8209       8319       8320       8331       8330  
      8199       8200       8211       8210       8320       8321       8332       8331  
      8200       8201       8212       8211       8321       8322       8333       8332  
      8201       8202       8213       8212       8322       8323       8334       8333  
      8202       8203       8214       8213       8323       8324       8335       8334  
      8203       8204       8215       8214       8324       8325       8336       8335  
      8204       8205       8216       8215       8325       8326       8337       8336  
      8205       8206       8217       8216       8326       8327       8338       8337  
      8207       8208       8219       8218       8328       8329       8340       8339  
      8208       8209       8220       8219       8329       8330       8341       8340  
      8209       8210       8221       8220       8330       8331       8342       8341  
      8210       8211       8222       8221       8331       8332       8343       8342  
      8211       8212       8223       8222       8332       8333       8344       8343  
      8212       8213       8224       8223       8333       8334       8345       8344  
      8213       8214       8225       8224       8334       8335       8346       8345  
      8214       8215       8226       8225       8335       8336       8347       8346  
      8215       8216       8227       8226       8336       8337       8348       8347  
      8216       8217       8228       8227       8337       8338       8349       8348  
      8229       8230       8241       8240       8350       8351       8362       8361  
      8230       8231       8242       8241       8351       8352       8363       8362  
      8231       8232       8243       8242       8352       8353       8364       8363  
      8232       8233       8244       8243       8353       8354       8365       8364  
      8233       8234       8245       8244       8354       8355       8366       8365  
      8234       8235       8246       8245       8355       8356       8367       8366  
      8235       8236       8247       8246       8356       8357       8368       8367  
      8236       8237       8248       8247       8357       8358       8369       8368  
      8237       8238       8249       8248       8358       8359       8370       8369  
      8238       8239       8250       8249       8359       8360       8371       8370  
      8240       8241       8252       8251       8361       8362       8373       8372  
      8241       8242       8253       8252       8362       8363       8374       8373  
      8242       8243       8254       8253       8363       8364       8375       8374  
      8243       8244       8255       8254       8364       8365       8376       8375  
      8244       8245       8256       8255       8365       8366       8377       8376  
      8245       8246       8257       8256       8366       8367       8378       8377  
      8246       8247       8258       8257       8367       8368       8379       8378  
      8247       8248       8259       8258       8368       8369       8380       8379  
      8248       8249       8260       8259       8369       8370       8381       8380  
      8249       8250       8261       8260       8370       8371       8382       8381  
      8251       8252       8263       8262       8372       8373       8384       8383  
      8252       8253       8264       8263       8373       8374       8385       8384  
      8253       8254       8265       8264       8374       8375       8386       8385  
      8254       8255       8266       8265       8375       8376       8387       8386  
      8255       8256       8267       8266       8376       8377       8388       8387  
      8256       8257       8268       8267       8377       8378       8389       8388  
      8257       8258       8269       8268       8378       8379       8390       8389  
      8258       8259       8270       8269       8379       8380       8391       8390  
      8259       8260       8271       8270       8380       8381       8392       8391  
      8260       8261       8272       8271       8381       8382       8393       8392  
      8262       8263       8274       8273       8383       8384       8395       8394  
      8263       8264       8275       8274       8384       8385       8396       8395  
      8264       8265       8276       8275       8385       8386       8397       8396  
      8265       8266       8277       8276       8386       8387       8398       8397  
      8266       8267       8278       8277       8387       8388       8399       8398  
      8267       8268       8279       8278       8388       8389       8400       8399  
      8268       8269       8280       8279       8389       8390       8401       8400  
      8269       8270       8281       8280       8390       8391       8402       8401  
      8270       8271       8282       8281       8391       8392       8403       8402  
      8271       8272       8283       8282       8392       8393       8404       8403  
      8273       8274       8285       8284       8394       8395       8406       8405  
      8274       8275       8286       8285       8395       8396       8407       8406  
      8275       8276       8287       8286       8396       8397       8408       8407  
      8276       8277       8288       8287       8397       8398       8409       8408  
      8277       8278       8289       8288       8398       8399       8410       8409  
      8278       8279       8290       8289       8399       8400       8411       8410  
      8279       8280       8291       8290       8400       8401       8412       8411  
      8280       8281       8292       8291       8401       8402       8413       8412  
      8281       8282       8293       8292       8402       8403       8414       8413  
      8282       8283       8294       8293       8403       8404       8415       8414  
      8284       8285       8296       8295       8405       8406       8417       8416  
      8285       8286       8297       8296       8406       8407       8418       8417  
      8286       8287       8298       8297       8407       8408       8419       8418  
      8287       8288       8299       8298       8408       8409       8420       8419  
      8288       8289       8300       8299       8409       8410       8421       8420  
      8289       8290       8301       8300       8410       8411       8422       8421  
      8290       8291       8302       8301       8411       8412       8423       8422  
      8291       8292       8303       8302       8412       8413       8424       8423  
      8292       8293       8304       8303       8413       8414       8425       8424  
      8293       8294       8305       8304       8414       8415       8426       8425  
      8295       8296       8307       8306       8416       8417       8428       8427  
      8296       8297       8308       8307       8417       8418       8429       8428  
      8297       8298       8309       8308       8418       8419       8430       8429  
      8298       8299       8310       8309       8419       8420       8431       8430  
      8299       8300       8311       8310       8420       8421       8432       8431  
      8300       8301       8312       8311       8421       8422       8433       8432  
      8301       8302       8313       8312       8422       8423       8434       8433  
      8302       8303       8314       8313       8423       8424       8435       8434  
      8303       8304       8315       8314       8424       8425       8436       8435  
      8304       8305       8316       8315       8425       8426       8437       8436  
      8306       8307       8318       8317       8427       8428       8439       8438  
      8307       8308       8319       8318       8428       8429       8440       8439  
      8308       8309       8320       8319       8429       8430       8441       8440  
      8309       8310       8321       8320       8430       8431       8442       8441  
      8310       8311       8322       8321       8431       8432       8443       8442  
      8311       8312       8323       8322       8432       8433       8444       8443  
      8312       8313       8324       8323       8433       8434       8445       8444  
      8313       8314       8325       8324       8434       8435       8446       8445  
      8314       8315       8326       8325       8435       8436       8447       8446  
      8315       8316       8327       8326       8436       8437       8448       8447  
      8317       8318       8329       8328       8438       8439       8450       8449  
      8318       8319       8330       8329       8439       8440       8451       8450  
      8319       8320       8331       8330       8440       8441       8452       8451  
      8320       8321       8332       8331       8441       8442       8453       8452  
      8321       8322       8333       8332       8442       8443       8454       8453  
      8322       8323       8334       8333       8443       8444       8455       8454  
      8323       8324       8335       8334       8444       8445       8456       8455  
      8324       8325       8336       8335       8445       8446       8457       8456  
      8325       8326       8337       8336       8446       8447       8458       8457  
      8326       8327       8338       8337       8447       8448       8459       8458  
      8328       8329       8340       8339       8449       8450       8461       8460  
      8329       8330       8341       8340       8450       8451       8462       8461  
      8330       8331       8342       8341       8451       8452       8463       8462  
      8331       8332       8343       8342       8452       8453       8464       8463  
      8332       8333       8344       8343       8453       8454       8465       8464  
      8333       8334       8345       8344       8454       8455       8466       8465  
      8334       8335       8346       8345       8455       8456       8467       8466  
      8335       8336       8347       8346       8456       8457       8468       8467  
      8336       8337       8348       8347       8457       8458       8469       8468  
      8337       8338       8349       8348       8458       8459       8470       8469  
      8350       8351       8362       8361       8471       8472       8483       8482  
      8351       8352       8363       8362       8472       8473       8484       8483  
      8352       8353       8364       8363       8473       8474       8485       8484  
      8353       8354       8365       8364       8474       8475       8486       8485  
      8354       8355       8366       8365       8475       8476       8487       8486  
      8355       8356       8367       8366       8476       8477       8488       8487  
      8356       8357       8368       8367       8477       8478       8489       8488  
      8357       8358       8369       8368       8478       8479       8490       8489  
      8358       8359       8370       8369       8479       8480       8491       8490  
      8359       8360       8371       8370       8480       8481       8492       8491  
      8361       8362       8373       8372       8482       8483       8494       8493  
      8362       8363       8374       8373       8483       8484       8495       8494  
      8363       8364       8375       8374       8484       8485       8496       8495  
      8364       8365       8376       8375       8485       8486       8497       8496  
      8365       8366       8377       8376       8486       8487       8498       8497  
      8366       8367       8378       8377       8487       8488       8499       8498  
      8367       8368       8379       8378       8488       8489       8500       8499  
      8368       8369       8380       8379       8489       8490       8501       8500  
      8369       8370       8381       8380       8490       8491       8502       8501  
      8370       8371       8382       8381       8491       8492       8503       8502  
      8372       8373       8384       8383       8493       8494       8505       8504  
      8373       8374       8385       8384       8494       8495       8506       8505  
      8374       8375       8386       8385       8495       8496       8507       8506  
      8375       8376       8387       8386       8496       8497       8508       8507  
      8376       8377       8388       8387       8497       8498       8509       8508  
      8377       8378       8389       8388       8498       8499       8510       8509  
      8378       8379       8390       8389       8499       8500       8511       8510  
      8379       8380       8391       8390       8500       8501       8512       8511  
      8380       8381       8392       8391       8501       8502       8513       8512  
      8381       8382       8393       8392       8502       8503       8514       8513  
      8383       8384       8395       8394       8504       8505       8516       8515  
      8384       8385       8396       8395       8505       8506       8517       8516  
      8385       8386       8397       8396       8506       8507       8518       8517  
      8386       8387       8398       8397       8507       8508       8519       8518  
      8387       8388       8399       8398       8508       8509       8520       8519  
      8388       8389       8400       8399       8509       8510       8521       8520  
      8389       8390       8401       8400       8510       8511       8522       8521  
      8390       8391       8402       8401       8511       8512       8523       8522  
      8391       8392       8403       8402       8512       8513       8524       8523  
      8392       8393       8404       8403       8513       8514       8525       8524  
      8394       8395       8406       8405       8515       8516       8527       8526  
      8395       8396       8407       8406       8516       8517       8528       8527  
      8396       8397       8408       8407       8517       8518       8529       8528  
      8397       8398       8409       8408       8518       8519       8530       8529  
      8398       8399       8410       8409       8519       8520       8531       8530  
      8399       8400       8411       8410       8520       8521       8532       8531  
      8400       8401       8412       8411       8521       8522       8533       8532  
      8401       8402       8413       8412       8522       8523       8534       8533  
      8402       8403       8414       8413       8523       8524       8535       8534  
      8403       8404       8415       8414       8524       8525       8536       8535  
      8405       8406       8417       8416       8526       8527       8538       8537  
      8406       8407       8418       8417       8527       8528       8539       8538  
      8407       8408       8419       8418       8528       8529       8540       8539  
      8408       8409       8420       8419       8529       8530       8541       8540  
      8409       8410       8421       8420       8530       8531       8542       8541  
      8410       8411       8422       8421       8531       8532       8543       8542  
      8411       8412       8423       8422       8532       8533       8544       8543  
      8412       8413       8424       8423       8533       8534       8545       8544  
      8413       8414       8425       8424       8534       8535       8546       8545  
      8414       8415       8426       8425       8535       8536       8547       8546  
      8416       8417       8428       8427       8537       8538       8549       8548  
      8417       8418       8429       8428       8538       8539       8550       8549  
      8418       8419       8430       8429       8539       8540       8551       8550  
      8419       8420       8431       8430       8540       8541       8552       8551  
      8420       8421       8432       8431       8541       8542       8553       8552  
      8421       8422       8433       8432       8542       8543       8554       8553  
      8422       8423       8434       8433       8543       8544       8555       8554  
      8423       8424       8435       8434       8544       8545       8556       8555  
      8424       8425       8436       8435       8545       8546       8557       8556  
      8425       8426       8437       8436       8546       8547       8558       8557  
      8427       8428       8439       8438       8548       8549       8560       8559  
      8428       8429       8440       8439       8549       8550       8561       8560  
      8429       8430       8441       8440       8550       8551       8562       8561  
      8430       8431       8442       8441       8551       8552       8563       8562  
      8431       8432       8443       8442       8552       8553       8564       8563  
      8432       8433       8444       8443       8553       8554       8565       8564  
      8433       8434       8445       8444       8554       8555       8566       8565  
      8434       8435       8446       8445       8555       8556       8567       8566  
      8435       8436       8447       8446       8556       8557       8568       8567  
      8436       8437       8448       8447       8557       8558       8569       8568  
      8438       8439       8450       8449       8559       8560       8571       8570  
      8439       8440       8451       8450       8560       8561       8572       8571  
      8440       8441       8452       8451       8561       8562       8573       8572  
      8441       8442       8453       8452       8562       8563       8574       8573  
      8442       8443       8454       8453       8563       8564       8575       8574  
      8443       8444       8455       8454       8564       8565       8576       8575  
      8444       8445       8456       8455       8565       8566       8577       8576  
      8445       8446       8457       8456       8566       8567       8578       8577  
      8446       8447       8458       8457       8567       8568       8579       8578  
      8447       8448       8459       8458       8568       8569       8580       8579  
      8449       8450       8461       8460       8570       8571       8582       8581  
      8450       8451       8462       8461       8571       8572       8583       8582  
      8451       8452       8463       8462       8572       8573       8584       8583  
      8452       8453       8464       8463       8573       8574       8585       8584  
      8453       8454       8465       8464       8574       8575       8586       8585  
      8454       8455       8466       8465       8575       8576       8587       8586  
      8455       8456       8467       8466       8576       8577       8588       8587  
      8456       8457       8468       8467       8577       8578       8589       8588  
      8457       8458       8469       8468       8578       8579       8590       8589  
      8458       8459       8470       8469       8579       8580       8591       8590  
      8471       8472       8483       8482       8592       8593       8604       8603  
      8472       8473       8484       8483       8593       8594       8605       8604  
      8473       8474       8485       8484       8594       8595       8606       8605  
      8474       8475       8486       8485       8595       8596       8607       8606  
      8475       8476       8487       8486       8596       8597       8608       8607  
      8476       8477       8488       8487       8597       8598       8609       8608  
      8477       8478       8489       8488       8598       8599       8610       8609  
      8478       8479       8490       8489       8599       8600       8611       8610  
      8479       8480       8491       8490       8600       8601       8612       8611  
      8480       8481       8492       8491       8601       8602       8613       8612  
      8482       8483       8494       8493       8603       8604       8615       8614  
      8483       8484       8495       8494       8604       8605       8616       8615  
      8484       8485       8496       8495       8605       8606       8617       8616  
      8485       8486       8497       8496       8606       8607       8618       8617  
      8486       8487       8498       8497       8607       8608       8619       8618  
      8487       8488       8499       8498       8608       8609       8620       8619  
      8488       8489       8500       8499       8609       8610       8621       8620  
      8489       8490       8501       8500       8610       8611       8622       8621  
      8490       8491       8502       8501       8611       8612       8623       8622  
      8491       8492       8503       8502       8612       8613       8624       8623  
      8493       8494       8505       8504       8614       8615       8626       8625  
      8494       8495       8506       8505       8615       8616       8627       8626  
      8495       8496       8507       8506       8616       8617       8628       8627  
      8496       8497       8508       8507       8617       8618       8629       8628  
      8497       8498       8509       8508       8618       8619       8630       8629  
      8498       8499       8510       8509       8619       8620       8631       8630  
      8499       8500       8511       8510       8620       8621       8632       8631  
      8500       8501       8512       8511       8621       8622       8633       8632  
      8501       8502       8513       8512       8622       8623       8634       8633  
      8502       8503       8514       8513       8623       8624       8635       8634  
      8504       8505       8516       8515       8625       8626       8637       8636  
      8505       8506       8517       8516       8626       8627       8638       8637  
      8506       8507       8518       8517       8627       8628       8639       8638  
      8507       8508       8519       8518       8628       8629       8640       8639  
      8508       8509       8520       8519       8629       8630       8641       8640  
      8509       8510       8521       8520       8630       8631       8642       8641  
      8510       8511       8522       8521       8631       8632       8643       8642  
      8511       8512       8523       8522       8632       8633       8644       8643  
      8512       8513       8524       8523       8633       8634       8645       8644  
      8513       8514       8525       8524       8634       8635       8646       8645  
      8515       8516       8527       8526       8636       8637       8648       8647  
      8516       8517       8528       8527       8637       8638       8649       8648  
      8517       8518       8529       8528       8638       8639       8650       8649  
      8518       8519       8530       8529       8639       8640       8651       8650  
      8519       8520       8531       8530       8640       8641       8652       8651  
      8520       8521       8532       8531       8641       8642       8653       8652  
      8521       8522       8533       8532       8642       8643       8654       8653  
      8522       8523       8534       8533       8643       8644       8655       8654  
      8523       8524       8535       8534       8644       8645       8656       8655  
      8524       8525       8536       8535       8645       8646       8657       8656  
      8526       8527       8538       8537       8647       8648       8659       8658  
      8527       8528       8539       8538       8648       8649       8660       8659  
      8528       8529       8540       8539       8649       8650       8661       8660  
      8529       8530       8541       8540       8650       8651       8662       8661  
      8530       8531       8542       8541       8651       8652       8663       8662  
      8531       8532       8543       8542       8652       8653       8664       8663  
      8532       8533       8544       8543       8653       8654       8665       8664  
      8533       8534       8545       8544       8654       8655       8666       8665  
      8534       8535       8546       8545       8655       8656       8667       8666  
      8535       8536       8547       8546       8656       8657       8668       8667  
      8537       8538       8549       8548       8658       8659       8670       8669  
      8538       8539       8550       8549       8659       8660       8671       8670  
      8539       8540       8551       8550       8660       8661       8672       8671  
      8540       8541       8552       8551       8661       8662       8673       8672  
      8541       8542       8553       8552       8662       8663       8674       8673  
      8542       8543       8554       8553       8663       8664       8675       8674  
      8543       8544       8555       8554       8664       8665       8676       8675  
      8544       8545       8556       8555       8665       8666       8677       8676  
      8545       8546       8557       8556       8666       8667       8678       8677  
      8546       8547       8558       8557       8667       8668       8679       8678  
      8548       8549       8560       8559       8669       8670       8681       8680  
      8549       8550       8561       8560       8670       8671       8682       8681  
      8550       8551       8562       8561       8671       8672       8683       8682  
      8551       8552       8563       8562       8672       8673       8684       8683  
      8552       8553       8564       8563       8673       8674       8685       8684  
      8553       8554       8565       8564       8674       8675       8686       8685  
      8554       8555       8566       8565       8675       8676       8687       8686  
      8555       8556       8567       8566       8676       8677       8688       8687  
      8556       8557       8568       8567       8677       8678       8689       8688  
      8557       8558       8569       8568       8678       8679       8690       8689  
      8559       8560       8571       8570       8680       8681       8692       8691  
      8560       8561       8572       8571       8681       8682       8693       8692  
      8561       8562       8573       8572       8682       8683       8694       8693  
      8562       8563       8574       8573       8683       8684       8695       8694  
      8563       8564       8575       8574       8684       8685       8696       8695  
      8564       8565       8576       8575       8685       8686       8697       8696  
      8565       8566       8577       8576       8686       8687       8698       8697  
      8566       8567       8578       8577       8687       8688       8699       8698  
      8567       8568       8579       8578       8688       8689       8700       8699  
      8568       8569       8580       8579       8689       8690       8701       8700  
      8570       8571       8582       8581       8691       8692       8703       8702  
      8571       8572       8583       8582       8692       8693       8704       8703  
      8572       8573       8584       8583       8693       8694       8705       8704  
      8573       8574       8585       8584       8694       8695       8706       8705  
      8574       8575       8586       8585       8695       8696       8707       8706  
      8575       8576       8587       8586       8696       8697       8708       8707  
      8576       8577       8588       8587       8697       8698       8709       8708  
      8577       8578       8589       8588       8698       8699       8710       8709  
      8578       8579       8590       8589       8699       8700       8711       8710  
      8579       8580       8591       8590       8700       8701       8712       8711  
      8592       8593       8604       8603       8713       8714       8725       8724  
      8593       8594       8605       8604       8714       8715       8726       8725  
      8594       8595       8606       8605       8715       8716       8727       8726  
      8595       8596       8607       8606       8716       8717       8728       8727  
      8596       8597       8608       8607       8717       8718       8729       8728  
      8597       8598       8609       8608       8718       8719       8730       8729  
      8598       8599       8610       8609       8719       8720       8731       8730  
      8599       8600       8611       8610       8720       8721       8732       8731  
      8600       8601       8612       8611       8721       8722       8733       8732  
      8601       8602       8613       8612       8722       8723       8734       8733  
      8603       8604       8615       8614       8724       8725       8736       8735  
      8604       8605       8616       8615       8725       8726       8737       8736  
      8605       8606       8617       8616       8726       8727       8738       8737  
      8606       8607       8618       8617       8727       8728       8739       8738  
      8607       8608       8619       8618       8728       8729       8740       8739  
      8608       8609       8620       8619       8729       8730       8741       8740  
      8609       8610       8621       8620       8730       8731       8742       8741  
      8610       8611       8622       8621       8731       8732       8743       8742  
      8611       8612       8623       8622       8732       8733       8744       8743  
      8612       8613       8624       8623       8733       8734       8745       8744  
      8614       8615       8626       8625       8735       8736       8747       8746  
      8615       8616       8627       8626       8736       8737       8748       8747  
      8616       8617       8628       8627       8737       8738       8749       8748  
      8617       8618       8629       8628       8738       8739       8750       8749  
      8618       8619       8630       8629       8739       8740       8751       8750  
      8619       8620       8631       8630       8740       8741       8752       8751  
      8620       8621       8632       8631       8741       8742       8753       8752  
      8621       8622       8633       8632       8742       8743       8754       8753  
      8622       8623       8634       8633       8743       8744       8755       8754  
      8623       8624       8635       8634       8744       8745       8756       8755  
      8625       8626       8637       8636       8746       8747       8758       8757  
      8626       8627       8638       8637       8747       8748       8759       8758  
      8627       8628       8639       8638       8748       8749       8760       8759  
      8628       8629       8640       8639       8749       8750       8761       8760  
      8629       8630       8641       8640       8750       8751       8762       8761  
      8630       8631       8642       8641       8751       8752       8763       8762  
      8631       8632       8643       8642       8752       8753       8764       8763  
      8632       8633       8644       8643       8753       8754       8765       8764  
      8633       8634       8645       8644       8754       8755       8766       8765  
      8634       8635       8646       8645       8755       8756       8767       8766  
      8636       8637       8648       8647       8757       8758       8769       8768  
      8637       8638       8649       8648       8758       8759       8770       8769  
      8638       8639       8650       8649       8759       8760       8771       8770  
      8639       8640       8651       8650       8760       8761       8772       8771  
      8640       8641       8652       8651       8761       8762       8773       8772  
      8641       8642       8653       8652       8762       8763       8774       8773  
      8642       8643       8654       8653       8763       8764       8775       8774  
      8643       8644       8655       8654       8764       8765       8776       8775  
      8644       8645       8656       8655       8765       8766       8777       8776  
      8645       8646       8657       8656       8766       8767       8778       8777  
      8647       8648       8659       8658       8768       8769       8780       8779  
      8648       8649       8660       8659       8769       8770       8781       8780  
      8649       8650       8661       8660       8770       8771       8782       8781  
      8650       8651       8662       8661       8771       8772       8783       8782  
      8651       8652       8663       8662       8772       8773       8784       8783  
      8652       8653       8664       8663       8773       8774       8785       8784  
      8653       8654       8665       8664       8774       8775       8786       8785  
      8654       8655       8666       8665       8775       8776       8787       8786  
      8655       8656       8667       8666       8776       8777       8788       8787  
      8656       8657       8668       8667       8777       8778       8789       8788  
      8658       8659       8670       8669       8779       8780       8791       8790  
      8659       8660       8671       8670       8780       8781       8792       8791  
      8660       8661       8672       8671       8781       8782       8793       8792  
      8661       8662       8673       8672       8782       8783       8794       8793  
      8662       8663       8674       8673       8783       8784       8795       8794  
      8663       8664       8675       8674       8784       8785       8796       8795  
      8664       8665       8676       8675       8785       8786       8797       8796  
      8665       8666       8677       8676       8786       8787       8798       8797  
      8666       8667       8678       8677       8787       8788       8799       8798  
      8667       8668       8679       8678       8788       8789       8800       8799  
      8669       8670       8681       8680       8790       8791       8802       8801  
      8670       8671       8682       8681       8791       8792       8803       8802  
      8671       8672       8683       8682       8792       8793       8804       8803  
      8672       8673       8684       8683       8793       8794       8805       8804  
      8673       8674       8685       8684       8794       8795       8806       8805  
      8674       8675       8686       8685       8795       8796       8807       8806  
      8675       8676       8687       8686       8796       8797       8808       8807  
      8676       8677       8688       8687       8797       8798       8809       8808  
      8677       8678       8689       8688       8798       8799       8810       8809  
      8678       8679       8690       8689       8799       8800       8811       8810  
      8680       8681       8692       8691       8801       8802       8813       8812  
      8681       8682       8693       8692       8802       8803       8814       8813  
      8682       8683       8694       8693       8803       8804       8815       8814  
      8683       8684       8695       8694       8804       8805       8816       8815  
      8684       8685       8696       8695       8805       8806       8817       8816  
      8685       8686       8697       8696       8806       8807       8818       8817  
      8686       8687       8698       8697       8807       8808       8819       8818  
      8687       8688       8699       8698       8808       8809       8820       8819  
      8688       8689       8700       8699       8809       8810       8821       8820  
      8689       8690       8701       8700       8810       8811       8822       8821  
      8691       8692       8703       8702       8812       8813       8824       8823  
      8692       8693       8704       8703       8813       8814       8825       8824  
      8693       8694       8705       8704       8814       8815       8826       8825  
      8694       8695       8706       8705       8815       8816       8827       8826  
      8695       8696       8707       8706       8816       8817       8828       8827  
      8696       8697       8708       8707       8817       8818       8829       8828  
      8697       8698       8709       8708       8818       8819       8830       8829  
      8698       8699       8710       8709       8819       8820       8831       8830  
      8699       8700       8711       8710       8820       8821       8832       8831  
      8700       8701       8712       8711       8821       8822       8833       8832  
      8713       8714       8725       8724       8834       8835       8846       8845  
      8714       8715       8726       8725       8835       8836       8847       8846  
      8715       8716       8727       8726       8836       8837       8848       8847  
      8716       8717       8728       8727       8837       8838       8849       8848  
      8717       8718       8729       8728       8838       8839       8850       8849  
      8718       8719       8730       8729       8839       8840       8851       8850  
      8719       8720       8731       8730       8840       8841       8852       8851  
      8720       8721       8732       8731       8841       8842       8853       8852  
      8721       8722       8733       8732       8842       8843       8854       8853  
      8722       8723       8734       8733       8843       8844       8855       8854  
      8724       8725       8736       8735       8845       8846       8857       8856  
      8725       8726       8737       8736       8846       8847       8858       8857  
      8726       8727       8738       8737       8847       8848       8859       8858  
      8727       8728       8739       8738       8848       8849       8860       8859  
      8728       8729       8740       8739       8849       8850       8861       8860  
      8729       8730       8741       8740       8850       8851       8862       8861  
      8730       8731       8742       8741       8851       8852       8863       8862  
      8731       8732       8743       8742       8852       8853       8864       8863  
      8732       8733       8744       8743       8853       8854       8865       8864  
      8733       8734       8745       8744       8854       8855       8866       8865  
      8735       8736       8747       8746       8856       8857       8868       8867  
      8736       8737       8748       8747       8857       8858       8869       8868  
      8737       8738       8749       8748       8858       8859       8870       8869  
      8738       8739       8750       8749       8859       8860       8871       8870  
      8739       8740       8751       8750       8860       8861       8872       8871  
      8740       8741       8752       8751       8861       8862       8873       8872  
      8741       8742       8753       8752       8862       8863       8874       8873  
      8742       8743       8754       8753       8863       8864       8875       8874  
      8743       8744       8755       8754       8864       8865       8876       8875  
      8744       8745       8756       8755       8865       8866       8877       8876  
      8746       8747       8758       8757       8867       8868       8879       8878  
      8747       8748       8759       8758       8868       8869       8880       8879  
      8748       8749       8760       8759       8869       8870       8881       8880  
      8749       8750       8761       8760       8870       8871       8882       8881  
      8750       8751       8762       8761       8871       8872       8883       8882  
      8751       8752       8763       8762       8872       8873       8884       8883  
      8752       8753       8764       8763       8873       8874       8885       8884  
      8753       8754       8765       8764       8874       8875       8886       8885  
      8754       8755       8766       8765       8875       8876       8887       8886  
      8755       8756       8767       8766       8876       8877       8888       8887  
      8757       8758       8769       8768       8878       8879       8890       8889  
      8758       8759       8770       8769       8879       8880       8891       8890  
      8759       8760       8771       8770       8880       8881       8892       8891  
      8760       8761       8772       8771       8881       8882       8893       8892  
      8761       8762       8773       8772       8882       8883       8894       8893  
      8762       8763       8774       8773       8883       8884       8895       8894  
      8763       8764       8775       8774       8884       8885       8896       8895  
      8764       8765       8776       8775       8885       8886       8897       8896  
      8765       8766       8777       8776       8886       8887       8898       8897  
      8766       8767       8778       8777       8887       8888       8899       8898  
      8768       8769       8780       8779       8889       8890       8901       8900  
      8769       8770       8781       8780       8890       8891       8902       8901  
      8770       8771       8782       8781       8891       8892       8903       8902  
      8771       8772       8783       8782       8892       8893       8904       8903  
      8772       8773       8784       8783       8893       8894       8905       8904  
      8773       8774       8785       8784       8894       8895       8906       8905  
      8774       8775       8786       8785       8895       8896       8907       8906  
      8775       8776       8787       8786       8896       8897       8908       8907  
      8776       8777       8788       8787       8897       8898       8909       8908  
      8777       8778       8789       8788       8898       8899       8910       8909  
      8779       8780       8791       8790       8900       8901       8912       8911  
      8780       8781       8792       8791       8901       8902       8913       8912  
      8781       8782       8793       8792       8902       8903       8914       8913  
      8782       8783       8794       8793       8903       8904       8915       8914  
      8783       8784       8795       8794       8904       8905       8916       8915  
      8784       8785       8796       8795       8905       8906       8917       8916  
      8785       8786       8797       8796       8906       8907       8918       8917  
      8786       8787       8798       8797       8907       8908       8919       8918  
      8787       8788       8799       8798       8908       8909       8920       8919  
      8788       8789       8800       8799       8909       8910       8921       8920  
      8790       8791       8802       8801       8911       8912       8923       8922  
      8791       8792       8803       8802       8912       8913       8924       8923  
      8792       8793       8804       8803       8913       8914       8925       8924  
      8793       8794       8805       8804       8914       8915       8926       8925  
      8794       8795       8806       8805       8915       8916       8927       8926  
      8795       8796       8807       8806       8916       8917       8928       8927  
      8796       8797       8808       8807       8917       8918       8929       8928  
      8797       8798       8809       8808       8918       8919       8930       8929  
      8798       8799       8810       8809       8919       8920       8931       8930  
      8799       8800       8811       8810       8920       8921       8932       8931  
      8801       8802       8813       8812       8922       8923       8934       8933  
      8802       8803       8814       8813       8923       8924       8935       8934  
      8803       8804       8815       8814       8924       8925       8936       8935  
      8804       8805       8816       8815       8925       8926       8937       8936  
      8805       8806       8817       8816       8926       8927       8938       8937  
      8806       8807       8818       8817       8927       8928       8939       8938  
      8807       8808       8819       8818       8928       8929       8940       8939  
      8808       8809       8820       8819       8929       8930       8941       8940  
      8809       8810       8821       8820       8930       8931       8942       8941  
      8810       8811       8822       8821       8931       8932       8943       8942  
      8812       8813       8824       8823       8933       8934       8945       8944  
      8813       8814       8825       8824       8934       8935       8946       8945  
      8814       8815       8826       8825       8935       8936       8947       8946  
      8815       8816       8827       8826       8936       8937       8948       8947  
      8816       8817       8828       8827       8937       8938       8949       8948  
      8817       8818       8829       8828       8938       8939       8950       8949  
      8818       8819       8830       8829       8939       8940       8951       8950  
      8819       8820       8831       8830       8940       8941       8952       8951  
      8820       8821       8832       8831       8941       8942       8953       8952  
      8821       8822       8833       8832       8942       8943       8954       8953  
      8834       8835       8846       8845       8955       8956       8967       8966  
      8835       8836       8847       8846       8956       8957       8968       8967  
      8836       8837       8848       8847       8957       8958       8969       8968  
      8837       8838       8849       8848       8958       8959       8970       8969  
      8838       8839       8850       8849       8959       8960       8971       8970  
      8839       8840       8851       8850       8960       8961       8972       8971  
      8840       8841       8852       8851       8961       8962       8973       8972  
      8841       8842       8853       8852       8962       8963       8974       8973  
      8842       8843       8854       8853       8963       8964       8975       8974  
      8843       8844       8855       8854       8964       8965       8976       8975  
      8845       8846       8857       8856       8966       8967       8978       8977  
      8846       8847       8858       8857       8967       8968       8979       8978  
      8847       8848       8859       8858       8968       8969       8980       8979  
      8848       8849       8860       8859       8969       8970       8981       8980  
      8849       8850       8861       8860       8970       8971       8982       8981  
      8850       8851       8862       8861       8971       8972       8983       8982  
      8851       8852       8863       8862       8972       8973       8984       8983  
      8852       8853       8864       8863       8973       8974       8985       8984  
      8853       8854       8865       8864       8974       8975       8986       8985  
      8854       8855       8866       8865       8975       8976       8987       8986  
      8856       8857       8868       8867       8977       8978       8989       8988  
      8857       8858       8869       8868       8978       8979       8990       8989  
      8858       8859       8870       8869       8979       8980       8991       8990  
      8859       8860       8871       8870       8980       8981       8992       8991  
      8860       8861       8872       8871       8981       8982       8993       8992  
      8861       8862       8873       8872       8982       8983       8994       8993  
      8862       8863       8874       8873       8983       8984       8995       8994  
      8863       8864       8875       8874       8984       8985       8996       8995  
      8864       8865       8876       8875       8985       8986       8997       8996  
      8865       8866       8877       8876       8986       8987       8998       8997  
      8867       8868       8879       8878       8988       8989       9000       8999  
      8868       8869       8880       8879       8989       8990       9001       9000  
      8869       8870       8881       8880       8990       8991       9002       9001  
      8870       8871       8882       8881       8991       8992       9003       9002  
      8871       8872       8883       8882       8992       8993       9004       9003  
      8872       8873       8884       8883       8993       8994       9005       9004  
      8873       8874       8885       8884       8994       8995       9006       9005  
      8874       8875       8886       8885       8995       8996       9007       9006  
      8875       8876       8887       8886       8996       8997       9008       9007  
      8876       8877       8888       8887       8997       8998       9009       9008  
      8878       8879       8890       8889       8999       9000       9011       9010  
      8879       8880       8891       8890       9000       9001       9012       9011  
      8880       8881       8892       8891       9001       9002       9013       9012  
      8881       8882       8893       8892       9002       9003       9014       9013  
      8882       8883       8894       8893       9003       9004       9015       9014  
      8883       8884       8895       8894       9004       9005       9016       9015  
      8884       8885       8896       8895       9005       9006       9017       9016  
      8885       8886       8897       8896       9006       9007       9018       9017  
      8886       8887       8898       8897       9007       9008       9019       9018  
      8887       8888       8899       8898       9008       9009       9020       9019  
      8889       8890       8901       8900       9010       9011       9022       9021  
      8890       8891       8902       8901       9011       9012       9023       9022  
      8891       8892       8903       8902       9012       9013       9024       9023  
      8892       8893       8904       8903       9013       9014       9025       9024  
      8893       8894       8905       8904       9014       9015       9026       9025  
      8894       8895       8906       8905       9015       9016       9027       9026  
      8895       8896       8907       8906       9016       9017       9028       9027  
      8896       8897       8908       8907       9017       9018       9029       9028  
      8897       8898       8909       8908       9018       9019       9030       9029  
      8898       8899       8910       8909       9019       9020       9031       9030  
      8900       8901       8912       8911       9021       9022       9033       9032  
      8901       8902       8913       8912       9022       9023       9034       9033  
      8902       8903       8914       8913       9023       9024       9035       9034  
      8903       8904       8915       8914       9024       9025       9036       9035  
      8904       8905       8916       8915       9025       9026       9037       9036  
      8905       8906       8917       8916       9026       9027       9038       9037  
      8906       8907       8918       8917       9027       9028       9039       9038  
      8907       8908       8919       8918       9028       9029       9040       9039  
      8908       8909       8920       8919       9029       9030       9041       9040  
      8909       8910       8921       8920       9030       9031       9042       9041  
      8911       8912       8923       8922       9032       9033       9044       9043  
      8912       8913       8924       8923       9033       9034       9045       9044  
      8913       8914       8925       8924       9034       9035       9046       9045  
      8914       8915       8926       8925       9035       9036       9047       9046  
      8915       8916       8927       8926       9036       9037       9048       9047  
      8916       8917       8928       8927       9037       9038       9049       9048  
      8917       8918       8929       8928       9038       9039       9050       9049  
      8918       8919       8930       8929       9039       9040       9051       9050  
      8919       8920       8931       8930       9040       9041       9052       9051  
      8920       8921       8932       8931       9041       9042       9053       9052  
      8922       8923       8934       8933       9043       9044       9055       9054  
      8923       8924       8935       8934       9044       9045       9056       9055  
      8924       8925       8936       8935       9045       9046       9057       9056  
      8925       8926       8937       8936       9046       9047       9058       9057  
      8926       8927       8938       8937       9047       9048       9059       9058  
      8927       8928       8939       8938       9048       9049       9060       9059  
      8928       8929       8940       8939       9049       9050       9061       9060  
      8929       8930       8941       8940       9050       9051       9062       9061  
      8930       8931       8942       8941       9051       9052       9063       9062  
      8931       8932       8943       8942       9052       9053       9064       9063  
      8933       8934       8945       8944       9054       9055       9066       9065  
      8934       8935       8946       8945       9055       9056       9067       9066  
      8935       8936       8947       8946       9056       9057       9068       9067  
      8936       8937       8948       8947       9057       9058       9069       9068  
      8937       8938       8949       8948       9058       9059       9070       9069  
      8938       8939       8950       8949       9059       9060       9071       9070  
      8939       8940       8951       8950       9060       9061       9072       9071  
      8940       8941       8952       8951       9061       9062       9073       9072  
      8941       8942       8953       8952       9062       9063       9074       9073  
      8942       8943       8954       8953       9063       9064       9075       9074  
      8955       8956       8967       8966       9076       9077       9088       9087  
      8956       8957       8968       8967       9077       9078       9089       9088  
      8957       8958       8969       8968       9078       9079       9090       9089  
      8958       8959       8970       8969       9079       9080       9091       9090  
      8959       8960       8971       8970       9080       9081       9092       9091  
      8960       8961       8972       8971       9081       9082       9093       9092  
      8961       8962       8973       8972       9082       9083       9094       9093  
      8962       8963       8974       8973       9083       9084       9095       9094  
      8963       8964       8975       8974       9084       9085       9096       9095  
      8964       8965       8976       8975       9085       9086       9097       9096  
      8966       8967       8978       8977       9087       9088       9099       9098  
      8967       8968       8979       8978       9088       9089       9100       9099  
      8968       8969       8980       8979       9089       9090       9101       9100  
      8969       8970       8981       8980       9090       9091       9102       9101  
      8970       8971       8982       8981       9091       9092       9103       9102  
      8971       8972       8983       8982       9092       9093       9104       9103  
      8972       8973       8984       8983       9093       9094       9105       9104  
      8973       8974       8985       8984       9094       9095       9106       9105  
      8974       8975       8986       8985       9095       9096       9107       9106  
      8975       8976       8987       8986       9096       9097       9108       9107  
      8977       8978       8989       8988       9098       9099       9110       9109  
      8978       8979       8990       8989       9099       9100       9111       9110  
      8979       8980       8991       8990       9100       9101       9112       9111  
      8980       8981       8992       8991       9101       9102       9113       9112  
      8981       8982       8993       8992       9102       9103       9114       9113  
      8982       8983       8994       8993       9103       9104       9115       9114  
      8983       8984       8995       8994       9104       9105       9116       9115  
      8984       8985       8996       8995       9105       9106       9117       9116  
      8985       8986       8997       8996       9106       9107       9118       9117  
      8986       8987       8998       8997       9107       9108       9119       9118  
      8988       8989       9000       8999       9109       9110       9121       9120  
      8989       8990       9001       9000       9110       9111       9122       9121  
      8990       8991       9002       9001       9111       9112       9123       9122  
      8991       8992       9003       9002       9112       9113       9124       9123  
      8992       8993       9004       9003       9113       9114       9125       9124  
      8993       8994       9005       9004       9114       9115       9126       9125  
      8994       8995       9006       9005       9115       9116       9127       9126  
      8995       8996       9007       9006       9116       9117       9128       9127  
      8996       8997       9008       9007       9117       9118       9129       9128  
      8997       8998       9009       9008       9118       9119       9130       9129  
      8999       9000       9011       9010       9120       9121       9132       9131  
      9000       9001       9012       9011       9121       9122       9133       9132  
      9001       9002       9013       9012       9122       9123       9134       9133  
      9002       9003       9014       9013       9123       9124       9135       9134  
      9003       9004       9015       9014       9124       9125       9136       9135  
      9004       9005       9016       9015       9125       9126       9137       9136  
      9005       9006       9017       9016       9126       9127       9138       9137  
      9006       9007       9018       9017       9127       9128       9139       9138  
      9007       9008       9019       9018       9128       9129       9140       9139  
      9008       9009       9020       9019       9129       9130       9141       9140  
      9010       9011       9022       9021       9131       9132       9143       9142  
      9011       9012       9023       9022       9132       9133       9144       9143  
      9012       9013       9024       9023       9133       9134       9145       9144  
      9013       9014       9025       9024       9134       9135       9146       9145  
      9014       9015       9026       9025       9135       9136       9147       9146  
      9015       9016       9027       9026       9136       9137       9148       9147  
      9016       9017       9028       9027       9137       9138       9149       9148  
      9017       9018       9029       9028       9138       9139       9150       9149  
      9018       9019       9030       9029       9139       9140       9151       9150  
      9019       9020       9031       9030       9140       9141       9152       9151  
      9021       9022       9033       9032       9142       9143       9154       9153  
      9022       9023       9034       9033       9143       9144       9155       9154  
      9023       9024       9035       9034       9144       9145       9156       9155  
      9024       9025       9036       9035       9145       9146       9157       9156  
      9025       9026       9037       9036       9146       9147       9158       9157  
      9026       9027       9038       9037       9147       9148       9159       9158  
      9027       9028       9039       9038       9148       9149       9160       9159  
      9028       9029       9040       9039       9149       9150       9161       9160  
      9029       9030       9041       9040       9150       9151       9162       9161  
      9030       9031       9042       9041       9151       9152       9163       9162  
      9032       9033       9044       9043       9153       9154       9165       9164  
      9033       9034       9045       9044       9154       9155       9166       9165  
      9034       9035       9046       9045       9155       9156       9167       9166  
      9035       9036       9047       9046       9156       9157       9168       9167  
      9036       9037       9048       9047       9157       9158       9169       9168  
      9037       9038       9049       9048       9158       9159       9170       9169  
      9038       9039       9050       9049       9159       9160       9171       9170  
      9039       9040       9051       9050       9160       9161       9172       9171  
      9040       9041       9052       9051       9161       9162       9173       9172  
      9041       9042       9053       9052       9162       9163       9174       9173  
      9043       9044       9055       9054       9164       9165       9176       9175  
      9044       9045       9056       9055       9165       9166       9177       9176  
      9045       9046       9057       9056       9166       9167       9178       9177  
      9046       9047       9058       9057       9167       9168       9179       9178  
      9047       9048       9059       9058       9168       9169       9180       9179  
      9048       9049       9060       9059       9169       9170       9181       9180  
      9049       9050       9061       9060       9170       9171       9182       9181  
      9050       9051       9062       9061       9171       9172       9183       9182  
      9051       9052       9063       9062       9172       9173       9184       9183  
      9052       9053       9064       9063       9173       9174       9185       9184  
      9054       9055       9066       9065       9175       9176       9187       9186  
      9055       9056       9067       9066       9176       9177       9188       9187  
      9056       9057       9068       9067       9177       9178       9189       9188  
      9057       9058       9069       9068       9178       9179       9190       9189  
      9058       9059       9070       9069       9179       9180       9191       9190  
      9059       9060       9071       9070       9180       9181       9192       9191  
      9060       9061       9072       9071       9181       9182       9193       9192  
      9061       9062       9073       9072       9182       9183       9194       9193  
      9062       9063       9074       9073       9183       9184       9195       9194  
      9063       9064       9075       9074       9184       9185       9196       9195  
      9076       9077       9088       9087       9197       9198       9209       9208  
      9077       9078       9089       9088       9198       9199       9210       9209  
      9078       9079       9090       9089       9199       9200       9211       9210  
      9079       9080       9091       9090       9200       9201       9212       9211  
      9080       9081       9092       9091       9201       9202       9213       9212  
      9081       9082       9093       9092       9202       9203       9214       9213  
      9082       9083       9094       9093       9203       9204       9215       9214  
      9083       9084       9095       9094       9204       9205       9216       9215  
      9084       9085       9096       9095       9205       9206       9217       9216  
      9085       9086       9097       9096       9206       9207       9218       9217  
      9087       9088       9099       9098       9208       9209       9220       9219  
      9088       9089       9100       9099       9209       9210       9221       9220  
      9089       9090       9101       9100       9210       9211       9222       9221  
      9090       9091       9102       9101       9211       9212       9223       9222  
      9091       9092       9103       9102       9212       9213       9224       9223  
      9092       9093       9104       9103       9213       9214       9225       9224  
      9093       9094       9105       9104       9214       9215       9226       9225  
      9094       9095       9106       9105       9215       9216       9227       9226  
      9095       9096       9107       9106       9216       9217       9228       9227  
      9096       9097       9108       9107       9217       9218       9229       9228  
      9098       9099       9110       9109       9219       9220       9231       9230  
      9099       9100       9111       9110       9220       9221       9232       9231  
      9100       9101       9112       9111       9221       9222       9233       9232  
      9101       9102       9113       9112       9222       9223       9234       9233  
      9102       9103       9114       9113       9223       9224       9235       9234  
      9103       9104       9115       9114       9224       9225       9236       9235  
      9104       9105       9116       9115       9225       9226       9237       9236  
      9105       9106       9117       9116       9226       9227       9238       9237  
      9106       9107       9118       9117       9227       9228       9239       9238  
      9107       9108       9119       9118       9228       9229       9240       9239  
      9109       9110       9121       9120       9230       9231       9242       9241  
      9110       9111       9122       9121       9231       9232       9243       9242  
      9111       9112       9123       9122       9232       9233       9244       9243  
      9112       9113       9124       9123       9233       9234       9245       9244  
      9113       9114       9125       9124       9234       9235       9246       9245  
      9114       9115       9126       9125       9235       9236       9247       9246  
      9115       9116       9127       9126       9236       9237       9248       9247  
      9116       9117       9128       9127       9237       9238       9249       9248  
      9117       9118       9129       9128       9238       9239       9250       9249  
      9118       9119       9130       9129       9239       9240       9251       9250  
      9120       9121       9132       9131       9241       9242       9253       9252  
      9121       9122       9133       9132       9242       9243       9254       9253  
      9122       9123       9134       9133       9243       9244       9255       9254  
      9123       9124       9135       9134       9244       9245       9256       9255  
      9124       9125       9136       9135       9245       9246       9257       9256  
      9125       9126       9137       9136       9246       9247       9258       9257  
      9126       9127       9138       9137       9247       9248       9259       9258  
      9127       9128       9139       9138       9248       9249       9260       9259  
      9128       9129       9140       9139       9249       9250       9261       9260  
      9129       9130       9141       9140       9250       9251       9262       9261  
      9131       9132       9143       9142       9252       9253       9264       9263  
      9132       9133       9144       9143       9253       9254       9265       9264  
      9133       9134       9145       9144       9254       9255       9266       9265  
      9134       9135       9146       9145       9255       9256       9267       9266  
      9135       9136       9147       9146       9256       9257       9268       9267  
      9136       9137       9148       9147       9257       9258       9269       9268  
      9137       9138       9149       9148       9258       9259       9270       9269  
      9138       9139       9150       9149       9259       9260       9271       9270  
      9139       9140       9151       9150       9260       9261       9272       9271  
      9140       9141       9152       9151       9261       9262       9273       9272  
      9142       9143       9154       9153       9263       9264       9275       9274  
      9143       9144       9155       9154       9264       9265       9276       9275  
      9144       9145       9156       9155       9265       9266       9277       9276  
      9145       9146       9157       9156       9266       9267       9278       9277  
      9146       9147       9158       9157       9267       9268       9279       9278  
      9147       9148       9159       9158       9268       9269       9280       9279  
      9148       9149       9160       9159       9269       9270       9281       9280  
      9149       9150       9161       9160       9270       9271       9282       9281  
      9150       9151       9162       9161       9271       9272       9283       9282  
      9151       9152       9163       9162       9272       9273       9284       9283  
      9153       9154       9165       9164       9274       9275       9286       9285  
      9154       9155       9166       9165       9275       9276       9287       9286  
      9155       9156       9167       9166       9276       9277       9288       9287  
      9156       9157       9168       9167       9277       9278       9289       9288  
      9157       9158       9169       9168       9278       9279       9290       9289  
      9158       9159       9170       9169       9279       9280       9291       9290  
      9159       9160       9171       9170       9280       9281       9292       9291  
      9160       9161       9172       9171       9281       9282       9293       9292  
      9161       9162       9173       9172       9282       9283       9294       9293  
      9162       9163       9174       9173       9283       9284       9295       9294  
      9164       9165       9176       9175       9285       9286       9297       9296  
      9165       9166       9177       9176       9286       9287       9298       9297  
      9166       9167       9178       9177       9287       9288       9299       9298  
      9167       9168       9179       9178       9288       9289       9300       9299  
      9168       9169       9180       9179       9289       9290       9301       9300  
      9169       9170       9181       9180       9290       9291       9302       9301  
      9170       9171       9182       9181       9291       9292       9303       9302  
      9171       9172       9183       9182       9292       9293       9304       9303  
      9172       9173       9184       9183       9293       9294       9305       9304  
      9173       9174       9185       9184       9294       9295       9306       9305  
      9175       9176       9187       9186       9296       9297       9308       9307  
      9176       9177       9188       9187       9297       9298       9309       9308  
      9177       9178       9189       9188       9298       9299       9310       9309  
      9178       9179       9190       9189       9299       9300       9311       9310  
      9179       9180       9191       9190       9300       9301       9312       9311  
      9180       9181       9192       9191       9301       9302       9313       9312  
      9181       9182       9193       9192       9302       9303       9314       9313  
      9182       9183       9194       9193       9303       9304       9315       9314  
      9183       9184       9195       9194       9304       9305       9316       9315  
      9184       9185       9196       9195       9305       9306       9317       9316  
      9197       9198       9209       9208       9318       9319       9330       9329  
      9198       9199       9210       9209       9319       9320       9331       9330  
      9199       9200       9211       9210       9320       9321       9332       9331  
      9200       9201       9212       9211       9321       9322       9333       9332  
      9201       9202       9213       9212       9322       9323       9334       9333  
      9202       9203       9214       9213       9323       9324       9335       9334  
      9203       9204       9215       9214       9324       9325       9336       9335  
      9204       9205       9216       9215       9325       9326       9337       9336  
      9205       9206       9217       9216       9326       9327       9338       9337  
      9206       9207       9218       9217       9327       9328       9339       9338  
      9208       9209       9220       9219       9329       9330       9341       9340  
      9209       9210       9221       9220       9330       9331       9342       9341  
      9210       9211       9222       9221       9331       9332       9343       9342  
      9211       9212       9223       9222       9332       9333       9344       9343  
      9212       9213       9224       9223       9333       9334       9345       9344  
      9213       9214       9225       9224       9334       9335       9346       9345  
      9214       9215       9226       9225       9335       9336       9347       9346  
      9215       9216       9227       9226       9336       9337       9348       9347  
      9216       9217       9228       9227       9337       9338       9349       9348  
      9217       9218       9229       9228       9338       9339       9350       9349  
      9219       9220       9231       9230       9340       9341       9352       9351  
      9220       9221       9232       9231       9341       9342       9353       9352  
      9221       9222       9233       9232       9342       9343       9354       9353  
      9222       9223       9234       9233       9343       9344       9355       9354  
      9223       9224       9235       9234       9344       9345       9356       9355  
      9224       9225       9236       9235       9345       9346       9357       9356  
      9225       9226       9237       9236       9346       9347       9358       9357  
      9226       9227       9238       9237       9347       9348       9359       9358  
      9227       9228       9239       9238       9348       9349       9360       9359  
      9228       9229       9240       9239       9349       9350       9361       9360  
      9230       9231       9242       9241       9351       9352       9363       9362  
      9231       9232       9243       9242       9352       9353       9364       9363  
      9232       9233       9244       9243       9353       9354       9365       9364  
      9233       9234       9245       9244       9354       9355       9366       9365  
      9234       9235       9246       9245       9355       9356       9367       9366  
      9235       9236       9247       9246       9356       9357       9368       9367  
      9236       9237       9248       9247       9357       9358       9369       9368  
      9237       9238       9249       9248       9358       9359       9370       9369  
      9238       9239       9250       9249       9359       9360       9371       9370  
      9239       9240       9251       9250       9360       9361       9372       9371  
      9241       9242       9253       9252       9362       9363       9374       9373  
      9242       9243       9254       9253       9363       9364       9375       9374  
      9243       9244       9255       9254       9364       9365       9376       9375  
      9244       9245       9256       9255       9365       9366       9377       9376  
      9245       9246       9257       9256       9366       9367       9378       9377  
      9246       9247       9258       9257       9367       9368       9379       9378  
      9247       9248       9259       9258       9368       9369       9380       9379  
      9248       9249       9260       9259       9369       9370       9381       9380  
      9249       9250       9261       9260       9370       9371       9382       9381  
      9250       9251       9262       9261       9371       9372       9383       9382  
      9252       9253       9264       9263       9373       9374       9385       9384  
      9253       9254       9265       9264       9374       9375       9386       9385  
      9254       9255       9266       9265       9375       9376       9387       9386  
      9255       9256       9267       9266       9376       9377       9388       9387  
      9256       9257       9268       9267       9377       9378       9389       9388  
      9257       9258       9269       9268       9378       9379       9390       9389  
      9258       9259       9270       9269       9379       9380       9391       9390  
      9259       9260       9271       9270       9380       9381       9392       9391  
      9260       9261       9272       9271       9381       9382       9393       9392  
      9261       9262       9273       9272       9382       9383       9394       9393  
      9263       9264       9275       9274       9384       9385       9396       9395  
      9264       9265       9276       9275       9385       9386       9397       9396  
      9265       9266       9277       9276       9386       9387       9398       9397  
      9266       9267       9278       9277       9387       9388       9399       9398  
      9267       9268       9279       9278       9388       9389       9400       9399  
      9268       9269       9280       9279       9389       9390       9401       9400  
      9269       9270       9281       9280       9390       9391       9402       9401  
      9270       9271       9282       9281       9391       9392       9403       9402  
      9271       9272       9283       9282       9392       9393       9404       9403  
      9272       9273       9284       9283       9393       9394       9405       9404  
      9274       9275       9286       9285       9395       9396       9407       9406  
      9275       9276       9287       9286       9396       9397       9408       9407  
      9276       9277       9288       9287       9397       9398       9409       9408  
      9277       9278       9289       9288       9398       9399       9410       9409  
      9278       9279       9290       9289       9399       9400       9411       9410  
      9279       9280       9291       9290       9400       9401       9412       9411  
      9280       9281       9292       9291       9401       9402       9413       9412  
      9281       9282       9293       9292       9402       9403       9414       9413  
      9282       9283       9294       9293       9403       9404       9415       9414  
      9283       9284       9295       9294       9404       9405       9416       9415  
      9285       9286       9297       9296       9406       9407       9418       9417  
      9286       9287       9298       9297       9407       9408       9419       9418  
      9287       9288       9299       9298       9408       9409       9420       9419  
      9288       9289       9300       9299       9409       9410       9421       9420  
      9289       9290       9301       9300       9410       9411       9422       9421  
      9290       9291       9302       9301       9411       9412       9423       9422  
      9291       9292       9303       9302       9412       9413       9424       9423  
      9292       9293       9304       9303       9413       9414       9425       9424  
      9293       9294       9305       9304       9414       9415       9426       9425  
      9294       9295       9306       9305       9415       9416       9427       9426  
      9296       9297       9308       9307       9417       9418       9429       9428  
      9297       9298       9309       9308       9418       9419       9430       9429  
      9298       9299       9310       9309       9419       9420       9431       9430  
      9299       9300       9311       9310       9420       9421       9432       9431  
      9300       9301       9312       9311       9421       9422       9433       9432  
      9301       9302       9313       9312       9422       9423       9434       9433  
      9302       9303       9314       9313       9423       9424       9435       9434  
      9303       9304       9315       9314       9424       9425       9436       9435  
      9304       9305       9316       9315       9425       9426       9437       9436  
      9305       9306       9317       9316       9426       9427       9438       9437  
      9318       9319       9330       9329       9439       9440       9451       9450  
      9319       9320       9331       9330       9440       9441       9452       9451  
      9320       9321       9332       9331       9441       9442       9453       9452  
      9321       9322       9333       9332       9442       9443       9454       9453  
      9322       9323       9334       9333       9443       9444       9455       9454  
      9323       9324       9335       9334       9444       9445       9456       9455  
      9324       9325       9336       9335       9445       9446       9457       9456  
      9325       9326       9337       9336       9446       9447       9458       9457  
      9326       9327       9338       9337       9447       9448       9459       9458  
      9327       9328       9339       9338       9448       9449       9460       9459  
      9329       9330       9341       9340       9450       9451       9462       9461  
      9330       9331       9342       9341       9451       9452       9463       9462  
      9331       9332       9343       9342       9452       9453       9464       9463  
      9332       9333       9344       9343       9453       9454       9465       9464  
      9333       9334       9345       9344       9454       9455       9466       9465  
      9334       9335       9346       9345       9455       9456       9467       9466  
      9335       9336       9347       9346       9456       9457       9468       9467  
      9336       9337       9348       9347       9457       9458       9469       9468  
      9337       9338       9349       9348       9458       9459       9470       9469  
      9338       9339       9350       9349       9459       9460       9471       9470  
      9340       9341       9352       9351       9461       9462       9473       9472  
      9341       9342       9353       9352       9462       9463       9474       9473  
      9342       9343       9354       9353       9463       9464       9475       9474  
      9343       9344       9355       9354       9464       9465       9476       9475  
      9344       9345       9356       9355       9465       9466       9477       9476  
      9345       9346       9357       9356       9466       9467       9478       9477  
      9346       9347       9358       9357       9467       9468       9479       9478  
      9347       9348       9359       9358       9468       9469       9480       9479  
      9348       9349       9360       9359       9469       9470       9481       9480  
      9349       9350       9361       9360       9470       9471       9482       9481  
      9351       9352       9363       9362       9472       9473       9484       9483  
      9352       9353       9364       9363       9473       9474       9485       9484  
      9353       9354       9365       9364       9474       9475       9486       9485  
      9354       9355       9366       9365       9475       9476       9487       9486  
      9355       9356       9367       9366       9476       9477       9488       9487  
      9356       9357       9368       9367       9477       9478       9489       9488  
      9357       9358       9369       9368       9478       9479       9490       9489  
      9358       9359       9370       9369       9479       9480       9491       9490  
      9359       9360       9371       9370       9480       9481       9492       9491  
      9360       9361       9372       9371       9481       9482       9493       9492  
      9362       9363       9374       9373       9483       9484       9495       9494  
      9363       9364       9375       9374       9484       9485       9496       9495  
      9364       9365       9376       9375       9485       9486       9497       9496  
      9365       9366       9377       9376       9486       9487       9498       9497  
      9366       9367       9378       9377       9487       9488       9499       9498  
      9367       9368       9379       9378       9488       9489       9500       9499  
      9368       9369       9380       9379       9489       9490       9501       9500  
      9369       9370       9381       9380       9490       9491       9502       9501  
      9370       9371       9382       9381       9491       9492       9503       9502  
      9371       9372       9383       9382       9492       9493       9504       9503  
      9373       9374       9385       9384       9494       9495       9506       9505  
      9374       9375       9386       9385       9495       9496       9507       9506  
      9375       9376       9387       9386       9496       9497       9508       9507  
      9376       9377       9388       9387       9497       9498       9509       9508  
      9377       9378       9389       9388       9498       9499       9510       9509  
      9378       9379       9390       9389       9499       9500       9511       9510  
      9379       9380       9391       9390       9500       9501       9512       9511  
      9380       9381       9392       9391       9501       9502       9513       9512  
      9381       9382       9393       9392       9502       9503       9514       9513  
      9382       9383       9394       9393       9503       9504       9515       9514  
      9384       9385       9396       9395       9505       9506       9517       9516  
      9385       9386       9397       9396       9506       9507       9518       9517  
      9386       9387       9398       9397       9507       9508       9519       9518  
      9387       9388       9399       9398       9508       9509       9520       9519  
      9388       9389       9400       9399       9509       9510       9521       9520  
      9389       9390       9401       9400       9510       9511       9522       9521  
      9390       9391       9402       9401       9511       9512       9523       9522  
      9391       9392       9403       9402       9512       9513       9524       9523  
      9392       9393       9404       9403       9513       9514       9525       9524  
      9393       9394       9405       9404       9514       9515       9526       9525  
      9395       9396       9407       9406       9516       9517       9528       9527  
      9396       9397       9408       9407       9517       9518       9529       9528  
      9397       9398       9409       9408       9518       9519       9530       9529  
      9398       9399       9410       9409       9519       9520       9531       9530  
      9399       9400       9411       9410       9520       9521       9532       9531  
      9400       9401       9412       9411       9521       9522       9533       9532  
      9401       9402       9413       9412       9522       9523       9534       9533  
      9402       9403       9414       9413       9523       9524       9535       9534  
      9403       9404       9415       9414       9524       9525       9536       9535  
      9404       9405       9416       9415       9525       9526       9537       9536  
      9406       9407       9418       9417       9527       9528       9539       9538  
      9407       9408       9419       9418       9528       9529       9540       9539  
      9408       9409       9420       9419       9529       9530       9541       9540  
      9409       9410       9421       9420       9530       9531       9542       9541  
      9410       9411       9422       9421       9531       9532       9543       9542  
      9411       9412       9423       9422       9532       9533       9544       9543  
      9412       9413       9424       9423       9533       9534       9545       9544  
      9413       9414       9425       9424       9534       9535       9546       9545  
      9414       9415       9426       9425       9535       9536       9547       9546  
      9415       9416       9427       9426       9536       9537       9548       9547  
      9417       9418       9429       9428       9538       9539       9550       9549  
      9418       9419       9430       9429       9539       9540       9551       9550  
      9419       9420       9431       9430       9540       9541       9552       9551  
      9420       9421       9432       9431       9541       9542       9553       9552  
      9421       9422       9433       9432       9542       9543       9554       9553  
      9422       9423       9434       9433       9543       9544       9555       9554  
      9423       9424       9435       9434       9544       9545       9556       9555  
      9424       9425       9436       9435       9545       9546       9557       9556  
      9425       9426       9437       9436       9546       9547       9558       9557  
      9426       9427       9438       9437       9547       9548       9559       9558  
      9439       9440       9451       9450       9560       9561       9572       9571  
      9440       9441       9452       9451       9561       9562       9573       9572  
      9441       9442       9453       9452       9562       9563       9574       9573  
      9442       9443       9454       9453       9563       9564       9575       9574  
      9443       9444       9455       9454       9564       9565       9576       9575  
      9444       9445       9456       9455       9565       9566       9577       9576  
      9445       9446       9457       9456       9566       9567       9578       9577  
      9446       9447       9458       9457       9567       9568       9579       9578  
      9447       9448       9459       9458       9568       9569       9580       9579  
      9448       9449       9460       9459       9569       9570       9581       9580  
      9450       9451       9462       9461       9571       9572       9583       9582  
      9451       9452       9463       9462       9572       9573       9584       9583  
      9452       9453       9464       9463       9573       9574       9585       9584  
      9453       9454       9465       9464       9574       9575       9586       9585  
      9454       9455       9466       9465       9575       9576       9587       9586  
      9455       9456       9467       9466       9576       9577       9588       9587  
      9456       9457       9468       9467       9577       9578       9589       9588  
      9457       9458       9469       9468       9578       9579       9590       9589  
      9458       9459       9470       9469       9579       9580       9591       9590  
      9459       9460       9471       9470       9580       9581       9592       9591  
      9461       9462       9473       9472       9582       9583       9594       9593  
      9462       9463       9474       9473       9583       9584       9595       9594  
      9463       9464       9475       9474       9584       9585       9596       9595  
      9464       9465       9476       9475       9585       9586       9597       9596  
      9465       9466       9477       9476       9586       9587       9598       9597  
      9466       9467       9478       9477       9587       9588       9599       9598  
      9467       9468       9479       9478       9588       9589       9600       9599  
      9468       9469       9480       9479       9589       9590       9601       9600  
      9469       9470       9481       9480       9590       9591       9602       9601  
      9470       9471       9482       9481       9591       9592       9603       9602  
      9472       9473       9484       9483       9593       9594       9605       9604  
      9473       9474       9485       9484       9594       9595       9606       9605  
      9474       9475       9486       9485       9595       9596       9607       9606  
      9475       9476       9487       9486       9596       9597       9608       9607  
      9476       9477       9488       9487       9597       9598       9609       9608  
      9477       9478       9489       9488       9598       9599       9610       9609  
      9478       9479       9490       9489       9599       9600       9611       9610  
      9479       9480       9491       9490       9600       9601       9612       9611  
      9480       9481       9492       9491       9601       9602       9613       9612  
      9481       9482       9493       9492       9602       9603       9614       9613  
      9483       9484       9495       9494       9604       9605       9616       9615  
      9484       9485       9496       9495       9605       9606       9617       9616  
      9485       9486       9497       9496       9606       9607       9618       9617  
      9486       9487       9498       9497       9607       9608       9619       9618  
      9487       9488       9499       9498       9608       9609       9620       9619  
      9488       9489       9500       9499       9609       9610       9621       9620  
      9489       9490       9501       9500       9610       9611       9622       9621  
      9490       9491       9502       9501       9611       9612       9623       9622  
      9491       9492       9503       9502       9612       9613       9624       9623  
      9492       9493       9504       9503       9613       9614       9625       9624  
      9494       9495       9506       9505       9615       9616       9627       9626  
      9495       9496       9507       9506       9616       9617       9628       9627  
      9496       9497       9508       9507       9617       9618       9629       9628  
      9497       9498       9509       9508       9618       9619       9630       9629  
      9498       9499       9510       9509       9619       9620       9631       9630  
      9499       9500       9511       9510       9620       9621       9632       9631  
      9500       9501       9512       9511       9621       9622       9633       9632  
      9501       9502       9513       9512       9622       9623       9634       9633  
      9502       9503       9514       9513       9623       9624       9635       9634  
      9503       9504       9515       9514       9624       9625       9636       9635  
      9505       9506       9517       9516       9626       9627       9638       9637  
      9506       9507       9518       9517       9627       9628       9639       9638  
      9507       9508       9519       9518       9628       9629       9640       9639  
      9508       9509       9520       9519       9629       9630       9641       9640  
      9509       9510       9521       9520       9630       9631       9642       9641  
      9510       9511       9522       9521       9631       9632       9643       9642  
      9511       9512       9523       9522       9632       9633       9644       9643  
      9512       9513       9524       9523       9633       9634       9645       9644  
      9513       9514       9525       9524       9634       9635       9646       9645  
      9514       9515       9526       9525       9635       9636       9647       9646  
      9516       9517       9528       9527       9637       9638       9649       9648  
      9517       9518       9529       9528       9638       9639       9650       9649  
      9518       9519       9530       9529       9639       9640       9651       9650  
      9519       9520       9531       9530       9640       9641       9652       9651  
      9520       9521       9532       9531       9641       9642       9653       9652  
      9521       9522       9533       9532       9642       9643       9654       9653  
      9522       9523       9534       9533       9643       9644       9655       9654  
      9523       9524       9535       9534       9644       9645       9656       9655  
      9524       9525       9536       9535       9645       9646       9657       9656  
      9525       9526       9537       9536       9646       9647       9658       9657  
      9527       9528       9539       9538       9648       9649       9660       9659  
      9528       9529       9540       9539       9649       9650       9661       9660  
      9529       9530       9541       9540       9650       9651       9662       9661  
      9530       9531       9542       9541       9651       9652       9663       9662  
      9531       9532       9543       9542       9652       9653       9664       9663  
      9532       9533       9544       9543       9653       9654       9665       9664  
      9533       9534       9545       9544       9654       9655       9666       9665  
      9534       9535       9546       9545       9655       9656       9667       9666  
      9535       9536       9547       9546       9656       9657       9668       9667  
      9536       9537       9548       9547       9657       9658       9669       9668  
      9538       9539       9550       9549       9659       9660       9671       9670  
      9539       9540       9551       9550       9660       9661       9672       9671  
      9540       9541       9552       9551       9661       9662       9673       9672  
      9541       9542       9553       9552       9662       9663       9674       9673  
      9542       9543       9554       9553       9663       9664       9675       9674  
      9543       9544       9555       9554       9664       9665       9676       9675  
      9544       9545       9556       9555       9665       9666       9677       9676  
      9545       9546       9557       9556       9666       9667       9678       9677  
      9546       9547       9558       9557       9667       9668       9679       9678  
      9547       9548       9559       9558       9668       9669       9680       9679  
      9560       9561       9572       9571       9681       9682       9693       9692  
      9561       9562       9573       9572       9682       9683       9694       9693  
      9562       9563       9574       9573       9683       9684       9695       9694  
      9563       9564       9575       9574       9684       9685       9696       9695  
      9564       9565       9576       9575       9685       9686       9697       9696  
      9565       9566       9577       9576       9686       9687       9698       9697  
      9566       9567       9578       9577       9687       9688       9699       9698  
      9567       9568       9579       9578       9688       9689       9700       9699  
      9568       9569       9580       9579       9689       9690       9701       9700  
      9569       9570       9581       9580       9690       9691       9702       9701  
      9571       9572       9583       9582       9692       9693       9704       9703  
      9572       9573       9584       9583       9693       9694       9705       9704  
      9573       9574       9585       9584       9694       9695       9706       9705  
      9574       9575       9586       9585       9695       9696       9707       9706  
      9575       9576       9587       9586       9696       9697       9708       9707  
      9576       9577       9588       9587       9697       9698       9709       9708  
      9577       9578       9589       9588       9698       9699       9710       9709  
      9578       9579       9590       9589       9699       9700       9711       9710  
      9579       9580       9591       9590       9700       9701       9712       9711  
      9580       9581       9592       9591       9701       9702       9713       9712  
      9582       9583       9594       9593       9703       9704       9715       9714  
      9583       9584       9595       9594       9704       9705       9716       9715  
      9584       9585       9596       9595       9705       9706       9717       9716  
      9585       9586       9597       9596       9706       9707       9718       9717  
      9586       9587       9598       9597       9707       9708       9719       9718  
      9587       9588       9599       9598       9708       9709       9720       9719  
      9588       9589       9600       9599       9709       9710       9721       9720  
      9589       9590       9601       9600       9710       9711       9722       9721  
      9590       9591       9602       9601       9711       9712       9723       9722  
      9591       9592       9603       9602       9712       9713       9724       9723  
      9593       9594       9605       9604       9714       9715       9726       9725  
      9594       9595       9606       9605       9715       9716       9727       9726  
      9595       9596       9607       9606       9716       9717       9728       9727  
      9596       9597       9608       9607       9717       9718       9729       9728  
      9597       9598       9609       9608       9718       9719       9730       9729  
      9598       9599       9610       9609       9719       9720       9731       9730  
      9599       9600       9611       9610       9720       9721       9732       9731  
      9600       9601       9612       9611       9721       9722       9733       9732  
      9601       9602       9613       9612       9722       9723       9734       9733  
      9602       9603       9614       9613       9723       9724       9735       9734  
      9604       9605       9616       9615       9725       9726       9737       9736  
      9605       9606       9617       9616       9726       9727       9738       9737  
      9606       9607       9618       9617       9727       9728       9739       9738  
      9607       9608       9619       9618       9728       9729       9740       9739  
      9608       9609       9620       9619       9729       9730       9741       9740  
      9609       9610       9621       9620       9730       9731       9742       9741  
      9610       9611       9622       9621       9731       9732       9743       9742  
      9611       9612       9623       9622       9732       9733       9744       9743  
      9612       9613       9624       9623       9733       9734       9745       9744  
      9613       9614       9625       9624       9734       9735       9746       9745  
      9615       9616       9627       9626       9736       9737       9748       9747  
      9616       9617       9628       9627       9737       9738       9749       9748  
      9617       9618       9629       9628       9738       9739       9750       9749  
      9618       9619       9630       9629       9739       9740       9751       9750  
      9619       9620       9631       9630       9740       9741       9752       9751  
      9620       9621       9632       9631       9741       9742       9753       9752  
      9621       9622       9633       9632       9742       9743       9754       9753  
      9622       9623       9634       9633       9743       9744       9755       9754  
      9623       9624       9635       9634       9744       9745       9756       9755  
      9624       9625       9636       9635       9745       9746       9757       9756  
      9626       9627       9638       9637       9747       9748       9759       9758  
      9627       9628       9639       9638       9748       9749       9760       9759  
      9628       9629       9640       9639       9749       9750       9761       9760  
      9629       9630       9641       9640       9750       9751       9762       9761  
      9630       9631       9642       9641       9751       9752       9763       9762  
      9631       9632       9643       9642       9752       9753       9764       9763  
      9632       9633       9644       9643       9753       9754       9765       9764  
      9633       9634       9645       9644       9754       9755       9766       9765  
      9634       9635       9646       9645       9755       9756       9767       9766  
      9635       9636       9647       9646       9756       9757       9768       9767  
      9637       9638       9649       9648       9758       9759       9770       9769  
      9638       9639       9650       9649       9759       9760       9771       9770  
      9639       9640       9651       9650       9760       9761       9772       9771  
      9640       9641       9652       9651       9761       9762       9773       9772  
      9641       9642       9653       9652       9762       9763       9774       9773  
      9642       9643       9654       9653       9763       9764       9775       9774  
      9643       9644       9655       9654       9764       9765       9776       9775  
      9644       9645       9656       9655       9765       9766       9777       9776  
      9645       9646       9657       9656       9766       9767       9778       9777  
      9646       9647       9658       9657       9767       9768       9779       9778  
      9648       9649       9660       9659       9769       9770       9781       9780  
      9649       9650       9661       9660       9770       9771       9782       9781  
      9650       9651       9662       9661       9771       9772       9783       9782  
      9651       9652       9663       9662       9772       9773       9784       9783  
      9652       9653       9664       9663       9773       9774       9785       9784  
      9653       9654       9665       9664       9774       9775       9786       9785  
      9654       9655       9666       9665       9775       9776       9787       9786  
      9655       9656       9667       9666       9776       9777       9788       9787  
      9656       9657       9668       9667       9777       9778       9789       9788  
      9657       9658       9669       9668       9778       9779       9790       9789  
      9659       9660       9671       9670       9780       9781       9792       9791  
      9660       9661       9672       9671       9781       9782       9793       9792  
      9661       9662       9673       9672       9782       9783       9794       9793  
      9662       9663       9674       9673       9783       9784       9795       9794  
      9663       9664       9675       9674       9784       9785       9796       9795  
      9664       9665       9676       9675       9785       9786       9797       9796  
      9665       9666       9677       9676       9786       9787       9798       9797  
      9666       9667       9678       9677       9787       9788       9799       9798  
      9667       9668       9679       9678       9788       9789       9800       9799  
      9668       9669       9680       9679       9789       9790       9801       9800  
      9681       9682       9693       9692       9802       9803       9814       9813  
      9682       9683       9694       9693       9803       9804       9815       9814  
      9683       9684       9695       9694       9804       9805       9816       9815  
      9684       9685       9696       9695       9805       9806       9817       9816  
      9685       9686       9697       9696       9806       9807       9818       9817  
      9686       9687       9698       9697       9807       9808       9819       9818  
      9687       9688       9699       9698       9808       9809       9820       9819  
      9688       9689       9700       9699       9809       9810       9821       9820  
      9689       9690       9701       9700       9810       9811       9822       9821  
      9690       9691       9702       9701       9811       9812       9823       9822  
      9692       9693       9704       9703       9813       9814       9825       9824  
      9693       9694       9705       9704       9814       9815       9826       9825  
      9694       9695       9706       9705       9815       9816       9827       9826  
      9695       9696       9707       9706       9816       9817       9828       9827  
      9696       9697       9708       9707       9817       9818       9829       9828  
      9697       9698       9709       9708       9818       9819       9830       9829  
      9698       9699       9710       9709       9819       9820       9831       9830  
      9699       9700       9711       9710       9820       9821       9832       9831  
      9700       9701       9712       9711       9821       9822       9833       9832  
      9701       9702       9713       9712       9822       9823       9834       9833  
      9703       9704       9715       9714       9824       9825       9836       9835  
      9704       9705       9716       9715       9825       9826       9837       9836  
      9705       9706       9717       9716       9826       9827       9838       9837  
      9706       9707       9718       9717       9827       9828       9839       9838  
      9707       9708       9719       9718       9828       9829       9840       9839  
      9708       9709       9720       9719       9829       9830       9841       9840  
      9709       9710       9721       9720       9830       9831       9842       9841  
      9710       9711       9722       9721       9831       9832       9843       9842  
      9711       9712       9723       9722       9832       9833       9844       9843  
      9712       9713       9724       9723       9833       9834       9845       9844  
      9714       9715       9726       9725       9835       9836       9847       9846  
      9715       9716       9727       9726       9836       9837       9848       9847  
      9716       9717       9728       9727       9837       9838       9849       9848  
      9717       9718       9729       9728       9838       9839       9850       9849  
      9718       9719       9730       9729       9839       9840       9851       9850  
      9719       9720       9731       9730       9840       9841       9852       9851  
      9720       9721       9732       9731       9841       9842       9853       9852  
      9721       9722       9733       9732       9842       9843       9854       9853  
      9722       9723       9734       9733       9843       9844       9855       9854  
      9723       9724       9735       9734       9844       9845       9856       9855  
      9725       9726       9737       9736       9846       9847       9858       9857  
      9726       9727       9738       9737       9847       9848       9859       9858  
      9727       9728       9739       9738       9848       9849       9860       9859  
      9728       9729       9740       9739       9849       9850       9861       9860  
      9729       9730       9741       9740       9850       9851       9862       9861  
      9730       9731       9742       9741       9851       9852       9863       9862  
      9731       9732       9743       9742       9852       9853       9864       9863  
      9732       9733       9744       9743       9853       9854       9865       9864  
      9733       9734       9745       9744       9854       9855       9866       9865  
      9734       9735       9746       9745       9855       9856       9867       9866  
      9736       9737       9748       9747       9857       9858       9869       9868  
      9737       9738       9749       9748       9858       9859       9870       9869  
      9738       9739       9750       9749       9859       9860       9871       9870  
      9739       9740       9751       9750       9860       9861       9872       9871  
      9740       9741       9752       9751       9861       9862       9873       9872  
      9741       9742       9753       9752       9862       9863       9874       9873  
      9742       9743       9754       9753       9863       9864       9875       9874  
      9743       9744       9755       9754       9864       9865       9876       9875  
      9744       9745       9756       9755       9865       9866       9877       9876  
      9745       9746       9757       9756       9866       9867       9878       9877  
      9747       9748       9759       9758       9868       9869       9880       9879  
      9748       9749       9760       9759       9869       9870       9881       9880  
      9749       9750       9761       9760       9870       9871       9882       9881  
      9750       9751       9762       9761       9871       9872       9883       9882  
      9751       9752       9763       9762       9872       9873       9884       9883  
      9752       9753       9764       9763       9873       9874       9885       9884  
      9753       9754       9765       9764       9874       9875       9886       9885  
      9754       9755       9766       9765       9875       9876       9887       9886  
      9755       9756       9767       9766       9876       9877       9888       9887  
      9756       9757       9768       9767       9877       9878       9889       9888  
      9758       9759       9770       9769       9879       9880       9891       9890  
      9759       9760       9771       9770       9880       9881       9892       9891  
      9760       9761       9772       9771       9881       9882       9893       9892  
      9761       9762       9773       9772       9882       9883       9894       9893  
      9762       9763       9774       9773       9883       9884       9895       9894  
      9763       9764       9775       9774       9884       9885       9896       9895  
      9764       9765       9776       9775       9885       9886       9897       9896  
      9765       9766       9777       9776       9886       9887       9898       9897  
      9766       9767       9778       9777       9887       9888       9899       9898  
      9767       9768       9779       9778       9888       9889       9900       9899  
      9769       9770       9781       9780       9890       9891       9902       9901  
      9770       9771       9782       9781       9891       9892       9903       9902  
      9771       9772       9783       9782       9892       9893       9904       9903  
      9772       9773       9784       9783       9893       9894       9905       9904  
      9773       9774       9785       9784       9894       9895       9906       9905  
      9774       9775       9786       9785       9895       9896       9907       9906  
      9775       9776       9787       9786       9896       9897       9908       9907  
      9776       9777       9788       9787       9897       9898       9909       9908  
      9777       9778       9789       9788       9898       9899       9910       9909  
      9778       9779       9790       9789       9899       9900       9911       9910  
      9780       9781       9792       9791       9901       9902       9913       9912  
      9781       9782       9793       9792       9902       9903       9914       9913  
      9782       9783       9794       9793       9903       9904       9915       9914  
      9783       9784       9795       9794       9904       9905       9916       9915  
      9784       9785       9796       9795       9905       9906       9917       9916  
      9785       9786       9797       9796       9906       9907       9918       9917  
      9786       9787       9798       9797       9907       9908       9919       9918  
      9787       9788       9799       9798       9908       9909       9920       9919  
      9788       9789       9800       9799       9909       9910       9921       9920  
      9789       9790       9801       9800       9910       9911       9922       9921  
      9802       9803       9814       9813       9923       9924       9935       9934  
      9803       9804       9815       9814       9924       9925       9936       9935  
      9804       9805       9816       9815       9925       9926       9937       9936  
      9805       9806       9817       9816       9926       9927       9938       9937  
      9806       9807       9818       9817       9927       9928       9939       9938  
      9807       9808       9819       9818       9928       9929       9940       9939  
      9808       9809       9820       9819       9929       9930       9941       9940  
      9809       9810       9821       9820       9930       9931       9942       9941  
      9810       9811       9822       9821       9931       9932       9943       9942  
      9811       9812       9823       9822       9932       9933       9944       9943  
      9813       9814       9825       9824       9934       9935       9946       9945  
      9814       9815       9826       9825       9935       9936       9947       9946  
      9815       9816       9827       9826       9936       9937       9948       9947  
      9816       9817       9828       9827       9937       9938       9949       9948  
      9817       9818       9829       9828       9938       9939       9950       9949  
      9818       9819       9830       9829       9939       9940       9951       9950  
      9819       9820       9831       9830       9940       9941       9952       9951  
      9820       9821       9832       9831       9941       9942       9953       9952  
      9821       9822       9833       9832       9942       9943       9954       9953  
      9822       9823       9834       9833       9943       9944       9955       9954  
      9824       9825       9836       9835       9945       9946       9957       9956  
      9825       9826       9837       9836       9946       9947       9958       9957  
      9826       9827       9838       9837       9947       9948       9959       9958  
      9827       9828       9839       9838       9948       9949       9960       9959  
      9828       9829       9840       9839       9949       9950       9961       9960  
      9829       9830       9841       9840       9950       9951       9962       9961  
      9830       9831       9842       9841       9951       9952       9963       9962  
      9831       9832       9843       9842       9952       9953       9964       9963  
      9832       9833       9844       9843       9953       9954       9965       9964  
      9833       9834       9845       9844       9954       9955       9966       9965  
      9835       9836       9847       9846       9956       9957       9968       9967  
      9836       9837       9848       9847       9957       9958       9969       9968  
      9837       9838       9849       9848       9958       9959       9970       9969  
      9838       9839       9850       9849       9959       9960       9971       9970  
      9839       9840       9851       9850       9960       9961       9972       9971  
      9840       9841       9852       9851       9961       9962       9973       9972  
      9841       9842       9853       9852       9962       9963       9974       9973  
      9842       9843       9854       9853       9963       9964       9975       9974  
      9843       9844       9855       9854       9964       9965       9976       9975  
      9844       9845       9856       9855       9965       9966       9977       9976  
      9846       9847       9858       9857       9967       9968       9979       9978  
      9847       9848       9859       9858       9968       9969       9980       9979  
      9848       9849       9860       9859       9969       9970       9981       9980  
      9849       9850       9861       9860       9970       9971       9982       9981  
      9850       9851       9862       9861       9971       9972       9983       9982  
      9851       9852       9863       9862       9972       9973       9984       9983  
      9852       9853       9864       9863       9973       9974       9985       9984  
      9853       9854       9865       9864       9974       9975       9986       9985  
      9854       9855       9866       9865       9975       9976       9987       9986  
      9855       9856       9867       9866       9976       9977       9988       9987  
      9857       9858       9869       9868       9978       9979       9990       9989  
      9858       9859       9870       9869       9979       9980       9991       9990  
      9859       9860       9871       9870       9980       9981       9992       9991  
      9860       9861       9872       9871       9981       9982       9993       9992  
      9861       9862       9873       9872       9982       9983       9994       9993  
      9862       9863       9874       9873       9983       9984       9995       9994  
      9863       9864       9875       9874       9984       9985       9996       9995  
      9864       9865       9876       9875       9985       9986       9997       9996  
      9865       9866       9877       9876       9986       9987       9998       9997  
      9866       9867       9878       9877       9987       9988       9999       9998  
      9868       9869       9880       9879       9989       9990      10001      10000  
      9869       9870       9881       9880       9990       9991      10002      10001  
      9870       9871       9882       9881       9991       9992      10003      10002  
      9871       9872       9883       9882       9992       9993      10004      10003  
      9872       9873       9884       9883       9993       9994      10005      10004  
      9873       9874       9885       9884       9994       9995      10006      10005  
      9874       9875       9886       9885       9995       9996      10007      10006  
      9875       9876       9887       9886       9996       9997      10008      10007  
      9876       9877       9888       9887       9997       9998      10009      10008  
      9877       9878       9889       9888       9998       9999      10010      10009  
      9879       9880       9891       9890      10000      10001      10012      10011  
      9880       9881       9892       9891      10001      10002      10013      10012  
      9881       9882       9893       9892      10002      10003      10014      10013  
      9882       9883       9894       9893      10003      10004      10015      10014  
      9883       9884       9895       9894      10004      10005      10016      10015  
      9884       9885       9896       9895      10005      10006      10017      10016  
      9885       9886       9897       9896      10006      10007      10018      10017  
      9886       9887       9898       9897      10007      10008      10019      10018  
      9887       9888       9899       9898      10008      10009      10020      10019  
      9888       9889       9900       9899      10009      10010      10021      10020  
      9890       9891       9902       9901      10011      10012      10023      10022  
      9891       9892       9903       9902      10012      10013      10024      10023  
      9892       9893       9904       9903      10013      10014      10025      10024  
      9893       9894       9905       9904      10014      10015      10026      10025  
      9894       9895       9906       9905      10015      10016      10027      10026  
      9895       9896       9907       9906      10016      10017      10028      10027  
      9896       9897       9908       9907      10017      10018      10029      10028  
      9897       9898       9909       9908      10018      10019      10030      10029  
      9898       9899       9910       9909      10019      10020      10031      10030  
      9899       9900       9911       9910      10020      10021      10032      10031  
      9901       9902       9913       9912      10022      10023      10034      10033  
      9902       9903       9914       9913      10023      10024      10035      10034  
      9903       9904       9915       9914      10024      10025      10036      10035  
      9904       9905       9916       9915      10025      10026      10037      10036  
      9905       9906       9917       9916      10026      10027      10038      10037  
      9906       9907       9918       9917      10027      10028      10039      10038  
      9907       9908       9919       9918      10028      10029      10040      10039  
      9908       9909       9920       9919      10029      10030      10041      10040  
      9909       9910       9921       9920      10030      10031      10042      10041  
      9910       9911       9922       9921      10031      10032      10043      10042  
      9923       9924       9935       9934      10044      10045      10056      10055  
      9924       9925       9936       9935      10045      10046      10057      10056  
      9925       9926       9937       9936      10046      10047      10058      10057  
      9926       9927       9938       9937      10047      10048      10059      10058  
      9927       9928       9939       9938      10048      10049      10060      10059  
      9928       9929       9940       9939      10049      10050      10061      10060  
      9929       9930       9941       9940      10050      10051      10062      10061  
      9930       9931       9942       9941      10051      10052      10063      10062  
      9931       9932       9943       9942      10052      10053      10064      10063  
      9932       9933       9944       9943      10053      10054      10065      10064  
      9934       9935       9946       9945      10055      10056      10067      10066  
      9935       9936       9947       9946      10056      10057      10068      10067  
      9936       9937       9948       9947      10057      10058      10069      10068  
      9937       9938       9949       9948      10058      10059      10070      10069  
      9938       9939       9950       9949      10059      10060      10071      10070  
      9939       9940       9951       9950      10060      10061      10072      10071  
      9940       9941       9952       9951      10061      10062      10073      10072  
      9941       9942       9953       9952      10062      10063      10074      10073  
      9942       9943       9954       9953      10063      10064      10075      10074  
      9943       9944       9955       9954      10064      10065      10076      10075  
      9945       9946       9957       9956      10066      10067      10078      10077  
      9946       9947       9958       9957      10067      10068      10079      10078  
      9947       9948       9959       9958      10068      10069      10080      10079  
      9948       9949       9960       9959      10069      10070      10081      10080  
      9949       9950       9961       9960      10070      10071      10082      10081  
      9950       9951       9962       9961      10071      10072      10083      10082  
      9951       9952       9963       9962      10072      10073      10084      10083  
      9952       9953       9964       9963      10073      10074      10085      10084  
      9953       9954       9965       9964      10074      10075      10086      10085  
      9954       9955       9966       9965      10075      10076      10087      10086  
      9956       9957       9968       9967      10077      10078      10089      10088  
      9957       9958       9969       9968      10078      10079      10090      10089  
      9958       9959       9970       9969      10079      10080      10091      10090  
      9959       9960       9971       9970      10080      10081      10092      10091  
      9960       9961       9972       9971      10081      10082      10093      10092  
      9961       9962       9973       9972      10082      10083      10094      10093  
      9962       9963       9974       9973      10083      10084      10095      10094  
      9963       9964       9975       9974      10084      10085      10096      10095  
      9964       9965       9976       9975      10085      10086      10097      10096  
      9965       9966       9977       9976      10086      10087      10098      10097  
      9967       9968       9979       9978      10088      10089      10100      10099  
      9968       9969       9980       9979      10089      10090      10101      10100  
      9969       9970       9981       9980      10090      10091      10102      10101  
      9970       9971       9982       9981      10091      10092      10103      10102  
      9971       9972       9983       9982      10092      10093      10104      10103  
      9972       9973       9984       9983      10093      10094      10105      10104  
      9973       9974       9985       9984      10094      10095      10106      10105  
      9974       9975       9986       9985      10095      10096      10107      10106  
      9975       9976       9987       9986      10096      10097      10108      10107  
      9976       9977       9988       9987      10097      10098      10109      10108  
      9978       9979       9990       9989      10099      10100      10111      10110  
      9979       9980       9991       9990      10100      10101      10112      10111  
      9980       9981       9992       9991      10101      10102      10113      10112  
      9981       9982       9993       9992      10102      10103      10114      10113  
      9982       9983       9994       9993      10103      10104      10115      10114  
      9983       9984       9995       9994      10104      10105      10116      10115  
      9984       9985       9996       9995      10105      10106      10117      10116  
      9985       9986       9997       9996      10106      10107      10118      10117  
      9986       9987       9998       9997      10107      10108      10119      10118  
      9987       9988       9999       9998      10108      10109      10120      10119  
      9989       9990      10001      10000      10110      10111      10122      10121  
      9990       9991      10002      10001      10111      10112      10123      10122  
      9991       9992      10003      10002      10112      10113      10124      10123  
      9992       9993      10004      10003      10113      10114      10125      10124  
      9993       9994      10005      10004      10114      10115      10126      10125  
      9994       9995      10006      10005      10115      10116      10127      10126  
      9995       9996      10007      10006      10116      10117      10128      10127  
      9996       9997      10008      10007      10117      10118      10129      10128  
      9997       9998      10009      10008      10118      10119      10130      10129  
      9998       9999      10010      10009      10119      10120      10131      10130  
     10000      10001      10012      10011      10121      10122      10133      10132  
     10001      10002      10013      10012      10122      10123      10134      10133  
     10002      10003      10014      10013      10123      10124      10135      10134  
     10003      10004      10015      10014      10124      10125      10136      10135  
     10004      10005      10016      10015      10125      10126      10137      10136  
     10005      10006      10017      10016      10126      10127      10138      10137  
     10006      10007      10018      10017      10127      10128      10139      10138  
     10007      10008      10019      10018      10128      10129      10140      10139  
     10008      10009      10020      10019      10129      10130      10141      10140  
     10009      10010      10021      10020      10130      10131      10142      10141  
     10011      10012      10023      10022      10132      10133      10144      10143  
     10012      10013      10024      10023      10133      10134      10145      10144  
     10013      10014      10025      10024      10134      10135      10146      10145  
     10014      10015      10026      10025      10135      10136      10147      10146  
     10015      10016      10027      10026      10136      10137      10148      10147  
     10016      10017      10028      10027      10137      10138      10149      10148  
     10017      10018      10029      10028      10138      10139      10150      10149  
     10018      10019      10030      10029      10139      10140      10151      10150  
     10019      10020      10031      10030      10140      10141      10152      10151  
     10020      10021      10032      10031      10141      10142      10153      10152  
     10022      10023      10034      10033      10143      10144      10155      10154  
     10023      10024      10035      10034      10144      10145      10156      10155  
     10024      10025      10036      10035      10145      10146      10157      10156  
     10025      10026      10037      10036      10146      10147      10158      10157  
     10026      10027      10038      10037      10147      10148      10159      10158  
     10027      10028      10039      10038      10148      10149      10160      10159  
     10028      10029      10040      10039      10149      10150      10161      10160  
     10029      10030      10041      10040      10150      10151      10162      10161  
     10030      10031      10042      10041      10151      10152      10163      10162  
     10031      10032      10043      10042      10152      10153      10164      10163  
     10044      10045      10056      10055      10165      10166      10177      10176  
     10045      10046      10057      10056      10166      10167      10178      10177  
     10046      10047      10058      10057      10167      10168      10179      10178  
     10047      10048      10059      10058      10168      10169      10180      10179  
     10048      10049      10060      10059      10169      10170      10181      10180  
     10049      10050      10061      10060      10170      10171      10182      10181  
     10050      10051      10062      10061      10171      10172      10183      10182  
     10051      10052      10063      10062      10172      10173      10184      10183  
     10052      10053      10064      10063      10173      10174      10185      10184  
     10053      10054      10065      10064      10174      10175      10186      10185  
     10055      10056      10067      10066      10176      10177      10188      10187  
     10056      10057      10068      10067      10177      10178      10189      10188  
     10057      10058      10069      10068      10178      10179      10190      10189  
     10058      10059      10070      10069      10179      10180      10191      10190  
     10059      10060      10071      10070      10180      10181      10192      10191  
     10060      10061      10072      10071      10181      10182      10193      10192  
     10061      10062      10073      10072      10182      10183      10194      10193  
     10062      10063      10074      10073      10183      10184      10195      10194  
     10063      10064      10075      10074      10184      10185      10196      10195  
     10064      10065      10076      10075      10185      10186      10197      10196  
     10066      10067      10078      10077      10187      10188      10199      10198  
     10067      10068      10079      10078      10188      10189      10200      10199  
     10068      10069      10080      10079      10189      10190      10201      10200  
     10069      10070      10081      10080      10190      10191      10202      10201  
     10070      10071      10082      10081      10191      10192      10203      10202  
     10071      10072      10083      10082      10192      10193      10204      10203  
     10072      10073      10084      10083      10193      10194      10205      10204  
     10073      10074      10085      10084      10194      10195      10206      10205  
     10074      10075      10086      10085      10195      10196      10207      10206  
     10075      10076      10087      10086      10196      10197      10208      10207  
     10077      10078      10089      10088      10198      10199      10210      10209  
     10078      10079      10090      10089      10199      10200      10211      10210  
     10079      10080      10091      10090      10200      10201      10212      10211  
     10080      10081      10092      10091      10201      10202      10213      10212  
     10081      10082      10093      10092      10202      10203      10214      10213  
     10082      10083      10094      10093      10203      10204      10215      10214  
     10083      10084      10095      10094      10204      10205      10216      10215  
     10084      10085      10096      10095      10205      10206      10217      10216  
     10085      10086      10097      10096      10206      10207      10218      10217  
     10086      10087      10098      10097      10207      10208      10219      10218  
     10088      10089      10100      10099      10209      10210      10221      10220  
     10089      10090      10101      10100      10210      10211      10222      10221  
     10090      10091      10102      10101      10211      10212      10223      10222  
     10091      10092      10103      10102      10212      10213      10224      10223  
     10092      10093      10104      10103      10213      10214      10225      10224  
     10093      10094      10105      10104      10214      10215      10226      10225  
     10094      10095      10106      10105      10215      10216      10227      10226  
     10095      10096      10107      10106      10216      10217      10228      10227  
     10096      10097      10108      10107      10217      10218      10229      10228  
     10097      10098      10109      10108      10218      10219      10230      10229  
     10099      10100      10111      10110      10220      10221      10232      10231  
     10100      10101      10112      10111      10221      10222      10233      10232  
     10101      10102      10113      10112      10222      10223      10234      10233  
     10102      10103      10114      10113      10223      10224      10235      10234  
     10103      10104      10115      10114      10224      10225      10236      10235  
     10104      10105      10116      10115      10225      10226      10237      10236  
     10105      10106      10117      10116      10226      10227      10238      10237  
     10106      10107      10118      10117      10227      10228      10239      10238  
     10107      10108      10119      10118      10228      10229      10240      10239  
     10108      10109      10120      10119      10229      10230      10241      10240  
     10110      10111      10122      10121      10231      10232      10243      10242  
     10111      10112      10123      10122      10232      10233      10244      10243  
     10112      10113      10124      10123      10233      10234      10245      10244  
     10113      10114      10125      10124      10234      10235      10246      10245  
     10114      10115      10126      10125      10235      10236      10247      10246  
     10115      10116      10127      10126      10236      10237      10248      10247  
     10116      10117      10128      10127      10237      10238      10249      10248  
     10117      10118      10129      10128      10238      10239      10250      10249  
     10118      10119      10130      10129      10239      10240      10251      10250  
     10119      10120      10131      10130      10240      10241      10252      10251  
     10121      10122      10133      10132      10242      10243      10254      10253  
     10122      10123      10134      10133      10243      10244      10255      10254  
     10123      10124      10135      10134      10244      10245      10256      10255  
     10124      10125      10136      10135      10245      10246      10257      10256  
     10125      10126      10137      10136      10246      10247      10258      10257  
     10126      10127      10138      10137      10247      10248      10259      10258  
     10127      10128      10139      10138      10248      10249      10260      10259  
     10128      10129      10140      10139      10249      10250      10261      10260  
     10129      10130      10141      10140      10250      10251      10262      10261  
     10130      10131      10142      10141      10251      10252      10263      10262  
     10132      10133      10144      10143      10253      10254      10265      10264  
     10133      10134      10145      10144      10254      10255      10266      10265  
     10134      10135      10146      10145      10255      10256      10267      10266  
     10135      10136      10147      10146      10256      10257      10268      10267  
     10136      10137      10148      10147      10257      10258      10269      10268  
     10137      10138      10149      10148      10258      10259      10270      10269  
     10138      10139      10150      10149      10259      10260      10271      10270  
     10139      10140      10151      10150      10260      10261      10272      10271  
     10140      10141      10152      10151      10261      10262      10273      10272  
     10141      10142      10153      10152      10262      10263      10274      10273  
     10143      10144      10155      10154      10264      10265      10276      10275  
     10144      10145      10156      10155      10265      10266      10277      10276  
     10145      10146      10157      10156      10266      10267      10278      10277  
     10146      10147      10158      10157      10267      10268      10279      10278  
     10147      10148      10159      10158      10268      10269      10280      10279  
     10148      10149      10160      10159      10269      10270      10281      10280  
     10149      10150      10161      10160      10270      10271      10282      10281  
     10150      10151      10162      10161      10271      10272      10283      10282  
     10151      10152      10163      10162      10272      10273      10284      10283  
     10152      10153      10164      10163      10273      10274      10285      10284  
     10165      10166      10177      10176      10286      10287      10298      10297  
     10166      10167      10178      10177      10287      10288      10299      10298  
     10167      10168      10179      10178      10288      10289      10300      10299  
     10168      10169      10180      10179      10289      10290      10301      10300  
     10169      10170      10181      10180      10290      10291      10302      10301  
     10170      10171      10182      10181      10291      10292      10303      10302  
     10171      10172      10183      10182      10292      10293      10304      10303  
     10172      10173      10184      10183      10293      10294      10305      10304  
     10173      10174      10185      10184      10294      10295      10306      10305  
     10174      10175      10186      10185      10295      10296      10307      10306  
     10176      10177      10188      10187      10297      10298      10309      10308  
     10177      10178      10189      10188      10298      10299      10310      10309  
     10178      10179      10190      10189      10299      10300      10311      10310  
     10179      10180      10191      10190      10300      10301      10312      10311  
     10180      10181      10192      10191      10301      10302      10313      10312  
     10181      10182      10193      10192      10302      10303      10314      10313  
     10182      10183      10194      10193      10303      10304      10315      10314  
     10183      10184      10195      10194      10304      10305      10316      10315  
     10184      10185      10196      10195      10305      10306      10317      10316  
     10185      10186      10197      10196      10306      10307      10318      10317  
     10187      10188      10199      10198      10308      10309      10320      10319  
     10188      10189      10200      10199      10309      10310      10321      10320  
     10189      10190      10201      10200      10310      10311      10322      10321  
     10190      10191      10202      10201      10311      10312      10323      10322  
     10191      10192      10203      10202      10312      10313      10324      10323  
     10192      10193      10204      10203      10313      10314      10325      10324  
     10193      10194      10205      10204      10314      10315      10326      10325  
     10194      10195      10206      10205      10315      10316      10327      10326  
     10195      10196      10207      10206      10316      10317      10328      10327  
     10196      10197      10208      10207      10317      10318      10329      10328  
     10198      10199      10210      10209      10319      10320      10331      10330  
     10199      10200      10211      10210      10320      10321      10332      10331  
     10200      10201      10212      10211      10321      10322      10333      10332  
     10201      10202      10213      10212      10322      10323      10334      10333  
     10202      10203      10214      10213      10323      10324      10335      10334  
     10203      10204      10215      10214      10324      10325      10336      10335  
     10204      10205      10216      10215      10325      10326      10337      10336  
     10205      10206      10217      10216      10326      10327      10338      10337  
     10206      10207      10218      10217      10327      10328      10339      10338  
     10207      10208      10219      10218      10328      10329      10340      10339  
     10209      10210      10221      10220      10330      10331      10342      10341  
     10210      10211      10222      10221      10331      10332      10343      10342  
     10211      10212      10223      10222      10332      10333      10344      10343  
     10212      10213      10224      10223      10333      10334      10345      10344  
     10213      10214      10225      10224      10334      10335      10346      10345  
     10214      10215      10226      10225      10335      10336      10347      10346  
     10215      10216      10227      10226      10336      10337      10348      10347  
     10216      10217      10228      10227      10337      10338      10349      10348  
     10217      10218      10229      10228      10338      10339      10350      10349  
     10218      10219      10230      10229      10339      10340      10351      10350  
     10220      10221      10232      10231      10341      10342      10353      10352  
     10221      10222      10233      10232      10342      10343      10354      10353  
     10222      10223      10234      10233      10343      10344      10355      10354  
     10223      10224      10235      10234      10344      10345      10356      10355  
     10224      10225      10236      10235      10345      10346      10357      10356  
     10225      10226      10237      10236      10346      10347      10358      10357  
     10226      10227      10238      10237      10347      10348      10359      10358  
     10227      10228      10239      10238      10348      10349      10360      10359  
     10228      10229      10240      10239      10349      10350      10361      10360  
     10229      10230      10241      10240      10350      10351      10362      10361  
     10231      10232      10243      10242      10352      10353      10364      10363  
     10232      10233      10244      10243      10353      10354      10365      10364  
     10233      10234      10245      10244      10354      10355      10366      10365  
     10234      10235      10246      10245      10355      10356      10367      10366  
     10235      10236      10247      10246      10356      10357      10368      10367  
     10236      10237      10248      10247      10357      10358      10369      10368  
     10237      10238      10249      10248      10358      10359      10370      10369  
     10238      10239      10250      10249      10359      10360      10371      10370  
     10239      10240      10251      10250      10360      10361      10372      10371  
     10240      10241      10252      10251      10361      10362      10373      10372  
     10242      10243      10254      10253      10363      10364      10375      10374  
     10243      10244      10255      10254      10364      10365      10376      10375  
     10244      10245      10256      10255      10365      10366      10377      10376  
     10245      10246      10257      10256      10366      10367      10378      10377  
     10246      10247      10258      10257      10367      10368      10379      10378  
     10247      10248      10259      10258      10368      10369      10380      10379  
     10248      10249      10260      10259      10369      10370      10381      10380  
     10249      10250      10261      10260      10370      10371      10382      10381  
     10250      10251      10262      10261      10371      10372      10383      10382  
     10251      10252      10263      10262      10372      10373      10384      10383  
     10253      10254      10265      10264      10374      10375      10386      10385  
     10254      10255      10266      10265      10375      10376      10387      10386  
     10255      10256      10267      10266      10376      10377      10388      10387  
     10256      10257      10268      10267      10377      10378      10389      10388  
     10257      10258      10269      10268      10378      10379      10390      10389  
     10258      10259      10270      10269      10379      10380      10391      10390  
     10259      10260      10271      10270      10380      10381      10392      10391  
     10260      10261      10272      10271      10381      10382      10393      10392  
     10261      10262      10273      10272      10382      10383      10394      10393  
     10262      10263      10274      10273      10383      10384      10395      10394  
     10264      10265      10276      10275      10385      10386      10397      10396  
     10265      10266      10277      10276      10386      10387      10398      10397  
     10266      10267      10278      10277      10387      10388      10399      10398  
     10267      10268      10279      10278      10388      10389      10400      10399  
     10268      10269      10280      10279      10389      10390      10401      10400  
     10269      10270      10281      10280      10390      10391      10402      10401  
     10270      10271      10282      10281      10391      10392      10403      10402  
     10271      10272      10283      10282      10392      10393      10404      10403  
     10272      10273      10284      10283      10393      10394      10405      10404  
     10273      10274      10285      10284      10394      10395      10406      10405  
     10286      10287      10298      10297      10407      10408      10419      10418  
     10287      10288      10299      10298      10408      10409      10420      10419  
     10288      10289      10300      10299      10409      10410      10421      10420  
     10289      10290      10301      10300      10410      10411      10422      10421  
     10290      10291      10302      10301      10411      10412      10423      10422  
     10291      10292      10303      10302      10412      10413      10424      10423  
     10292      10293      10304      10303      10413      10414      10425      10424  
     10293      10294      10305      10304      10414      10415      10426      10425  
     10294      10295      10306      10305      10415      10416      10427      10426  
     10295      10296      10307      10306      10416      10417      10428      10427  
     10297      10298      10309      10308      10418      10419      10430      10429  
     10298      10299      10310      10309      10419      10420      10431      10430  
     10299      10300      10311      10310      10420      10421      10432      10431  
     10300      10301      10312      10311      10421      10422      10433      10432  
     10301      10302      10313      10312      10422      10423      10434      10433  
     10302      10303      10314      10313      10423      10424      10435      10434  
     10303      10304      10315      10314      10424      10425      10436      10435  
     10304      10305      10316      10315      10425      10426      10437      10436  
     10305      10306      10317      10316      10426      10427      10438      10437  
     10306      10307      10318      10317      10427      10428      10439      10438  
     10308      10309      10320      10319      10429      10430      10441      10440  
     10309      10310      10321      10320      10430      10431      10442      10441  
     10310      10311      10322      10321      10431      10432      10443      10442  
     10311      10312      10323      10322      10432      10433      10444      10443  
     10312      10313      10324      10323      10433      10434      10445      10444  
     10313      10314      10325      10324      10434      10435      10446      10445  
     10314      10315      10326      10325      10435      10436      10447      10446  
     10315      10316      10327      10326      10436      10437      10448      10447  
     10316      10317      10328      10327      10437      10438      10449      10448  
     10317      10318      10329      10328      10438      10439      10450      10449  
     10319      10320      10331      10330      10440      10441      10452      10451  
     10320      10321      10332      10331      10441      10442      10453      10452  
     10321      10322      10333      10332      10442      10443      10454      10453  
     10322      10323      10334      10333      10443      10444      10455      10454  
     10323      10324      10335      10334      10444      10445      10456      10455  
     10324      10325      10336      10335      10445      10446      10457      10456  
     10325      10326      10337      10336      10446      10447      10458      10457  
     10326      10327      10338      10337      10447      10448      10459      10458  
     10327      10328      10339      10338      10448      10449      10460      10459  
     10328      10329      10340      10339      10449      10450      10461      10460  
     10330      10331      10342      10341      10451      10452      10463      10462  
     10331      10332      10343      10342      10452      10453      10464      10463  
     10332      10333      10344      10343      10453      10454      10465      10464  
     10333      10334      10345      10344      10454      10455      10466      10465  
     10334      10335      10346      10345      10455      10456      10467      10466  
     10335      10336      10347      10346      10456      10457      10468      10467  
     10336      10337      10348      10347      10457      10458      10469      10468  
     10337      10338      10349      10348      10458      10459      10470      10469  
     10338      10339      10350      10349      10459      10460      10471      10470  
     10339      10340      10351      10350      10460      10461      10472      10471  
     10341      10342      10353      10352      10462      10463      10474      10473  
     10342      10343      10354      10353      10463      10464      10475      10474  
     10343      10344      10355      10354      10464      10465      10476      10475  
     10344      10345      10356      10355      10465      10466      10477      10476  
     10345      10346      10357      10356      10466      10467      10478      10477  
     10346      10347      10358      10357      10467      10468      10479      10478  
     10347      10348      10359      10358      10468      10469      10480      10479  
     10348      10349      10360      10359      10469      10470      10481      10480  
     10349      10350      10361      10360      10470      10471      10482      10481  
     10350      10351      10362      10361      10471      10472      10483      10482  
     10352      10353      10364      10363      10473      10474      10485      10484  
     10353      10354      10365      10364      10474      10475      10486      10485  
     10354      10355      10366      10365      10475      10476      10487      10486  
     10355      10356      10367      10366      10476      10477      10488      10487  
     10356      10357      10368      10367      10477      10478      10489      10488  
     10357      10358      10369      10368      10478      10479      10490      10489  
     10358      10359      10370      10369      10479      10480      10491      10490  
     10359      10360      10371      10370      10480      10481      10492      10491  
     10360      10361      10372      10371      10481      10482      10493      10492  
     10361      10362      10373      10372      10482      10483      10494      10493  
     10363      10364      10375      10374      10484      10485      10496      10495  
     10364      10365      10376      10375      10485      10486      10497      10496  
     10365      10366      10377      10376      10486      10487      10498      10497  
     10366      10367      10378      10377      10487      10488      10499      10498  
     10367      10368      10379      10378      10488      10489      10500      10499  
     10368      10369      10380      10379      10489      10490      10501      10500  
     10369      10370      10381      10380      10490      10491      10502      10501  
     10370      10371      10382      10381      10491      10492      10503      10502  
     10371      10372      10383      10382      10492      10493      10504      10503  
     10372      10373      10384      10383      10493      10494      10505      10504  
     10374      10375      10386      10385      10495      10496      10507      10506  
     10375      10376      10387      10386      10496      10497      10508      10507  
     10376      10377      10388      10387      10497      10498      10509      10508  
     10377      10378      10389      10388      10498      10499      10510      10509  
     10378      10379      10390      10389      10499      10500      10511      10510  
     10379      10380      10391      10390      10500      10501      10512      10511  
     10380      10381      10392      10391      10501      10502      10513      10512  
     10381      10382      10393      10392      10502      10503      10514      10513  
     10382      10383      10394      10393      10503      10504      10515      10514  
     10383      10384      10395      10394      10504      10505      10516      10515  
     10385      10386      10397      10396      10506      10507      10518      10517  
     10386      10387      10398      10397      10507      10508      10519      10518  
     10387      10388      10399      10398      10508      10509      10520      10519  
     10388      10389      10400      10399      10509      10510      10521      10520  
     10389      10390      10401      10400      10510      10511      10522      10521  
     10390      10391      10402      10401      10511      10512      10523      10522  
     10391      10392      10403      10402      10512      10513      10524      10523  
     10392      10393      10404      10403      10513      10514      10525      10524  
     10393      10394      10405      10404      10514      10515      10526      10525  
     10394      10395      10406      10405      10515      10516      10527      10526  
     10407      10408      10419      10418      10528      10529      10540      10539  
     10408      10409      10420      10419      10529      10530      10541      10540  
     10409      10410      10421      10420      10530      10531      10542      10541  
     10410      10411      10422      10421      10531      10532      10543      10542  
     10411      10412      10423      10422      10532      10533      10544      10543  
     10412      10413      10424      10423      10533      10534      10545      10544  
     10413      10414      10425      10424      10534      10535      10546      10545  
     10414      10415      10426      10425      10535      10536      10547      10546  
     10415      10416      10427      10426      10536      10537      10548      10547  
     10416      10417      10428      10427      10537      10538      10549      10548  
     10418      10419      10430      10429      10539      10540      10551      10550  
     10419      10420      10431      10430      10540      10541      10552      10551  
     10420      10421      10432      10431      10541      10542      10553      10552  
     10421      10422      10433      10432      10542      10543      10554      10553  
     10422      10423      10434      10433      10543      10544      10555      10554  
     10423      10424      10435      10434      10544      10545      10556      10555  
     10424      10425      10436      10435      10545      10546      10557      10556  
     10425      10426      10437      10436      10546      10547      10558      10557  
     10426      10427      10438      10437      10547      10548      10559      10558  
     10427      10428      10439      10438      10548      10549      10560      10559  
     10429      10430      10441      10440      10550      10551      10562      10561  
     10430      10431      10442      10441      10551      10552      10563      10562  
     10431      10432      10443      10442      10552      10553      10564      10563  
     10432      10433      10444      10443      10553      10554      10565      10564  
     10433      10434      10445      10444      10554      10555      10566      10565  
     10434      10435      10446      10445      10555      10556      10567      10566  
     10435      10436      10447      10446      10556      10557      10568      10567  
     10436      10437      10448      10447      10557      10558      10569      10568  
     10437      10438      10449      10448      10558      10559      10570      10569  
     10438      10439      10450      10449      10559      10560      10571      10570  
     10440      10441      10452      10451      10561      10562      10573      10572  
     10441      10442      10453      10452      10562      10563      10574      10573  
     10442      10443      10454      10453      10563      10564      10575      10574  
     10443      10444      10455      10454      10564      10565      10576      10575  
     10444      10445      10456      10455      10565      10566      10577      10576  
     10445      10446      10457      10456      10566      10567      10578      10577  
     10446      10447      10458      10457      10567      10568      10579      10578  
     10447      10448      10459      10458      10568      10569      10580      10579  
     10448      10449      10460      10459      10569      10570      10581      10580  
     10449      10450      10461      10460      10570      10571      10582      10581  
     10451      10452      10463      10462      10572      10573      10584      10583  
     10452      10453      10464      10463      10573      10574      10585      10584  
     10453      10454      10465      10464      10574      10575      10586      10585  
     10454      10455      10466      10465      10575      10576      10587      10586  
     10455      10456      10467      10466      10576      10577      10588      10587  
     10456      10457      10468      10467      10577      10578      10589      10588  
     10457      10458      10469      10468      10578      10579      10590      10589  
     10458      10459      10470      10469      10579      10580      10591      10590  
     10459      10460      10471      10470      10580      10581      10592      10591  
     10460      10461      10472      10471      10581      10582      10593      10592  
     10462      10463      10474      10473      10583      10584      10595      10594  
     10463      10464      10475      10474      10584      10585      10596      10595  
     10464      10465      10476      10475      10585      10586      10597      10596  
     10465      10466      10477      10476      10586      10587      10598      10597  
     10466      10467      10478      10477      10587      10588      10599      10598  
     10467      10468      10479      10478      10588      10589      10600      10599  
     10468      10469      10480      10479      10589      10590      10601      10600  
     10469      10470      10481      10480      10590      10591      10602      10601  
     10470      10471      10482      10481      10591      10592      10603      10602  
     10471      10472      10483      10482      10592      10593      10604      10603  
     10473      10474      10485      10484      10594      10595      10606      10605  
     10474      10475      10486      10485      10595      10596      10607      10606  
     10475      10476      10487      10486      10596      10597      10608      10607  
     10476      10477      10488      10487      10597      10598      10609      10608  
     10477      10478      10489      10488      10598      10599      10610      10609  
     10478      10479      10490      10489      10599      10600      10611      10610  
     10479      10480      10491      10490      10600      10601      10612      10611  
     10480      10481      10492      10491      10601      10602      10613      10612  
     10481      10482      10493      10492      10602      10603      10614      10613  
     10482      10483      10494      10493      10603      10604      10615      10614  
     10484      10485      10496      10495      10605      10606      10617      10616  
     10485      10486      10497      10496      10606      10607      10618      10617  
     10486      10487      10498      10497      10607      10608      10619      10618  
     10487      10488      10499      10498      10608      10609      10620      10619  
     10488      10489      10500      10499      10609      10610      10621      10620  
     10489      10490      10501      10500      10610      10611      10622      10621  
     10490      10491      10502      10501      10611      10612      10623      10622  
     10491      10492      10503      10502      10612      10613      10624      10623  
     10492      10493      10504      10503      10613      10614      10625      10624  
     10493      10494      10505      10504      10614      10615      10626      10625  
     10495      10496      10507      10506      10616      10617      10628      10627  
     10496      10497      10508      10507      10617      10618      10629      10628  
     10497      10498      10509      10508      10618      10619      10630      10629  
     10498      10499      10510      10509      10619      10620      10631      10630  
     10499      10500      10511      10510      10620      10621      10632      10631  
     10500      10501      10512      10511      10621      10622      10633      10632  
     10501      10502      10513      10512      10622      10623      10634      10633  
     10502      10503      10514      10513      10623      10624      10635      10634  
     10503      10504      10515      10514      10624      10625      10636      10635  
     10504      10505      10516      10515      10625      10626      10637      10636  
     10506      10507      10518      10517      10627      10628      10639      10638  
     10507      10508      10519      10518      10628      10629      10640      10639  
     10508      10509      10520      10519      10629      10630      10641      10640  
     10509      10510      10521      10520      10630      10631      10642      10641  
     10510      10511      10522      10521      10631      10632      10643      10642  
     10511      10512      10523      10522      10632      10633      10644      10643  
     10512      10513      10524      10523      10633      10634      10645      10644  
     10513      10514      10525      10524      10634      10635      10646      10645  
     10514      10515      10526      10525      10635      10636      10647      10646  
     10515      10516      10527      10526      10636      10637      10648      10647  
     10528      10529      10540      10539      10649      10650      10661      10660  
     10529      10530      10541      10540      10650      10651      10662      10661  
     10530      10531      10542      10541      10651      10652      10663      10662  
     10531      10532      10543      10542      10652      10653      10664      10663  
     10532      10533      10544      10543      10653      10654      10665      10664  
     10533      10534      10545      10544      10654      10655      10666      10665  
     10534      10535      10546      10545      10655      10656      10667      10666  
     10535      10536      10547      10546      10656      10657      10668      10667  
     10536      10537      10548      10547      10657      10658      10669      10668  
     10537      10538      10549      10548      10658      10659      10670      10669  
     10539      10540      10551      10550      10660      10661      10672      10671  
     10540      10541      10552      10551      10661      10662      10673      10672  
     10541      10542      10553      10552      10662      10663      10674      10673  
     10542      10543      10554      10553      10663      10664      10675      10674  
     10543      10544      10555      10554      10664      10665      10676      10675  
     10544      10545      10556      10555      10665      10666      10677      10676  
     10545      10546      10557      10556      10666      10667      10678      10677  
     10546      10547      10558      10557      10667      10668      10679      10678  
     10547      10548      10559      10558      10668      10669      10680      10679  
     10548      10549      10560      10559      10669      10670      10681      10680  
     10550      10551      10562      10561      10671      10672      10683      10682  
     10551      10552      10563      10562      10672      10673      10684      10683  
     10552      10553      10564      10563      10673      10674      10685      10684  
     10553      10554      10565      10564      10674      10675      10686      10685  
     10554      10555      10566      10565      10675      10676      10687      10686  
     10555      10556      10567      10566      10676      10677      10688      10687  
     10556      10557      10568      10567      10677      10678      10689      10688  
     10557      10558      10569      10568      10678      10679      10690      10689  
     10558      10559      10570      10569      10679      10680      10691      10690  
     10559      10560      10571      10570      10680      10681      10692      10691  
     10561      10562      10573      10572      10682      10683      10694      10693  
     10562      10563      10574      10573      10683      10684      10695      10694  
     10563      10564      10575      10574      10684      10685      10696      10695  
     10564      10565      10576      10575      10685      10686      10697      10696  
     10565      10566      10577      10576      10686      10687      10698      10697  
     10566      10567      10578      10577      10687      10688      10699      10698  
     10567      10568      10579      10578      10688      10689      10700      10699  
     10568      10569      10580      10579      10689      10690      10701      10700  
     10569      10570      10581      10580      10690      10691      10702      10701  
     10570      10571      10582      10581      10691      10692      10703      10702  
     10572      10573      10584      10583      10693      10694      10705      10704  
     10573      10574      10585      10584      10694      10695      10706      10705  
     10574      10575      10586      10585      10695      10696      10707      10706  
     10575      10576      10587      10586      10696      10697      10708      10707  
     10576      10577      10588      10587      10697      10698      10709      10708  
     10577      10578      10589      10588      10698      10699      10710      10709  
     10578      10579      10590      10589      10699      10700      10711      10710  
     10579      10580      10591      10590      10700      10701      10712      10711  
     10580      10581      10592      10591      10701      10702      10713      10712  
     10581      10582      10593      10592      10702      10703      10714      10713  
     10583      10584      10595      10594      10704      10705      10716      10715  
     10584      10585      10596      10595      10705      10706      10717      10716  
     10585      10586      10597      10596      10706      10707      10718      10717  
     10586      10587      10598      10597      10707      10708      10719      10718  
     10587      10588      10599      10598      10708      10709      10720      10719  
     10588      10589      10600      10599      10709      10710      10721      10720  
     10589      10590      10601      10600      10710      10711      10722      10721  
     10590      10591      10602      10601      10711      10712      10723      10722  
     10591      10592      10603      10602      10712      10713      10724      10723  
     10592      10593      10604      10603      10713      10714      10725      10724  
     10594      10595      10606      10605      10715      10716      10727      10726  
     10595      10596      10607      10606      10716      10717      10728      10727  
     10596      10597      10608      10607      10717      10718      10729      10728  
     10597      10598      10609      10608      10718      10719      10730      10729  
     10598      10599      10610      10609      10719      10720      10731      10730  
     10599      10600      10611      10610      10720      10721      10732      10731  
     10600      10601      10612      10611      10721      10722      10733      10732  
     10601      10602      10613      10612      10722      10723      10734      10733  
     10602      10603      10614      10613      10723      10724      10735      10734  
     10603      10604      10615      10614      10724      10725      10736      10735  
     10605      10606      10617      10616      10726      10727      10738      10737  
     10606      10607      10618      10617      10727      10728      10739      10738  
     10607      10608      10619      10618      10728      10729      10740      10739  
     10608      10609      10620      10619      10729      10730      10741      10740  
     10609      10610      10621      10620      10730      10731      10742      10741  
     10610      10611      10622      10621      10731      10732      10743      10742  
     10611      10612      10623      10622      10732      10733      10744      10743  
     10612      10613      10624      10623      10733      10734      10745      10744  
     10613      10614      10625      10624      10734      10735      10746      10745  
     10614      10615      10626      10625      10735      10736      10747      10746  
     10616      10617      10628      10627      10737      10738      10749      10748  
     10617      10618      10629      10628      10738      10739      10750      10749  
     10618      10619      10630      10629      10739      10740      10751      10750  
     10619      10620      10631      10630      10740      10741      10752      10751  
     10620      10621      10632      10631      10741      10742      10753      10752  
     10621      10622      10633      10632      10742      10743      10754      10753  
     10622      10623      10634      10633      10743      10744      10755      10754  
     10623      10624      10635      10634      10744      10745      10756      10755  
     10624      10625      10636      10635      10745      10746      10757      10756  
     10625      10626      10637      10636      10746      10747      10758      10757  
     10627      10628      10639      10638      10748      10749      10760      10759  
     10628      10629      10640      10639      10749      10750      10761      10760  
     10629      10630      10641      10640      10750      10751      10762      10761  
     10630      10631      10642      10641      10751      10752      10763      10762  
     10631      10632      10643      10642      10752      10753      10764      10763  
     10632      10633      10644      10643      10753      10754      10765      10764  
     10633      10634      10645      10644      10754      10755      10766      10765  
     10634      10635      10646      10645      10755      10756      10767      10766  
     10635      10636      10647      10646      10756      10757      10768      10767  
     10636      10637      10648      10647      10757      10758      10769      10768  
     10649      10650      10661      10660      10770      10771      10782      10781  
     10650      10651      10662      10661      10771      10772      10783      10782  
     10651      10652      10663      10662      10772      10773      10784      10783  
     10652      10653      10664      10663      10773      10774      10785      10784  
     10653      10654      10665      10664      10774      10775      10786      10785  
     10654      10655      10666      10665      10775      10776      10787      10786  
     10655      10656      10667      10666      10776      10777      10788      10787  
     10656      10657      10668      10667      10777      10778      10789      10788  
     10657      10658      10669      10668      10778      10779      10790      10789  
     10658      10659      10670      10669      10779      10780      10791      10790  
     10660      10661      10672      10671      10781      10782      10793      10792  
     10661      10662      10673      10672      10782      10783      10794      10793  
     10662      10663      10674      10673      10783      10784      10795      10794  
     10663      10664      10675      10674      10784      10785      10796      10795  
     10664      10665      10676      10675      10785      10786      10797      10796  
     10665      10666      10677      10676      10786      10787      10798      10797  
     10666      10667      10678      10677      10787      10788      10799      10798  
     10667      10668      10679      10678      10788      10789      10800      10799  
     10668      10669      10680      10679      10789      10790      10801      10800  
     10669      10670      10681      10680      10790      10791      10802      10801  
     10671      10672      10683      10682      10792      10793      10804      10803  
     10672      10673      10684      10683      10793      10794      10805      10804  
     10673      10674      10685      10684      10794      10795      10806      10805  
     10674      10675      10686      10685      10795      10796      10807      10806  
     10675      10676      10687      10686      10796      10797      10808      10807  
     10676      10677      10688      10687      10797      10798      10809      10808  
     10677      10678      10689      10688      10798      10799      10810      10809  
     10678      10679      10690      10689      10799      10800      10811      10810  
     10679      10680      10691      10690      10800      10801      10812      10811  
     10680      10681      10692      10691      10801      10802      10813      10812  
     10682      10683      10694      10693      10803      10804      10815      10814  
     10683      10684      10695      10694      10804      10805      10816      10815  
     10684      10685      10696      10695      10805      10806      10817      10816  
     10685      10686      10697      10696      10806      10807      10818      10817  
     10686      10687      10698      10697      10807      10808      10819      10818  
     10687      10688      10699      10698      10808      10809      10820      10819  
     10688      10689      10700      10699      10809      10810      10821      10820  
     10689      10690      10701      10700      10810      10811      10822      10821  
     10690      10691      10702      10701      10811      10812      10823      10822  
     10691      10692      10703      10702      10812      10813      10824      10823  
     10693      10694      10705      10704      10814      10815      10826      10825  
     10694      10695      10706      10705      10815      10816      10827      10826  
     10695      10696      10707      10706      10816      10817      10828      10827  
     10696      10697      10708      10707      10817      10818      10829      10828  
     10697      10698      10709      10708      10818      10819      10830      10829  
     10698      10699      10710      10709      10819      10820      10831      10830  
     10699      10700      10711      10710      10820      10821      10832      10831  
     10700      10701      10712      10711      10821      10822      10833      10832  
     10701      10702      10713      10712      10822      10823      10834      10833  
     10702      10703      10714      10713      10823      10824      10835      10834  
     10704      10705      10716      10715      10825      10826      10837      10836  
     10705      10706      10717      10716      10826      10827      10838      10837  
     10706      10707      10718      10717      10827      10828      10839      10838  
     10707      10708      10719      10718      10828      10829      10840      10839  
     10708      10709      10720      10719      10829      10830      10841      10840  
     10709      10710      10721      10720      10830      10831      10842      10841  
     10710      10711      10722      10721      10831      10832      10843      10842  
     10711      10712      10723      10722      10832      10833      10844      10843  
     10712      10713      10724      10723      10833      10834      10845      10844  
     10713      10714      10725      10724      10834      10835      10846      10845  
     10715      10716      10727      10726      10836      10837      10848      10847  
     10716      10717      10728      10727      10837      10838      10849      10848  
     10717      10718      10729      10728      10838      10839      10850      10849  
     10718      10719      10730      10729      10839      10840      10851      10850  
     10719      10720      10731      10730      10840      10841      10852      10851  
     10720      10721      10732      10731      10841      10842      10853      10852  
     10721      10722      10733      10732      10842      10843      10854      10853  
     10722      10723      10734      10733      10843      10844      10855      10854  
     10723      10724      10735      10734      10844      10845      10856      10855  
     10724      10725      10736      10735      10845      10846      10857      10856  
     10726      10727      10738      10737      10847      10848      10859      10858  
     10727      10728      10739      10738      10848      10849      10860      10859  
     10728      10729      10740      10739      10849      10850      10861      10860  
     10729      10730      10741      10740      10850      10851      10862      10861  
     10730      10731      10742      10741      10851      10852      10863      10862  
     10731      10732      10743      10742      10852      10853      10864      10863  
     10732      10733      10744      10743      10853      10854      10865      10864  
     10733      10734      10745      10744      10854      10855      10866      10865  
     10734      10735      10746      10745      10855      10856      10867      10866  
     10735      10736      10747      10746      10856      10857      10868      10867  
     10737      10738      10749      10748      10858      10859      10870      10869  
     10738      10739      10750      10749      10859      10860      10871      10870  
     10739      10740      10751      10750      10860      10861      10872      10871  
     10740      10741      10752      10751      10861      10862      10873      10872  
     10741      10742      10753      10752      10862      10863      10874      10873  
     10742      10743      10754      10753      10863      10864      10875      10874  
     10743      10744      10755      10754      10864      10865      10876      10875  
     10744      10745      10756      10755      10865      10866      10877      10876  
     10745      10746      10757      10756      10866      10867      10878      10877  
     10746      10747      10758      10757      10867      10868      10879      10878  
     10748      10749      10760      10759      10869      10870      10881      10880  
     10749      10750      10761      10760      10870      10871      10882      10881  
     10750      10751      10762      10761      10871      10872      10883      10882  
     10751      10752      10763      10762      10872      10873      10884      10883  
     10752      10753      10764      10763      10873      10874      10885      10884  
     10753      10754      10765      10764      10874      10875      10886      10885  
     10754      10755      10766      10765      10875      10876      10887      10886  
     10755      10756      10767      10766      10876      10877      10888      10887  
     10756      10757      10768      10767      10877      10878      10889      10888  
     10757      10758      10769      10768      10878      10879      10890      10889  
     10770      10771      10782      10781      10891      10892      10903      10902  
     10771      10772      10783      10782      10892      10893      10904      10903  
     10772      10773      10784      10783      10893      10894      10905      10904  
     10773      10774      10785      10784      10894      10895      10906      10905  
     10774      10775      10786      10785      10895      10896      10907      10906  
     10775      10776      10787      10786      10896      10897      10908      10907  
     10776      10777      10788      10787      10897      10898      10909      10908  
     10777      10778      10789      10788      10898      10899      10910      10909  
     10778      10779      10790      10789      10899      10900      10911      10910  
     10779      10780      10791      10790      10900      10901      10912      10911  
     10781      10782      10793      10792      10902      10903      10914      10913  
     10782      10783      10794      10793      10903      10904      10915      10914  
     10783      10784      10795      10794      10904      10905      10916      10915  
     10784      10785      10796      10795      10905      10906      10917      10916  
     10785      10786      10797      10796      10906      10907      10918      10917  
     10786      10787      10798      10797      10907      10908      10919      10918  
     10787      10788      10799      10798      10908      10909      10920      10919  
     10788      10789      10800      10799      10909      10910      10921      10920  
     10789      10790      10801      10800      10910      10911      10922      10921  
     10790      10791      10802      10801      10911      10912      10923      10922  
     10792      10793      10804      10803      10913      10914      10925      10924  
     10793      10794      10805      10804      10914      10915      10926      10925  
     10794      10795      10806      10805      10915      10916      10927      10926  
     10795      10796      10807      10806      10916      10917      10928      10927  
     10796      10797      10808      10807      10917      10918      10929      10928  
     10797      10798      10809      10808      10918      10919      10930      10929  
     10798      10799      10810      10809      10919      10920      10931      10930  
     10799      10800      10811      10810      10920      10921      10932      10931  
     10800      10801      10812      10811      10921      10922      10933      10932  
     10801      10802      10813      10812      10922      10923      10934      10933  
     10803      10804      10815      10814      10924      10925      10936      10935  
     10804      10805      10816      10815      10925      10926      10937      10936  
     10805      10806      10817      10816      10926      10927      10938      10937  
     10806      10807      10818      10817      10927      10928      10939      10938  
     10807      10808      10819      10818      10928      10929      10940      10939  
     10808      10809      10820      10819      10929      10930      10941      10940  
     10809      10810      10821      10820      10930      10931      10942      10941  
     10810      10811      10822      10821      10931      10932      10943      10942  
     10811      10812      10823      10822      10932      10933      10944      10943  
     10812      10813      10824      10823      10933      10934      10945      10944  
     10814      10815      10826      10825      10935      10936      10947      10946  
     10815      10816      10827      10826      10936      10937      10948      10947  
     10816      10817      10828      10827      10937      10938      10949      10948  
     10817      10818      10829      10828      10938      10939      10950      10949  
     10818      10819      10830      10829      10939      10940      10951      10950  
     10819      10820      10831      10830      10940      10941      10952      10951  
     10820      10821      10832      10831      10941      10942      10953      10952  
     10821      10822      10833      10832      10942      10943      10954      10953  
     10822      10823      10834      10833      10943      10944      10955      10954  
     10823      10824      10835      10834      10944      10945      10956      10955  
     10825      10826      10837      10836      10946      10947      10958      10957  
     10826      10827      10838      10837      10947      10948      10959      10958  
     10827      10828      10839      10838      10948      10949      10960      10959  
     10828      10829      10840      10839      10949      10950      10961      10960  
     10829      10830      10841      10840      10950      10951      10962      10961  
     10830      10831      10842      10841      10951      10952      10963      10962  
     10831      10832      10843      10842      10952      10953      10964      10963  
     10832      10833      10844      10843      10953      10954      10965      10964  
     10833      10834      10845      10844      10954      10955      10966      10965  
     10834      10835      10846      10845      10955      10956      10967      10966  
     10836      10837      10848      10847      10957      10958      10969      10968  
     10837      10838      10849      10848      10958      10959      10970      10969  
     10838      10839      10850      10849      10959      10960      10971      10970  
     10839      10840      10851      10850      10960      10961      10972      10971  
     10840      10841      10852      10851      10961      10962      10973      10972  
     10841      10842      10853      10852      10962      10963      10974      10973  
     10842      10843      10854      10853      10963      10964      10975      10974  
     10843      10844      10855      10854      10964      10965      10976      10975  
     10844      10845      10856      10855      10965      10966      10977      10976  
     10845      10846      10857      10856      10966      10967      10978      10977  
     10847      10848      10859      10858      10968      10969      10980      10979  
     10848      10849      10860      10859      10969      10970      10981      10980  
     10849      10850      10861      10860      10970      10971      10982      10981  
     10850      10851      10862      10861      10971      10972      10983      10982  
     10851      10852      10863      10862      10972      10973      10984      10983  
     10852      10853      10864      10863      10973      10974      10985      10984  
     10853      10854      10865      10864      10974      10975      10986      10985  
     10854      10855      10866      10865      10975      10976      10987      10986  
     10855      10856      10867      10866      10976      10977      10988      10987  
     10856      10857      10868      10867      10977      10978      10989      10988  
     10858      10859      10870      10869      10979      10980      10991      10990  
     10859      10860      10871      10870      10980      10981      10992      10991  
     10860      10861      10872      10871      10981      10982      10993      10992  
     10861      10862      10873      10872      10982      10983      10994      10993  
     10862      10863      10874      10873      10983      10984      10995      10994  
     10863      10864      10875      10874      10984      10985      10996      10995  
     10864      10865      10876      10875      10985      10986      10997      10996  
     10865      10866      10877      10876      10986      10987      10998      10997  
     10866      10867      10878      10877      10987      10988      10999      10998  
     10867      10868      10879      10878      10988      10989      11000      10999  
     10869      10870      10881      10880      10990      10991      11002      11001  
     10870      10871      10882      10881      10991      10992      11003      11002  
     10871      10872      10883      10882      10992      10993      11004      11003  
     10872      10873      10884      10883      10993      10994      11005      11004  
     10873      10874      10885      10884      10994      10995      11006      11005  
     10874      10875      10886      10885      10995      10996      11007      11006  
     10875      10876      10887      10886      10996      10997      11008      11007  
     10876      10877      10888      10887      10997      10998      11009      11008  
     10877      10878      10889      10888      10998      10999      11010      11009  
     10878      10879      10890      10889      10999      11000      11011      11010  
     10891      10892      10903      10902      11012      11013      11024      11023  
     10892      10893      10904      10903      11013      11014      11025      11024  
     10893      10894      10905      10904      11014      11015      11026      11025  
     10894      10895      10906      10905      11015      11016      11027      11026  
     10895      10896      10907      10906      11016      11017      11028      11027  
     10896      10897      10908      10907      11017      11018      11029      11028  
     10897      10898      10909      10908      11018      11019      11030      11029  
     10898      10899      10910      10909      11019      11020      11031      11030  
     10899      10900      10911      10910      11020      11021      11032      11031  
     10900      10901      10912      10911      11021      11022      11033      11032  
     10902      10903      10914      10913      11023      11024      11035      11034  
     10903      10904      10915      10914      11024      11025      11036      11035  
     10904      10905      10916      10915      11025      11026      11037      11036  
     10905      10906      10917      10916      11026      11027      11038      11037  
     10906      10907      10918      10917      11027      11028      11039      11038  
     10907      10908      10919      10918      11028      11029      11040      11039  
     10908      10909      10920      10919      11029      11030      11041      11040  
     10909      10910      10921      10920      11030      11031      11042      11041  
     10910      10911      10922      10921      11031      11032      11043      11042  
     10911      10912      10923      10922      11032      11033      11044      11043  
     10913      10914      10925      10924      11034      11035      11046      11045  
     10914      10915      10926      10925      11035      11036      11047      11046  
     10915      10916      10927      10926      11036      11037      11048      11047  
     10916      10917      10928      10927      11037      11038      11049      11048  
     10917      10918      10929      10928      11038      11039      11050      11049  
     10918      10919      10930      10929      11039      11040      11051      11050  
     10919      10920      10931      10930      11040      11041      11052      11051  
     10920      10921      10932      10931      11041      11042      11053      11052  
     10921      10922      10933      10932      11042      11043      11054      11053  
     10922      10923      10934      10933      11043      11044      11055      11054  
     10924      10925      10936      10935      11045      11046      11057      11056  
     10925      10926      10937      10936      11046      11047      11058      11057  
     10926      10927      10938      10937      11047      11048      11059      11058  
     10927      10928      10939      10938      11048      11049      11060      11059  
     10928      10929      10940      10939      11049      11050      11061      11060  
     10929      10930      10941      10940      11050      11051      11062      11061  
     10930      10931      10942      10941      11051      11052      11063      11062  
     10931      10932      10943      10942      11052      11053      11064      11063  
     10932      10933      10944      10943      11053      11054      11065      11064  
     10933      10934      10945      10944      11054      11055      11066      11065  
     10935      10936      10947      10946      11056      11057      11068      11067  
     10936      10937      10948      10947      11057      11058      11069      11068  
     10937      10938      10949      10948      11058      11059      11070      11069  
     10938      10939      10950      10949      11059      11060      11071      11070  
     10939      10940      10951      10950      11060      11061      11072      11071  
     10940      10941      10952      10951      11061      11062      11073      11072  
     10941      10942      10953      10952      11062      11063      11074      11073  
     10942      10943      10954      10953      11063      11064      11075      11074  
     10943      10944      10955      10954      11064      11065      11076      11075  
     10944      10945      10956      10955      11065      11066      11077      11076  
     10946      10947      10958      10957      11067      11068      11079      11078  
     10947      10948      10959      10958      11068      11069      11080      11079  
     10948      10949      10960      10959      11069      11070      11081      11080  
     10949      10950      10961      10960      11070      11071      11082      11081  
     10950      10951      10962      10961      11071      11072      11083      11082  
     10951      10952      10963      10962      11072      11073      11084      11083  
     10952      10953      10964      10963      11073      11074      11085      11084  
     10953      10954      10965      10964      11074      11075      11086      11085  
     10954      10955      10966      10965      11075      11076      11087      11086  
     10955      10956      10967      10966      11076      11077      11088      11087  
     10957      10958      10969      10968      11078      11079      11090      11089  
     10958      10959      10970      10969      11079      11080      11091      11090  
     10959      10960      10971      10970      11080      11081      11092      11091  
     10960      10961      10972      10971      11081      11082      11093      11092  
     10961      10962      10973      10972      11082      11083      11094      11093  
     10962      10963      10974      10973      11083      11084      11095      11094  
     10963      10964      10975      10974      11084      11085      11096      11095  
     10964      10965      10976      10975      11085      11086      11097      11096  
     10965      10966      10977      10976      11086      11087      11098      11097  
     10966      10967      10978      10977      11087      11088      11099      11098  
     10968      10969      10980      10979      11089      11090      11101      11100  
     10969      10970      10981      10980      11090      11091      11102      11101  
     10970      10971      10982      10981      11091      11092      11103      11102  
     10971      10972      10983      10982      11092      11093      11104      11103  
     10972      10973      10984      10983      11093      11094      11105      11104  
     10973      10974      10985      10984      11094      11095      11106      11105  
     10974      10975      10986      10985      11095      11096      11107      11106  
     10975      10976      10987      10986      11096      11097      11108      11107  
     10976      10977      10988      10987      11097      11098      11109      11108  
     10977      10978      10989      10988      11098      11099      11110      11109  
     10979      10980      10991      10990      11100      11101      11112      11111  
     10980      10981      10992      10991      11101      11102      11113      11112  
     10981      10982      10993      10992      11102      11103      11114      11113  
     10982      10983      10994      10993      11103      11104      11115      11114  
     10983      10984      10995      10994      11104      11105      11116      11115  
     10984      10985      10996      10995      11105      11106      11117      11116  
     10985      10986      10997      10996      11106      11107      11118      11117  
     10986      10987      10998      10997      11107      11108      11119      11118  
     10987      10988      10999      10998      11108      11109      11120      11119  
     10988      10989      11000      10999      11109      11110      11121      11120  
     10990      10991      11002      11001      11111      11112      11123      11122  
     10991      10992      11003      11002      11112      11113      11124      11123  
     10992      10993      11004      11003      11113      11114      11125      11124  
     10993      10994      11005      11004      11114      11115      11126      11125  
     10994      10995      11006      11005      11115      11116      11127      11126  
     10995      10996      11007      11006      11116      11117      11128      11127  
     10996      10997      11008      11007      11117      11118      11129      11128  
     10997      10998      11009      11008      11118      11119      11130      11129  
     10998      10999      11010      11009      11119      11120      11131      11130  
     10999      11000      11011      11010      11120      11121      11132      11131  
     11012      11013      11024      11023      11133      11134      11145      11144  
     11013      11014      11025      11024      11134      11135      11146      11145  
     11014      11015      11026      11025      11135      11136      11147      11146  
     11015      11016      11027      11026      11136      11137      11148      11147  
     11016      11017      11028      11027      11137      11138      11149      11148  
     11017      11018      11029      11028      11138      11139      11150      11149  
     11018      11019      11030      11029      11139      11140      11151      11150  
     11019      11020      11031      11030      11140      11141      11152      11151  
     11020      11021      11032      11031      11141      11142      11153      11152  
     11021      11022      11033      11032      11142      11143      11154      11153  
     11023      11024      11035      11034      11144      11145      11156      11155  
     11024      11025      11036      11035      11145      11146      11157      11156  
     11025      11026      11037      11036      11146      11147      11158      11157  
     11026      11027      11038      11037      11147      11148      11159      11158  
     11027      11028      11039      11038      11148      11149      11160      11159  
     11028      11029      11040      11039      11149      11150      11161      11160  
     11029      11030      11041      11040      11150      11151      11162      11161  
     11030      11031      11042      11041      11151      11152      11163      11162  
     11031      11032      11043      11042      11152      11153      11164      11163  
     11032      11033      11044      11043      11153      11154      11165      11164  
     11034      11035      11046      11045      11155      11156      11167      11166  
     11035      11036      11047      11046      11156      11157      11168      11167  
     11036      11037      11048      11047      11157      11158      11169      11168  
     11037      11038      11049      11048      11158      11159      11170      11169  
     11038      11039      11050      11049      11159      11160      11171      11170  
     11039      11040      11051      11050      11160      11161      11172      11171  
     11040      11041      11052      11051      11161      11162      11173      11172  
     11041      11042      11053      11052      11162      11163      11174      11173  
     11042      11043      11054      11053      11163      11164      11175      11174  
     11043      11044      11055      11054      11164      11165      11176      11175  
     11045      11046      11057      11056      11166      11167      11178      11177  
     11046      11047      11058      11057      11167      11168      11179      11178  
     11047      11048      11059      11058      11168      11169      11180      11179  
     11048      11049      11060      11059      11169      11170      11181      11180  
     11049      11050      11061      11060      11170      11171      11182      11181  
     11050      11051      11062      11061      11171      11172      11183      11182  
     11051      11052      11063      11062      11172      11173      11184      11183  
     11052      11053      11064      11063      11173      11174      11185      11184  
     11053      11054      11065      11064      11174      11175      11186      11185  
     11054      11055      11066      11065      11175      11176      11187      11186  
     11056      11057      11068      11067      11177      11178      11189      11188  
     11057      11058      11069      11068      11178      11179      11190      11189  
     11058      11059      11070      11069      11179      11180      11191      11190  
     11059      11060      11071      11070      11180      11181      11192      11191  
     11060      11061      11072      11071      11181      11182      11193      11192  
     11061      11062      11073      11072      11182      11183      11194      11193  
     11062      11063      11074      11073      11183      11184      11195      11194  
     11063      11064      11075      11074      11184      11185      11196      11195  
     11064      11065      11076      11075      11185      11186      11197      11196  
     11065      11066      11077      11076      11186      11187      11198      11197  
     11067      11068      11079      11078      11188      11189      11200      11199  
     11068      11069      11080      11079      11189      11190      11201      11200  
     11069      11070      11081      11080      11190      11191      11202      11201  
     11070      11071      11082      11081      11191      11192      11203      11202  
     11071      11072      11083      11082      11192      11193      11204      11203  
     11072      11073      11084      11083      11193      11194      11205      11204  
     11073      11074      11085      11084      11194      11195      11206      11205  
     11074      11075      11086      11085      11195      11196      11207      11206  
     11075      11076      11087      11086      11196      11197      11208      11207  
     11076      11077      11088      11087      11197      11198      11209      11208  
     11078      11079      11090      11089      11199      11200      11211      11210  
     11079      11080      11091      11090      11200      11201      11212      11211  
     11080      11081      11092      11091      11201      11202      11213      11212  
     11081      11082      11093      11092      11202      11203      11214      11213  
     11082      11083      11094      11093      11203      11204      11215      11214  
     11083      11084      11095      11094      11204      11205      11216      11215  
     11084      11085      11096      11095      11205      11206      11217      11216  
     11085      11086      11097      11096      11206      11207      11218      11217  
     11086      11087      11098      11097      11207      11208      11219      11218  
     11087      11088      11099      11098      11208      11209      11220      11219  
     11089      11090      11101      11100      11210      11211      11222      11221  
     11090      11091      11102      11101      11211      11212      11223      11222  
     11091      11092      11103      11102      11212      11213      11224      11223  
     11092      11093      11104      11103      11213      11214      11225      11224  
     11093      11094      11105      11104      11214      11215      11226      11225  
     11094      11095      11106      11105      11215      11216      11227      11226  
     11095      11096      11107      11106      11216      11217      11228      11227  
     11096      11097      11108      11107      11217      11218      11229      11228  
     11097      11098      11109      11108      11218      11219      11230      11229  
     11098      11099      11110      11109      11219      11220      11231      11230  
     11100      11101      11112      11111      11221      11222      11233      11232  
     11101      11102      11113      11112      11222      11223      11234      11233  
     11102      11103      11114      11113      11223      11224      11235      11234  
     11103      11104      11115      11114      11224      11225      11236      11235  
     11104      11105      11116      11115      11225      11226      11237      11236  
     11105      11106      11117      11116      11226      11227      11238      11237  
     11106      11107      11118      11117      11227      11228      11239      11238  
     11107      11108      11119      11118      11228      11229      11240      11239  
     11108      11109      11120      11119      11229      11230      11241      11240  
     11109      11110      11121      11120      11230      11231      11242      11241  
     11111      11112      11123      11122      11232      11233      11244      11243  
     11112      11113      11124      11123      11233      11234      11245      11244  
     11113      11114      11125      11124      11234      11235      11246      11245  
     11114      11115      11126      11125      11235      11236      11247      11246  
     11115      11116      11127      11126      11236      11237      11248      11247  
     11116      11117      11128      11127      11237      11238      11249      11248  
     11117      11118      11129      11128      11238      11239      11250      11249  
     11118      11119      11130      11129      11239      11240      11251      11250  
     11119      11120      11131      11130      11240      11241      11252      11251  
     11120      11121      11132      11131      11241      11242      11253      11252  
     11133      11134      11145      11144      11254      11255      11266      11265  
     11134      11135      11146      11145      11255      11256      11267      11266  
     11135      11136      11147      11146      11256      11257      11268      11267  
     11136      11137      11148      11147      11257      11258      11269      11268  
     11137      11138      11149      11148      11258      11259      11270      11269  
     11138      11139      11150      11149      11259      11260      11271      11270  
     11139      11140      11151      11150      11260      11261      11272      11271  
     11140      11141      11152      11151      11261      11262      11273      11272  
     11141      11142      11153      11152      11262      11263      11274      11273  
     11142      11143      11154      11153      11263      11264      11275      11274  
     11144      11145      11156      11155      11265      11266      11277      11276  
     11145      11146      11157      11156      11266      11267      11278      11277  
     11146      11147      11158      11157      11267      11268      11279      11278  
     11147      11148      11159      11158      11268      11269      11280      11279  
     11148      11149      11160      11159      11269      11270      11281      11280  
     11149      11150      11161      11160      11270      11271      11282      11281  
     11150      11151      11162      11161      11271      11272      11283      11282  
     11151      11152      11163      11162      11272      11273      11284      11283  
     11152      11153      11164      11163      11273      11274      11285      11284  
     11153      11154      11165      11164      11274      11275      11286      11285  
     11155      11156      11167      11166      11276      11277      11288      11287  
     11156      11157      11168      11167      11277      11278      11289      11288  
     11157      11158      11169      11168      11278      11279      11290      11289  
     11158      11159      11170      11169      11279      11280      11291      11290  
     11159      11160      11171      11170      11280      11281      11292      11291  
     11160      11161      11172      11171      11281      11282      11293      11292  
     11161      11162      11173      11172      11282      11283      11294      11293  
     11162      11163      11174      11173      11283      11284      11295      11294  
     11163      11164      11175      11174      11284      11285      11296      11295  
     11164      11165      11176      11175      11285      11286      11297      11296  
     11166      11167      11178      11177      11287      11288      11299      11298  
     11167      11168      11179      11178      11288      11289      11300      11299  
     11168      11169      11180      11179      11289      11290      11301      11300  
     11169      11170      11181      11180      11290      11291      11302      11301  
     11170      11171      11182      11181      11291      11292      11303      11302  
     11171      11172      11183      11182      11292      11293      11304      11303  
     11172      11173      11184      11183      11293      11294      11305      11304  
     11173      11174      11185      11184      11294      11295      11306      11305  
     11174      11175      11186      11185      11295      11296      11307      11306  
     11175      11176      11187      11186      11296      11297      11308      11307  
     11177      11178      11189      11188      11298      11299      11310      11309  
     11178      11179      11190      11189      11299      11300      11311      11310  
     11179      11180      11191      11190      11300      11301      11312      11311  
     11180      11181      11192      11191      11301      11302      11313      11312  
     11181      11182      11193      11192      11302      11303      11314      11313  
     11182      11183      11194      11193      11303      11304      11315      11314  
     11183      11184      11195      11194      11304      11305      11316      11315  
     11184      11185      11196      11195      11305      11306      11317      11316  
     11185      11186      11197      11196      11306      11307      11318      11317  
     11186      11187      11198      11197      11307      11308      11319      11318  
     11188      11189      11200      11199      11309      11310      11321      11320  
     11189      11190      11201      11200      11310      11311      11322      11321  
     11190      11191      11202      11201      11311      11312      11323      11322  
     11191      11192      11203      11202      11312      11313      11324      11323  
     11192      11193      11204      11203      11313      11314      11325      11324  
     11193      11194      11205      11204      11314      11315      11326      11325  
     11194      11195      11206      11205      11315      11316      11327      11326  
     11195      11196      11207      11206      11316      11317      11328      11327  
     11196      11197      11208      11207      11317      11318      11329      11328  
     11197      11198      11209      11208      11318      11319      11330      11329  
     11199      11200      11211      11210      11320      11321      11332      11331  
     11200      11201      11212      11211      11321      11322      11333      11332  
     11201      11202      11213      11212      11322      11323      11334      11333  
     11202      11203      11214      11213      11323      11324      11335      11334  
     11203      11204      11215      11214      11324      11325      11336      11335  
     11204      11205      11216      11215      11325      11326      11337      11336  
     11205      11206      11217      11216      11326      11327      11338      11337  
     11206      11207      11218      11217      11327      11328      11339      11338  
     11207      11208      11219      11218      11328      11329      11340      11339  
     11208      11209      11220      11219      11329      11330      11341      11340  
     11210      11211      11222      11221      11331      11332      11343      11342  
     11211      11212      11223      11222      11332      11333      11344      11343  
     11212      11213      11224      11223      11333      11334      11345      11344  
     11213      11214      11225      11224      11334      11335      11346      11345  
     11214      11215      11226      11225      11335      11336      11347      11346  
     11215      11216      11227      11226      11336      11337      11348      11347  
     11216      11217      11228      11227      11337      11338      11349      11348  
     11217      11218      11229      11228      11338      11339      11350      11349  
     11218      11219      11230      11229      11339      11340      11351      11350  
     11219      11220      11231      11230      11340      11341      11352      11351  
     11221      11222      11233      11232      11342      11343      11354      11353  
     11222      11223      11234      11233      11343      11344      11355      11354  
     11223      11224      11235      11234      11344      11345      11356      11355  
     11224      11225      11236      11235      11345      11346      11357      11356  
     11225      11226      11237      11236      11346      11347      11358      11357  
     11226      11227      11238      11237      11347      11348      11359      11358  
     11227      11228      11239      11238      11348      11349      11360      11359  
     11228      11229      11240      11239      11349      11350      11361      11360  
     11229      11230      11241      11240      11350      11351      11362      11361  
     11230      11231      11242      11241      11351      11352      11363      11362  
     11232      11233      11244      11243      11353      11354      11365      11364  
     11233      11234      11245      11244      11354      11355      11366      11365  
     11234      11235      11246      11245      11355      11356      11367      11366  
     11235      11236      11247      11246      11356      11357      11368      11367  
     11236      11237      11248      11247      11357      11358      11369      11368  
     11237      11238      11249      11248      11358      11359      11370      11369  
     11238      11239      11250      11249      11359      11360      11371      11370  
     11239      11240      11251      11250      11360      11361      11372      11371  
     11240      11241      11252      11251      11361      11362      11373      11372  
     11241      11242      11253      11252      11362      11363      11374      11373  
     11254      11255      11266      11265      11375      11376      11387      11386  
     11255      11256      11267      11266      11376      11377      11388      11387  
     11256      11257      11268      11267      11377      11378      11389      11388  
     11257      11258      11269      11268      11378      11379      11390      11389  
     11258      11259      11270      11269      11379      11380      11391      11390  
     11259      11260      11271      11270      11380      11381      11392      11391  
     11260      11261      11272      11271      11381      11382      11393      11392  
     11261      11262      11273      11272      11382      11383      11394      11393  
     11262      11263      11274      11273      11383      11384      11395      11394  
     11263      11264      11275      11274      11384      11385      11396      11395  
     11265      11266      11277      11276      11386      11387      11398      11397  
     11266      11267      11278      11277      11387      11388      11399      11398  
     11267      11268      11279      11278      11388      11389      11400      11399  
     11268      11269      11280      11279      11389      11390      11401      11400  
     11269      11270      11281      11280      11390      11391      11402      11401  
     11270      11271      11282      11281      11391      11392      11403      11402  
     11271      11272      11283      11282      11392      11393      11404      11403  
     11272      11273      11284      11283      11393      11394      11405      11404  
     11273      11274      11285      11284      11394      11395      11406      11405  
     11274      11275      11286      11285      11395      11396      11407      11406  
     11276      11277      11288      11287      11397      11398      11409      11408  
     11277      11278      11289      11288      11398      11399      11410      11409  
     11278      11279      11290      11289      11399      11400      11411      11410  
     11279      11280      11291      11290      11400      11401      11412      11411  
     11280      11281      11292      11291      11401      11402      11413      11412  
     11281      11282      11293      11292      11402      11403      11414      11413  
     11282      11283      11294      11293      11403      11404      11415      11414  
     11283      11284      11295      11294      11404      11405      11416      11415  
     11284      11285      11296      11295      11405      11406      11417      11416  
     11285      11286      11297      11296      11406      11407      11418      11417  
     11287      11288      11299      11298      11408      11409      11420      11419  
     11288      11289      11300      11299      11409      11410      11421      11420  
     11289      11290      11301      11300      11410      11411      11422      11421  
     11290      11291      11302      11301      11411      11412      11423      11422  
     11291      11292      11303      11302      11412      11413      11424      11423  
     11292      11293      11304      11303      11413      11414      11425      11424  
     11293      11294      11305      11304      11414      11415      11426      11425  
     11294      11295      11306      11305      11415      11416      11427      11426  
     11295      11296      11307      11306      11416      11417      11428      11427  
     11296      11297      11308      11307      11417      11418      11429      11428  
     11298      11299      11310      11309      11419      11420      11431      11430  
     11299      11300      11311      11310      11420      11421      11432      11431  
     11300      11301      11312      11311      11421      11422      11433      11432  
     11301      11302      11313      11312      11422      11423      11434      11433  
     11302      11303      11314      11313      11423      11424      11435      11434  
     11303      11304      11315      11314      11424      11425      11436      11435  
     11304      11305      11316      11315      11425      11426      11437      11436  
     11305      11306      11317      11316      11426      11427      11438      11437  
     11306      11307      11318      11317      11427      11428      11439      11438  
     11307      11308      11319      11318      11428      11429      11440      11439  
     11309      11310      11321      11320      11430      11431      11442      11441  
     11310      11311      11322      11321      11431      11432      11443      11442  
     11311      11312      11323      11322      11432      11433      11444      11443  
     11312      11313      11324      11323      11433      11434      11445      11444  
     11313      11314      11325      11324      11434      11435      11446      11445  
     11314      11315      11326      11325      11435      11436      11447      11446  
     11315      11316      11327      11326      11436      11437      11448      11447  
     11316      11317      11328      11327      11437      11438      11449      11448  
     11317      11318      11329      11328      11438      11439      11450      11449  
     11318      11319      11330      11329      11439      11440      11451      11450  
     11320      11321      11332      11331      11441      11442      11453      11452  
     11321      11322      11333      11332      11442      11443      11454      11453  
     11322      11323      11334      11333      11443      11444      11455      11454  
     11323      11324      11335      11334      11444      11445      11456      11455  
     11324      11325      11336      11335      11445      11446      11457      11456  
     11325      11326      11337      11336      11446      11447      11458      11457  
     11326      11327      11338      11337      11447      11448      11459      11458  
     11327      11328      11339      11338      11448      11449      11460      11459  
     11328      11329      11340      11339      11449      11450      11461      11460  
     11329      11330      11341      11340      11450      11451      11462      11461  
     11331      11332      11343      11342      11452      11453      11464      11463  
     11332      11333      11344      11343      11453      11454      11465      11464  
     11333      11334      11345      11344      11454      11455      11466      11465  
     11334      11335      11346      11345      11455      11456      11467      11466  
     11335      11336      11347      11346      11456      11457      11468      11467  
     11336      11337      11348      11347      11457      11458      11469      11468  
     11337      11338      11349      11348      11458      11459      11470      11469  
     11338      11339      11350      11349      11459      11460      11471      11470  
     11339      11340      11351      11350      11460      11461      11472      11471  
     11340      11341      11352      11351      11461      11462      11473      11472  
     11342      11343      11354      11353      11463      11464      11475      11474  
     11343      11344      11355      11354      11464      11465      11476      11475  
     11344      11345      11356      11355      11465      11466      11477      11476  
     11345      11346      11357      11356      11466      11467      11478      11477  
     11346      11347      11358      11357      11467      11468      11479      11478  
     11347      11348      11359      11358      11468      11469      11480      11479  
     11348      11349      11360      11359      11469      11470      11481      11480  
     11349      11350      11361      11360      11470      11471      11482      11481  
     11350      11351      11362      11361      11471      11472      11483      11482  
     11351      11352      11363      11362      11472      11473      11484      11483  
     11353      11354      11365      11364      11474      11475      11486      11485  
     11354      11355      11366      11365      11475      11476      11487      11486  
     11355      11356      11367      11366      11476      11477      11488      11487  
     11356      11357      11368      11367      11477      11478      11489      11488  
     11357      11358      11369      11368      11478      11479      11490      11489  
     11358      11359      11370      11369      11479      11480      11491      11490  
     11359      11360      11371      11370      11480      11481      11492      11491  
     11360      11361      11372      11371      11481      11482      11493      11492  
     11361      11362      11373      11372      11482      11483      11494      11493  
     11362      11363      11374      11373      11483      11484      11495      11494  
     11375      11376      11387      11386      11496      11497      11508      11507  
     11376      11377      11388      11387      11497      11498      11509      11508  
     11377      11378      11389      11388      11498      11499      11510      11509  
     11378      11379      11390      11389      11499      11500      11511      11510  
     11379      11380      11391      11390      11500      11501      11512      11511  
     11380      11381      11392      11391      11501      11502      11513      11512  
     11381      11382      11393      11392      11502      11503      11514      11513  
     11382      11383      11394      11393      11503      11504      11515      11514  
     11383      11384      11395      11394      11504      11505      11516      11515  
     11384      11385      11396      11395      11505      11506      11517      11516  
     11386      11387      11398      11397      11507      11508      11519      11518  
     11387      11388      11399      11398      11508      11509      11520      11519  
     11388      11389      11400      11399      11509      11510      11521      11520  
     11389      11390      11401      11400      11510      11511      11522      11521  
     11390      11391      11402      11401      11511      11512      11523      11522  
     11391      11392      11403      11402      11512      11513      11524      11523  
     11392      11393      11404      11403      11513      11514      11525      11524  
     11393      11394      11405      11404      11514      11515      11526      11525  
     11394      11395      11406      11405      11515      11516      11527      11526  
     11395      11396      11407      11406      11516      11517      11528      11527  
     11397      11398      11409      11408      11518      11519      11530      11529  
     11398      11399      11410      11409      11519      11520      11531      11530  
     11399      11400      11411      11410      11520      11521      11532      11531  
     11400      11401      11412      11411      11521      11522      11533      11532  
     11401      11402      11413      11412      11522      11523      11534      11533  
     11402      11403      11414      11413      11523      11524      11535      11534  
     11403      11404      11415      11414      11524      11525      11536      11535  
     11404      11405      11416      11415      11525      11526      11537      11536  
     11405      11406      11417      11416      11526      11527      11538      11537  
     11406      11407      11418      11417      11527      11528      11539      11538  
     11408      11409      11420      11419      11529      11530      11541      11540  
     11409      11410      11421      11420      11530      11531      11542      11541  
     11410      11411      11422      11421      11531      11532      11543      11542  
     11411      11412      11423      11422      11532      11533      11544      11543  
     11412      11413      11424      11423      11533      11534      11545      11544  
     11413      11414      11425      11424      11534      11535      11546      11545  
     11414      11415      11426      11425      11535      11536      11547      11546  
     11415      11416      11427      11426      11536      11537      11548      11547  
     11416      11417      11428      11427      11537      11538      11549      11548  
     11417      11418      11429      11428      11538      11539      11550      11549  
     11419      11420      11431      11430      11540      11541      11552      11551  
     11420      11421      11432      11431      11541      11542      11553      11552  
     11421      11422      11433      11432      11542      11543      11554      11553  
     11422      11423      11434      11433      11543      11544      11555      11554  
     11423      11424      11435      11434      11544      11545      11556      11555  
     11424      11425      11436      11435      11545      11546      11557      11556  
     11425      11426      11437      11436      11546      11547      11558      11557  
     11426      11427      11438      11437      11547      11548      11559      11558  
     11427      11428      11439      11438      11548      11549      11560      11559  
     11428      11429      11440      11439      11549      11550      11561      11560  
     11430      11431      11442      11441      11551      11552      11563      11562  
     11431      11432      11443      11442      11552      11553      11564      11563  
     11432      11433      11444      11443      11553      11554      11565      11564  
     11433      11434      11445      11444      11554      11555      11566      11565  
     11434      11435      11446      11445      11555      11556      11567      11566  
     11435      11436      11447      11446      11556      11557      11568      11567  
     11436      11437      11448      11447      11557      11558      11569      11568  
     11437      11438      11449      11448      11558      11559      11570      11569  
     11438      11439      11450      11449      11559      11560      11571      11570  
     11439      11440      11451      11450      11560      11561      11572      11571  
     11441      11442      11453      11452      11562      11563      11574      11573  
     11442      11443      11454      11453      11563      11564      11575      11574  
     11443      11444      11455      11454      11564      11565      11576      11575  
     11444      11445      11456      11455      11565      11566      11577      11576  
     11445      11446      11457      11456      11566      11567      11578      11577  
     11446      11447      11458      11457      11567      11568      11579      11578  
     11447      11448      11459      11458      11568      11569      11580      11579  
     11448      11449      11460      11459      11569      11570      11581      11580  
     11449      11450      11461      11460      11570      11571      11582      11581  
     11450      11451      11462      11461      11571      11572      11583      11582  
     11452      11453      11464      11463      11573      11574      11585      11584  
     11453      11454      11465      11464      11574      11575      11586      11585  
     11454      11455      11466      11465      11575      11576      11587      11586  
     11455      11456      11467      11466      11576      11577      11588      11587  
     11456      11457      11468      11467      11577      11578      11589      11588  
     11457      11458      11469      11468      11578      11579      11590      11589  
     11458      11459      11470      11469      11579      11580      11591      11590  
     11459      11460      11471      11470      11580      11581      11592      11591  
     11460      11461      11472      11471      11581      11582      11593      11592  
     11461      11462      11473      11472      11582      11583      11594      11593  
     11463      11464      11475      11474      11584      11585      11596      11595  
     11464      11465      11476      11475      11585      11586      11597      11596  
     11465      11466      11477      11476      11586      11587      11598      11597  
     11466      11467      11478      11477      11587      11588      11599      11598  
     11467      11468      11479      11478      11588      11589      11600      11599  
     11468      11469      11480      11479      11589      11590      11601      11600  
     11469      11470      11481      11480      11590      11591      11602      11601  
     11470      11471      11482      11481      11591      11592      11603      11602  
     11471      11472      11483      11482      11592      11593      11604      11603  
     11472      11473      11484      11483      11593      11594      11605      11604  
     11474      11475      11486      11485      11595      11596      11607      11606  
     11475      11476      11487      11486      11596      11597      11608      11607  
     11476      11477      11488      11487      11597      11598      11609      11608  
     11477      11478      11489      11488      11598      11599      11610      11609  
     11478      11479      11490      11489      11599      11600      11611      11610  
     11479      11480      11491      11490      11600      11601      11612      11611  
     11480      11481      11492      11491      11601      11602      11613      11612  
     11481      11482      11493      11492      11602      11603      11614      11613  
     11482      11483      11494      11493      11603      11604      11615      11614  
     11483      11484      11495      11494      11604      11605      11616      11615  
     11496      11497      11508      11507      11617      11618      11629      11628  
     11497      11498      11509      11508      11618      11619      11630      11629  
     11498      11499      11510      11509      11619      11620      11631      11630  
     11499      11500      11511      11510      11620      11621      11632      11631  
     11500      11501      11512      11511      11621      11622      11633      11632  
     11501      11502      11513      11512      11622      11623      11634      11633  
     11502      11503      11514      11513      11623      11624      11635      11634  
     11503      11504      11515      11514      11624      11625      11636      11635  
     11504      11505      11516      11515      11625      11626      11637      11636  
     11505      11506      11517      11516      11626      11627      11638      11637  
     11507      11508      11519      11518      11628      11629      11640      11639  
     11508      11509      11520      11519      11629      11630      11641      11640  
     11509      11510      11521      11520      11630      11631      11642      11641  
     11510      11511      11522      11521      11631      11632      11643      11642  
     11511      11512      11523      11522      11632      11633      11644      11643  
     11512      11513      11524      11523      11633      11634      11645      11644  
     11513      11514      11525      11524      11634      11635      11646      11645  
     11514      11515      11526      11525      11635      11636      11647      11646  
     11515      11516      11527      11526      11636      11637      11648      11647  
     11516      11517      11528      11527      11637      11638      11649      11648  
     11518      11519      11530      11529      11639      11640      11651      11650  
     11519      11520      11531      11530      11640      11641      11652      11651  
     11520      11521      11532      11531      11641      11642      11653      11652  
     11521      11522      11533      11532      11642      11643      11654      11653  
     11522      11523      11534      11533      11643      11644      11655      11654  
     11523      11524      11535      11534      11644      11645      11656      11655  
     11524      11525      11536      11535      11645      11646      11657      11656  
     11525      11526      11537      11536      11646      11647      11658      11657  
     11526      11527      11538      11537      11647      11648      11659      11658  
     11527      11528      11539      11538      11648      11649      11660      11659  
     11529      11530      11541      11540      11650      11651      11662      11661  
     11530      11531      11542      11541      11651      11652      11663      11662  
     11531      11532      11543      11542      11652      11653      11664      11663  
     11532      11533      11544      11543      11653      11654      11665      11664  
     11533      11534      11545      11544      11654      11655      11666      11665  
     11534      11535      11546      11545      11655      11656      11667      11666  
     11535      11536      11547      11546      11656      11657      11668      11667  
     11536      11537      11548      11547      11657      11658      11669      11668  
     11537      11538      11549      11548      11658      11659      11670      11669  
     11538      11539      11550      11549      11659      11660      11671      11670  
     11540      11541      11552      11551      11661      11662      11673      11672  
     11541      11542      11553      11552      11662      11663      11674      11673  
     11542      11543      11554      11553      11663      11664      11675      11674  
     11543      11544      11555      11554      11664      11665      11676      11675  
     11544      11545      11556      11555      11665      11666      11677      11676  
     11545      11546      11557      11556      11666      11667      11678      11677  
     11546      11547      11558      11557      11667      11668      11679      11678  
     11547      11548      11559      11558      11668      11669      11680      11679  
     11548      11549      11560      11559      11669      11670      11681      11680  
     11549      11550      11561      11560      11670      11671      11682      11681  
     11551      11552      11563      11562      11672      11673      11684      11683  
     11552      11553      11564      11563      11673      11674      11685      11684  
     11553      11554      11565      11564      11674      11675      11686      11685  
     11554      11555      11566      11565      11675      11676      11687      11686  
     11555      11556      11567      11566      11676      11677      11688      11687  
     11556      11557      11568      11567      11677      11678      11689      11688  
     11557      11558      11569      11568      11678      11679      11690      11689  
     11558      11559      11570      11569      11679      11680      11691      11690  
     11559      11560      11571      11570      11680      11681      11692      11691  
     11560      11561      11572      11571      11681      11682      11693      11692  
     11562      11563      11574      11573      11683      11684      11695      11694  
     11563      11564      11575      11574      11684      11685      11696      11695  
     11564      11565      11576      11575      11685      11686      11697      11696  
     11565      11566      11577      11576      11686      11687      11698      11697  
     11566      11567      11578      11577      11687      11688      11699      11698  
     11567      11568      11579      11578      11688      11689      11700      11699  
     11568      11569      11580      11579      11689      11690      11701      11700  
     11569      11570      11581      11580      11690      11691      11702      11701  
     11570      11571      11582      11581      11691      11692      11703      11702  
     11571      11572      11583      11582      11692      11693      11704      11703  
     11573      11574      11585      11584      11694      11695      11706      11705  
     11574      11575      11586      11585      11695      11696      11707      11706  
     11575      11576      11587      11586      11696      11697      11708      11707  
     11576      11577      11588      11587      11697      11698      11709      11708  
     11577      11578      11589      11588      11698      11699      11710      11709  
     11578      11579      11590      11589      11699      11700      11711      11710  
     11579      11580      11591      11590      11700      11701      11712      11711  
     11580      11581      11592      11591      11701      11702      11713      11712  
     11581      11582      11593      11592      11702      11703      11714      11713  
     11582      11583      11594      11593      11703      11704      11715      11714  
     11584      11585      11596      11595      11705      11706      11717      11716  
     11585      11586      11597      11596      11706      11707      11718      11717  
     11586      11587      11598      11597      11707      11708      11719      11718  
     11587      11588      11599      11598      11708      11709      11720      11719  
     11588      11589      11600      11599      11709      11710      11721      11720  
     11589      11590      11601      11600      11710      11711      11722      11721  
     11590      11591      11602      11601      11711      11712      11723      11722  
     11591      11592      11603      11602      11712      11713      11724      11723  
     11592      11593      11604      11603      11713      11714      11725      11724  
     11593      11594      11605      11604      11714      11715      11726      11725  
     11595      11596      11607      11606      11716      11717      11728      11727  
     11596      11597      11608      11607      11717      11718      11729      11728  
     11597      11598      11609      11608      11718      11719      11730      11729  
     11598      11599      11610      11609      11719      11720      11731      11730  
     11599      11600      11611      11610      11720      11721      11732      11731  
     11600      11601      11612      11611      11721      11722      11733      11732  
     11601      11602      11613      11612      11722      11723      11734      11733  
     11602      11603      11614      11613      11723      11724      11735      11734  
     11603      11604      11615      11614      11724      11725      11736      11735  
     11604      11605      11616      11615      11725      11726      11737      11736  
     11617      11618      11629      11628      11738      11739      11750      11749  
     11618      11619      11630      11629      11739      11740      11751      11750  
     11619      11620      11631      11630      11740      11741      11752      11751  
     11620      11621      11632      11631      11741      11742      11753      11752  
     11621      11622      11633      11632      11742      11743      11754      11753  
     11622      11623      11634      11633      11743      11744      11755      11754  
     11623      11624      11635      11634      11744      11745      11756      11755  
     11624      11625      11636      11635      11745      11746      11757      11756  
     11625      11626      11637      11636      11746      11747      11758      11757  
     11626      11627      11638      11637      11747      11748      11759      11758  
     11628      11629      11640      11639      11749      11750      11761      11760  
     11629      11630      11641      11640      11750      11751      11762      11761  
     11630      11631      11642      11641      11751      11752      11763      11762  
     11631      11632      11643      11642      11752      11753      11764      11763  
     11632      11633      11644      11643      11753      11754      11765      11764  
     11633      11634      11645      11644      11754      11755      11766      11765  
     11634      11635      11646      11645      11755      11756      11767      11766  
     11635      11636      11647      11646      11756      11757      11768      11767  
     11636      11637      11648      11647      11757      11758      11769      11768  
     11637      11638      11649      11648      11758      11759      11770      11769  
     11639      11640      11651      11650      11760      11761      11772      11771  
     11640      11641      11652      11651      11761      11762      11773      11772  
     11641      11642      11653      11652      11762      11763      11774      11773  
     11642      11643      11654      11653      11763      11764      11775      11774  
     11643      11644      11655      11654      11764      11765      11776      11775  
     11644      11645      11656      11655      11765      11766      11777      11776  
     11645      11646      11657      11656      11766      11767      11778      11777  
     11646      11647      11658      11657      11767      11768      11779      11778  
     11647      11648      11659      11658      11768      11769      11780      11779  
     11648      11649      11660      11659      11769      11770      11781      11780  
     11650      11651      11662      11661      11771      11772      11783      11782  
     11651      11652      11663      11662      11772      11773      11784      11783  
     11652      11653      11664      11663      11773      11774      11785      11784  
     11653      11654      11665      11664      11774      11775      11786      11785  
     11654      11655      11666      11665      11775      11776      11787      11786  
     11655      11656      11667      11666      11776      11777      11788      11787  
     11656      11657      11668      11667      11777      11778      11789      11788  
     11657      11658      11669      11668      11778      11779      11790      11789  
     11658      11659      11670      11669      11779      11780      11791      11790  
     11659      11660      11671      11670      11780      11781      11792      11791  
     11661      11662      11673      11672      11782      11783      11794      11793  
     11662      11663      11674      11673      11783      11784      11795      11794  
     11663      11664      11675      11674      11784      11785      11796      11795  
     11664      11665      11676      11675      11785      11786      11797      11796  
     11665      11666      11677      11676      11786      11787      11798      11797  
     11666      11667      11678      11677      11787      11788      11799      11798  
     11667      11668      11679      11678      11788      11789      11800      11799  
     11668      11669      11680      11679      11789      11790      11801      11800  
     11669      11670      11681      11680      11790      11791      11802      11801  
     11670      11671      11682      11681      11791      11792      11803      11802  
     11672      11673      11684      11683      11793      11794      11805      11804  
     11673      11674      11685      11684      11794      11795      11806      11805  
     11674      11675      11686      11685      11795      11796      11807      11806  
     11675      11676      11687      11686      11796      11797      11808      11807  
     11676      11677      11688      11687      11797      11798      11809      11808  
     11677      11678      11689      11688      11798      11799      11810      11809  
     11678      11679      11690      11689      11799      11800      11811      11810  
     11679      11680      11691      11690      11800      11801      11812      11811  
     11680      11681      11692      11691      11801      11802      11813      11812  
     11681      11682      11693      11692      11802      11803      11814      11813  
     11683      11684      11695      11694      11804      11805      11816      11815  
     11684      11685      11696      11695      11805      11806      11817      11816  
     11685      11686      11697      11696      11806      11807      11818      11817  
     11686      11687      11698      11697      11807      11808      11819      11818  
     11687      11688      11699      11698      11808      11809      11820      11819  
     11688      11689      11700      11699      11809      11810      11821      11820  
     11689      11690      11701      11700      11810      11811      11822      11821  
     11690      11691      11702      11701      11811      11812      11823      11822  
     11691      11692      11703      11702      11812      11813      11824      11823  
     11692      11693      11704      11703      11813      11814      11825      11824  
     11694      11695      11706      11705      11815      11816      11827      11826  
     11695      11696      11707      11706      11816      11817      11828      11827  
     11696      11697      11708      11707      11817      11818      11829      11828  
     11697      11698      11709      11708      11818      11819      11830      11829  
     11698      11699      11710      11709      11819      11820      11831      11830  
     11699      11700      11711      11710      11820      11821      11832      11831  
     11700      11701      11712      11711      11821      11822      11833      11832  
     11701      11702      11713      11712      11822      11823      11834      11833  
     11702      11703      11714      11713      11823      11824      11835      11834  
     11703      11704      11715      11714      11824      11825      11836      11835  
     11705      11706      11717      11716      11826      11827      11838      11837  
     11706      11707      11718      11717      11827      11828      11839      11838  
     11707      11708      11719      11718      11828      11829      11840      11839  
     11708      11709      11720      11719      11829      11830      11841      11840  
     11709      11710      11721      11720      11830      11831      11842      11841  
     11710      11711      11722      11721      11831      11832      11843      11842  
     11711      11712      11723      11722      11832      11833      11844      11843  
     11712      11713      11724      11723      11833      11834      11845      11844  
     11713      11714      11725      11724      11834      11835      11846      11845  
     11714      11715      11726      11725      11835      11836      11847      11846  
     11716      11717      11728      11727      11837      11838      11849      11848  
     11717      11718      11729      11728      11838      11839      11850      11849  
     11718      11719      11730      11729      11839      11840      11851      11850  
     11719      11720      11731      11730      11840      11841      11852      11851  
     11720      11721      11732      11731      11841      11842      11853      11852  
     11721      11722      11733      11732      11842      11843      11854      11853  
     11722      11723      11734      11733      11843      11844      11855      11854  
     11723      11724      11735      11734      11844      11845      11856      11855  
     11724      11725      11736      11735      11845      11846      11857      11856  
     11725      11726      11737      11736      11846      11847      11858      11857  
     11738      11739      11750      11749      11859      11860      11871      11870  
     11739      11740      11751      11750      11860      11861      11872      11871  
     11740      11741      11752      11751      11861      11862      11873      11872  
     11741      11742      11753      11752      11862      11863      11874      11873  
     11742      11743      11754      11753      11863      11864      11875      11874  
     11743      11744      11755      11754      11864      11865      11876      11875  
     11744      11745      11756      11755      11865      11866      11877      11876  
     11745      11746      11757      11756      11866      11867      11878      11877  
     11746      11747      11758      11757      11867      11868      11879      11878  
     11747      11748      11759      11758      11868      11869      11880      11879  
     11749      11750      11761      11760      11870      11871      11882      11881  
     11750      11751      11762      11761      11871      11872      11883      11882  
     11751      11752      11763      11762      11872      11873      11884      11883  
     11752      11753      11764      11763      11873      11874      11885      11884  
     11753      11754      11765      11764      11874      11875      11886      11885  
     11754      11755      11766      11765      11875      11876      11887      11886  
     11755      11756      11767      11766      11876      11877      11888      11887  
     11756      11757      11768      11767      11877      11878      11889      11888  
     11757      11758      11769      11768      11878      11879      11890      11889  
     11758      11759      11770      11769      11879      11880      11891      11890  
     11760      11761      11772      11771      11881      11882      11893      11892  
     11761      11762      11773      11772      11882      11883      11894      11893  
     11762      11763      11774      11773      11883      11884      11895      11894  
     11763      11764      11775      11774      11884      11885      11896      11895  
     11764      11765      11776      11775      11885      11886      11897      11896  
     11765      11766      11777      11776      11886      11887      11898      11897  
     11766      11767      11778      11777      11887      11888      11899      11898  
     11767      11768      11779      11778      11888      11889      11900      11899  
     11768      11769      11780      11779      11889      11890      11901      11900  
     11769      11770      11781      11780      11890      11891      11902      11901  
     11771      11772      11783      11782      11892      11893      11904      11903  
     11772      11773      11784      11783      11893      11894      11905      11904  
     11773      11774      11785      11784      11894      11895      11906      11905  
     11774      11775      11786      11785      11895      11896      11907      11906  
     11775      11776      11787      11786      11896      11897      11908      11907  
     11776      11777      11788      11787      11897      11898      11909      11908  
     11777      11778      11789      11788      11898      11899      11910      11909  
     11778      11779      11790      11789      11899      11900      11911      11910  
     11779      11780      11791      11790      11900      11901      11912      11911  
     11780      11781      11792      11791      11901      11902      11913      11912  
     11782      11783      11794      11793      11903      11904      11915      11914  
     11783      11784      11795      11794      11904      11905      11916      11915  
     11784      11785      11796      11795      11905      11906      11917      11916  
     11785      11786      11797      11796      11906      11907      11918      11917  
     11786      11787      11798      11797      11907      11908      11919      11918  
     11787      11788      11799      11798      11908      11909      11920      11919  
     11788      11789      11800      11799      11909      11910      11921      11920  
     11789      11790      11801      11800      11910      11911      11922      11921  
     11790      11791      11802      11801      11911      11912      11923      11922  
     11791      11792      11803      11802      11912      11913      11924      11923  
     11793      11794      11805      11804      11914      11915      11926      11925  
     11794      11795      11806      11805      11915      11916      11927      11926  
     11795      11796      11807      11806      11916      11917      11928      11927  
     11796      11797      11808      11807      11917      11918      11929      11928  
     11797      11798      11809      11808      11918      11919      11930      11929  
     11798      11799      11810      11809      11919      11920      11931      11930  
     11799      11800      11811      11810      11920      11921      11932      11931  
     11800      11801      11812      11811      11921      11922      11933      11932  
     11801      11802      11813      11812      11922      11923      11934      11933  
     11802      11803      11814      11813      11923      11924      11935      11934  
     11804      11805      11816      11815      11925      11926      11937      11936  
     11805      11806      11817      11816      11926      11927      11938      11937  
     11806      11807      11818      11817      11927      11928      11939      11938  
     11807      11808      11819      11818      11928      11929      11940      11939  
     11808      11809      11820      11819      11929      11930      11941      11940  
     11809      11810      11821      11820      11930      11931      11942      11941  
     11810      11811      11822      11821      11931      11932      11943      11942  
     11811      11812      11823      11822      11932      11933      11944      11943  
     11812      11813      11824      11823      11933      11934      11945      11944  
     11813      11814      11825      11824      11934      11935      11946      11945  
     11815      11816      11827      11826      11936      11937      11948      11947  
     11816      11817      11828      11827      11937      11938      11949      11948  
     11817      11818      11829      11828      11938      11939      11950      11949  
     11818      11819      11830      11829      11939      11940      11951      11950  
     11819      11820      11831      11830      11940      11941      11952      11951  
     11820      11821      11832      11831      11941      11942      11953      11952  
     11821      11822      11833      11832      11942      11943      11954      11953  
     11822      11823      11834      11833      11943      11944      11955      11954  
     11823      11824      11835      11834      11944      11945      11956      11955  
     11824      11825      11836      11835      11945      11946      11957      11956  
     11826      11827      11838      11837      11947      11948      11959      11958  
     11827      11828      11839      11838      11948      11949      11960      11959  
     11828      11829      11840      11839      11949      11950      11961      11960  
     11829      11830      11841      11840      11950      11951      11962      11961  
     11830      11831      11842      11841      11951      11952      11963      11962  
     11831      11832      11843      11842      11952      11953      11964      11963  
     11832      11833      11844      11843      11953      11954      11965      11964  
     11833      11834      11845      11844      11954      11955      11966      11965  
     11834      11835      11846      11845      11955      11956      11967      11966  
     11835      11836      11847      11846      11956      11957      11968      11967  
     11837      11838      11849      11848      11958      11959      11970      11969  
     11838      11839      11850      11849      11959      11960      11971      11970  
     11839      11840      11851      11850      11960      11961      11972      11971  
     11840      11841      11852      11851      11961      11962      11973      11972  
     11841      11842      11853      11852      11962      11963      11974      11973  
     11842      11843      11854      11853      11963      11964      11975      11974  
     11843      11844      11855      11854      11964      11965      11976      11975  
     11844      11845      11856      11855      11965      11966      11977      11976  
     11845      11846      11857      11856      11966      11967      11978      11977  
     11846      11847      11858      11857      11967      11968      11979      11978  
     11859      11860      11871      11870      11980      11981      11992      11991  
     11860      11861      11872      11871      11981      11982      11993      11992  
     11861      11862      11873      11872      11982      11983      11994      11993  
     11862      11863      11874      11873      11983      11984      11995      11994  
     11863      11864      11875      11874      11984      11985      11996      11995  
     11864      11865      11876      11875      11985      11986      11997      11996  
     11865      11866      11877      11876      11986      11987      11998      11997  
     11866      11867      11878      11877      11987      11988      11999      11998  
     11867      11868      11879      11878      11988      11989      12000      11999  
     11868      11869      11880      11879      11989      11990      12001      12000  
     11870      11871      11882      11881      11991      11992      12003      12002  
     11871      11872      11883      11882      11992      11993      12004      12003  
     11872      11873      11884      11883      11993      11994      12005      12004  
     11873      11874      11885      11884      11994      11995      12006      12005  
     11874      11875      11886      11885      11995      11996      12007      12006  
     11875      11876      11887      11886      11996      11997      12008      12007  
     11876      11877      11888      11887      11997      11998      12009      12008  
     11877      11878      11889      11888      11998      11999      12010      12009  
     11878      11879      11890      11889      11999      12000      12011      12010  
     11879      11880      11891      11890      12000      12001      12012      12011  
     11881      11882      11893      11892      12002      12003      12014      12013  
     11882      11883      11894      11893      12003      12004      12015      12014  
     11883      11884      11895      11894      12004      12005      12016      12015  
     11884      11885      11896      11895      12005      12006      12017      12016  
     11885      11886      11897      11896      12006      12007      12018      12017  
     11886      11887      11898      11897      12007      12008      12019      12018  
     11887      11888      11899      11898      12008      12009      12020      12019  
     11888      11889      11900      11899      12009      12010      12021      12020  
     11889      11890      11901      11900      12010      12011      12022      12021  
     11890      11891      11902      11901      12011      12012      12023      12022  
     11892      11893      11904      11903      12013      12014      12025      12024  
     11893      11894      11905      11904      12014      12015      12026      12025  
     11894      11895      11906      11905      12015      12016      12027      12026  
     11895      11896      11907      11906      12016      12017      12028      12027  
     11896      11897      11908      11907      12017      12018      12029      12028  
     11897      11898      11909      11908      12018      12019      12030      12029  
     11898      11899      11910      11909      12019      12020      12031      12030  
     11899      11900      11911      11910      12020      12021      12032      12031  
     11900      11901      11912      11911      12021      12022      12033      12032  
     11901      11902      11913      11912      12022      12023      12034      12033  
     11903      11904      11915      11914      12024      12025      12036      12035  
     11904      11905      11916      11915      12025      12026      12037      12036  
     11905      11906      11917      11916      12026      12027      12038      12037  
     11906      11907      11918      11917      12027      12028      12039      12038  
     11907      11908      11919      11918      12028      12029      12040      12039  
     11908      11909      11920      11919      12029      12030      12041      12040  
     11909      11910      11921      11920      12030      12031      12042      12041  
     11910      11911      11922      11921      12031      12032      12043      12042  
     11911      11912      11923      11922      12032      12033      12044      12043  
     11912      11913      11924      11923      12033      12034      12045      12044  
     11914      11915      11926      11925      12035      12036      12047      12046  
     11915      11916      11927      11926      12036      12037      12048      12047  
     11916      11917      11928      11927      12037      12038      12049      12048  
     11917      11918      11929      11928      12038      12039      12050      12049  
     11918      11919      11930      11929      12039      12040      12051      12050  
     11919      11920      11931      11930      12040      12041      12052      12051  
     11920      11921      11932      11931      12041      12042      12053      12052  
     11921      11922      11933      11932      12042      12043      12054      12053  
     11922      11923      11934      11933      12043      12044      12055      12054  
     11923      11924      11935      11934      12044      12045      12056      12055  
     11925      11926      11937      11936      12046      12047      12058      12057  
     11926      11927      11938      11937      12047      12048      12059      12058  
     11927      11928      11939      11938      12048      12049      12060      12059  
     11928      11929      11940      11939      12049      12050      12061      12060  
     11929      11930      11941      11940      12050      12051      12062      12061  
     11930      11931      11942      11941      12051      12052      12063      12062  
     11931      11932      11943      11942      12052      12053      12064      12063  
     11932      11933      11944      11943      12053      12054      12065      12064  
     11933      11934      11945      11944      12054      12055      12066      12065  
     11934      11935      11946      11945      12055      12056      12067      12066  
     11936      11937      11948      11947      12057      12058      12069      12068  
     11937      11938      11949      11948      12058      12059      12070      12069  
     11938      11939      11950      11949      12059      12060      12071      12070  
     11939      11940      11951      11950      12060      12061      12072      12071  
     11940      11941      11952      11951      12061      12062      12073      12072  
     11941      11942      11953      11952      12062      12063      12074      12073  
     11942      11943      11954      11953      12063      12064      12075      12074  
     11943      11944      11955      11954      12064      12065      12076      12075  
     11944      11945      11956      11955      12065      12066      12077      12076  
     11945      11946      11957      11956      12066      12067      12078      12077  
     11947      11948      11959      11958      12068      12069      12080      12079  
     11948      11949      11960      11959      12069      12070      12081      12080  
     11949      11950      11961      11960      12070      12071      12082      12081  
     11950      11951      11962      11961      12071      12072      12083      12082  
     11951      11952      11963      11962      12072      12073      12084      12083  
     11952      11953      11964      11963      12073      12074      12085      12084  
     11953      11954      11965      11964      12074      12075      12086      12085  
     11954      11955      11966      11965      12075      12076      12087      12086  
     11955      11956      11967      11966      12076      12077      12088      12087  
     11956      11957      11968      11967      12077      12078      12089      12088  
     11958      11959      11970      11969      12079      12080      12091      12090  
     11959      11960      11971      11970      12080      12081      12092      12091  
     11960      11961      11972      11971      12081      12082      12093      12092  
     11961      11962      11973      11972      12082      12083      12094      12093  
     11962      11963      11974      11973      12083      12084      12095      12094  
     11963      11964      11975      11974      12084      12085      12096      12095  
     11964      11965      11976      11975      12085      12086      12097      12096  
     11965      11966      11977      11976      12086      12087      12098      12097  
     11966      11967      11978      11977      12087      12088      12099      12098  
     11967      11968      11979      11978      12088      12089      12100      12099  
     11980      11981      11992      11991      12101      12102      12113      12112  
     11981      11982      11993      11992      12102      12103      12114      12113  
     11982      11983      11994      11993      12103      12104      12115      12114  
     11983      11984      11995      11994      12104      12105      12116      12115  
     11984      11985      11996      11995      12105      12106      12117      12116  
     11985      11986      11997      11996      12106      12107      12118      12117  
     11986      11987      11998      11997      12107      12108      12119      12118  
     11987      11988      11999      11998      12108      12109      12120      12119  
     11988      11989      12000      11999      12109      12110      12121      12120  
     11989      11990      12001      12000      12110      12111      12122      12121  
     11991      11992      12003      12002      12112      12113      12124      12123  
     11992      11993      12004      12003      12113      12114      12125      12124  
     11993      11994      12005      12004      12114      12115      12126      12125  
     11994      11995      12006      12005      12115      12116      12127      12126  
     11995      11996      12007      12006      12116      12117      12128      12127  
     11996      11997      12008      12007      12117      12118      12129      12128  
     11997      11998      12009      12008      12118      12119      12130      12129  
     11998      11999      12010      12009      12119      12120      12131      12130  
     11999      12000      12011      12010      12120      12121      12132      12131  
     12000      12001      12012      12011      12121      12122      12133      12132  
     12002      12003      12014      12013      12123      12124      12135      12134  
     12003      12004      12015      12014      12124      12125      12136      12135  
     12004      12005      12016      12015      12125      12126      12137      12136  
     12005      12006      12017      12016      12126      12127      12138      12137  
     12006      12007      12018      12017      12127      12128      12139      12138  
     12007      12008      12019      12018      12128      12129      12140      12139  
     12008      12009      12020      12019      12129      12130      12141      12140  
     12009      12010      12021      12020      12130      12131      12142      12141  
     12010      12011      12022      12021      12131      12132      12143      12142  
     12011      12012      12023      12022      12132      12133      12144      12143  
     12013      12014      12025      12024      12134      12135      12146      12145  
     12014      12015      12026      12025      12135      12136      12147      12146  
     12015      12016      12027      12026      12136      12137      12148      12147  
     12016      12017      12028      12027      12137      12138      12149      12148  
     12017      12018      12029      12028      12138      12139      12150      12149  
     12018      12019      12030      12029      12139      12140      12151      12150  
     12019      12020      12031      12030      12140      12141      12152      12151  
     12020      12021      12032      12031      12141      12142      12153      12152  
     12021      12022      12033      12032      12142      12143      12154      12153  
     12022      12023      12034      12033      12143      12144      12155      12154  
     12024      12025      12036      12035      12145      12146      12157      12156  
     12025      12026      12037      12036      12146      12147      12158      12157  
     12026      12027      12038      12037      12147      12148      12159      12158  
     12027      12028      12039      12038      12148      12149      12160      12159  
     12028      12029      12040      12039      12149      12150      12161      12160  
     12029      12030      12041      12040      12150      12151      12162      12161  
     12030      12031      12042      12041      12151      12152      12163      12162  
     12031      12032      12043      12042      12152      12153      12164      12163  
     12032      12033      12044      12043      12153      12154      12165      12164  
     12033      12034      12045      12044      12154      12155      12166      12165  
     12035      12036      12047      12046      12156      12157      12168      12167  
     12036      12037      12048      12047      12157      12158      12169      12168  
     12037      12038      12049      12048      12158      12159      12170      12169  
     12038      12039      12050      12049      12159      12160      12171      12170  
     12039      12040      12051      12050      12160      12161      12172      12171  
     12040      12041      12052      12051      12161      12162      12173      12172  
     12041      12042      12053      12052      12162      12163      12174      12173  
     12042      12043      12054      12053      12163      12164      12175      12174  
     12043      12044      12055      12054      12164      12165      12176      12175  
     12044      12045      12056      12055      12165      12166      12177      12176  
     12046      12047      12058      12057      12167      12168      12179      12178  
     12047      12048      12059      12058      12168      12169      12180      12179  
     12048      12049      12060      12059      12169      12170      12181      12180  
     12049      12050      12061      12060      12170      12171      12182      12181  
     12050      12051      12062      12061      12171      12172      12183      12182  
     12051      12052      12063      12062      12172      12173      12184      12183  
     12052      12053      12064      12063      12173      12174      12185      12184  
     12053      12054      12065      12064      12174      12175      12186      12185  
     12054      12055      12066      12065      12175      12176      12187      12186  
     12055      12056      12067      12066      12176      12177      12188      12187  
     12057      12058      12069      12068      12178      12179      12190      12189  
     12058      12059      12070      12069      12179      12180      12191      12190  
     12059      12060      12071      12070      12180      12181      12192      12191  
     12060      12061      12072      12071      12181      12182      12193      12192  
     12061      12062      12073      12072      12182      12183      12194      12193  
     12062      12063      12074      12073      12183      12184      12195      12194  
     12063      12064      12075      12074      12184      12185      12196      12195  
     12064      12065      12076      12075      12185      12186      12197      12196  
     12065      12066      12077      12076      12186      12187      12198      12197  
     12066      12067      12078      12077      12187      12188      12199      12198  
     12068      12069      12080      12079      12189      12190      12201      12200  
     12069      12070      12081      12080      12190      12191      12202      12201  
     12070      12071      12082      12081      12191      12192      12203      12202  
     12071      12072      12083      12082      12192      12193      12204      12203  
     12072      12073      12084      12083      12193      12194      12205      12204  
     12073      12074      12085      12084      12194      12195      12206      12205  
     12074      12075      12086      12085      12195      12196      12207      12206  
     12075      12076      12087      12086      12196      12197      12208      12207  
     12076      12077      12088      12087      12197      12198      12209      12208  
     12077      12078      12089      12088      12198      12199      12210      12209  
     12079      12080      12091      12090      12200      12201      12212      12211  
     12080      12081      12092      12091      12201      12202      12213      12212  
     12081      12082      12093      12092      12202      12203      12214      12213  
     12082      12083      12094      12093      12203      12204      12215      12214  
     12083      12084      12095      12094      12204      12205      12216      12215  
     12084      12085      12096      12095      12205      12206      12217      12216  
     12085      12086      12097      12096      12206      12207      12218      12217  
     12086      12087      12098      12097      12207      12208      12219      12218  
     12087      12088      12099      12098      12208      12209      12220      12219  
     12088      12089      12100      12099      12209      12210      12221      12220  
